22149215,Jefferson,,,,Albert Jay Nock,2007,,Mises Institute,,355,0,English,,,0,9781610160360,,,,,,,,,,,0,,,,,1,,1,13868704,pdf,e47baf4b408e94e60c7a13b525c30ad3,,,Jefferson.pdf,0,2000-01-01 01:00:00,2016-04-03 02:51:08,854000/e47baf4b408e94e60c7a13b525c30ad3-d.jpg,,
22149216,Memoirs of a Superfluous Man,,,,Albert Jay Nock,2007,,Ludwig von Mises Institute,,,0,English,,,0,,,,,,,,,,,,0,,,,,1,,,1148902,epub,9c684b81a0f2aecd0f3e0e9b35fa59fb,,,Memoirs of a Superfluous Man.epub,0,2000-01-01 01:00:00,2016-04-03 02:51:08,854000/9c684b81a0f2aecd0f3e0e9b35fa59fb-d.jpg,,
22149217,Memoirs of a Superfluous Man,,,,Albert Jay Nock,2007,,Ludwig von Mises Institute,,338,0,English,,,0,,,,,,,,,,,,0,,,,,1,,1,20532468,pdf,a84b22546e1fa7706ac0ba31da26f52d,,,Memoirs of a Superfluous Man,0,2000-01-01 01:00:00,2016-04-03 02:51:08,854000/a84b22546e1fa7706ac0ba31da26f52d-d.jpg,,
22149218,L'Impero Romano,1,,,Santo Mazzarino,,,Laterza,Roma-Bari,375,0,italian,,,0,978-8842023777,,,,,,,,,,,0,,,,,1,,1,14254204,pdf,ab1e4405d656efbe62a1d9353fb51fd0,,,IMPERO ROMANO 1,0,2000-01-01 01:00:00,2016-04-03 02:51:08,854000/ab1e4405d656efbe62a1d9353fb51fd0-g.jpg,,
22149219,On Doing the Right Thing,,,,Albert Jay Nock,2007,,Ludwig von Mises Institute,,,0,English,,,0,,,,,,,,,,,,0,,,,,1,,,626390,epub,19bdc8e62d04d333e3aff0fd1b8c95c5,,,On Doing the Right Thing.epub,0,2000-01-01 01:00:00,2016-04-03 02:51:08,854000/19bdc8e62d04d333e3aff0fd1b8c95c5-d.jpg,,
22149220,On Doing the Right Thing,,,,Albert Jay Nock,2007,,Ludwig von Mises Institute,,264,0,English,,,0,,,,,,,,,,,,0,,,,,1,,1,9501755,pdf,049449fbbb342a90bb19c6b19f0e927a,,,On Doing the Right Thing.pdf,0,2000-01-01 01:00:00,2016-04-03 02:51:08,854000/049449fbbb342a90bb19c6b19f0e927a-d.jpg,,
22149221,L'Impero Romano,2,,,Santo Mazzarino,,,Laterza,Roma-Bari,375,0,italian,,,0,9788842092872,,,,,,,,,,,0,,,,,1,,1,19922682,pdf,e994a39b58e97ef6d8d89fea67e7483c,,,IMPERO ROMANO (2),0,2000-01-01 01:00:00,2016-04-03 02:51:08,854000/e994a39b58e97ef6d8d89fea67e7483c-d.jpg,,
22149222,"Snoring as a Fine Art, and Twelve Other Essays",,,,Albert Jay Nock,2008,,Ludwig von Mises Institute,,,0,English,,,0,,,,,,,,,,,,0,,,,,1,,,1018744,epub,54629e8ca2f84a78e0339d35feb014c9,,,"Snoring as a Fine Art, and Twelve Other Essays.epub",0,2000-01-01 01:00:00,2016-04-03 02:51:08,854000/54629e8ca2f84a78e0339d35feb014c9-d.jpg,,
22149223,"Snoring as a Fine Art, and Twelve Other Essays",,,,Albert Jay Nock,2008,,Ludwig von Mises Institute,,210,0,English,,,0,,,,,,,,,,,,0,,,,,1,,1,9943021,pdf,0349c4f70141fbe54b362d8166af8fe0,,,"Snoring as a Fine Art, and Twelve Other Essays.pdf",0,2000-01-01 01:00:00,2016-04-03 02:51:08,854000/0349c4f70141fbe54b362d8166af8fe0-d.jpg,,
22149224,The Book of Journeyman: Essays from the New Freeman,,,,Albert Jay Nock,1967,,Books for Libraries Press,,154,0,English,,,0,,,,,,,,,,,,0,,,,,1,,1,4826904,pdf,8c3fdeb43a76c112251712dc37dfc578,,,The Book of Journeyman Essays from the New Freeman.pdf,0,2000-01-01 01:00:00,2016-04-03 02:51:08,854000/8c3fdeb43a76c112251712dc37dfc578-g.jpg,,
22149225,Déformations  Infinitésimales  des Structures  Conformes Plates,,Progress in Mathematics 52,,"Jacques Gasqui,  Hubert Goldschmidt",1984,,Birkhäuser Boston,,234,0,French,,,0,"0817632603,9780817632601",,,,,,,,,,,300,,,,,1,,1,1595602,djvu,e9a6d6e313175671eb1e1278a985d82e,,,PIM 52 -Deformation,0,2000-01-01 01:00:00,2016-04-03 02:51:08,854000/e9a6d6e313175671eb1e1278a985d82e-g.jpg,,
22149226,The Freeman Book,,,,Albert Jay Nock,2008,,Ludwig von Mises Institute,,416,0,English,,,0,,,,,,,,,,,,0,,,,,1,,1,29264106,pdf,965dadb6c08a22951ee18832e8354d6c,,,The Freeman Book.pdf,0,2000-01-01 01:00:00,2016-04-03 02:51:08,854000/965dadb6c08a22951ee18832e8354d6c-d.jpg,,
22149227,"История цифр. Числа, символы, слова",,,,Карл Меннингер,2011,,Москва  иентрполигрАФ,,598,0,Russian,,,0,"5952449786,9785952449787",,,,,,,,,,,600,,,,,1,,1,16249817,djvu,aa7273b389d27d7a2516b9be1bac37fe,,,Menninger,0,2000-01-01 01:00:00,2016-04-03 02:51:08,854000/aa7273b389d27d7a2516b9be1bac37fe-d.jpg,,
22149228,Фундаментальные основы дискретной математики. Информационная математика,,,,Горбатов Вячеслав Афанасьевич,2000,,Наука. Физматлит,Москва,541,0,Russian,,,0,5-02-015238-2,,,519.45,22.145 (075.8),,,,,,,300,0,1,,,1,,1,5846027,djvu,655256825a9f2578f9004d7ebbc1f892,,,Горбатов В. А. - Фундаментальные основы дискретной математики. Информационная математика,0,2000-01-01 01:00:00,2016-04-03 02:51:08,854000/655256825a9f2578f9004d7ebbc1f892-g.jpg,,
22149229,The Myth of a Guilty Nation,,,,Albert Jay Nock,2011,,Ludwig von Mises Institute,,124,0,English,,,0,"1610162382,9781610162388",,,,,,,,,,,0,,,,,1,,,435717,epub,ea28335adb629fece19d51b4551bd4c3,,,The Myth of a Guilty Nation.epub,0,2000-01-01 01:00:00,2016-04-03 02:51:08,854000/ea28335adb629fece19d51b4551bd4c3-d.jpg,,
22149230,The Myth of a Guilty Nation,,,,Albert Jay Nock,2011,,Ludwig von Mises Institute,,124,0,English,,,0,"1610162382,9781610162388",,,,,,,,,,,0,,,,,1,,1,786873,pdf,97bb0cec56912066715077770e97e4bd,,,The Myth of a Guilty Nation.pdf,0,2000-01-01 01:00:00,2016-04-03 02:51:08,854000/97bb0cec56912066715077770e97e4bd-d.jpg,,
22149231,The theory of education in the United States,,The Page-Barbour lectures for 1931 at the University of Virginia,,Albert Jay Nock,1932,,"Harcourt, Brace and Company",,23,0,English,,,0,,,,,,,,,,,,0,,,,,1,,1,5205035,pdf,281dc1b63b8f86a004cf91dea18e9b9f,,,The Theory of Education in the United States The Page-Barbour Lectures for 1931 at the University of Virginia.pdf,0,2000-01-01 01:00:00,2016-04-03 02:51:08,854000/281dc1b63b8f86a004cf91dea18e9b9f-g.jpg,,
22149232,The theory of education in the United States,,The Page-Barbour lectures for 1931 at the University of Virginia,,Albert Jay Nock,1932,,"Harcourt, Brace and Company",,,0,English,,,0,,,,,,,,,,,,0,,,,,1,,,372630,epub,77afb532f13512c9df83edfb4af75eaa,,,The Theory of Education in the United States The Page-Barbour Lectures for 1931 at the University of Virginia.epub,0,2000-01-01 01:00:00,2016-04-03 02:51:08,854000/77afb532f13512c9df83edfb4af75eaa-g.jpg,,
22149233,The Development of Economic Doctrine: An Introductory Survey,,,,Alexander Gray,2009,,Ludwig von Mises Institute,,384,0,English,,,0,,,,,,,,,,,,0,,,,,1,,1,21596836,pdf,0d11994160710fe39edf52ec00c65654,,,The Development of Economic Doctrine An Introductory Survey.pdf,0,2000-01-01 01:00:00,2016-04-03 02:51:08,854000/0d11994160710fe39edf52ec00c65654-d.jpg,,
22149234,The Development of Economic Doctrine: An Introductory Survey,,,,Alexander Gray,2009,,Ludwig von Mises Institute,,384,0,English,,,0,,,B002SQZZZY,,,,,,,,,0,,,,,1,,,818123,epub,be94f0bb4c6b708ce0a08efdf6723c2e,,,The Development of Economic Doctrine An Introductory Survey.epub,0,2000-01-01 01:00:00,2016-04-03 02:51:08,854000/be94f0bb4c6b708ce0a08efdf6723c2e-d.jpg,,
22149235,The Socialist Tradition: Moses to Lenin,,,,Alexander Gray,2010,,Ludwig von Mises Institute,,531,0,English,,,0,"1933550686,9781933550688",,,,,,,,,,,0,,,,,1,,,803922,epub,0b92330cb66d8beac05fb191b11b149d,,,The Socialist Tradition Moses to Lenin.epub,0,2000-01-01 01:00:00,2016-04-03 02:51:08,854000/0b92330cb66d8beac05fb191b11b149d-d.jpg,,
22149236,The Socialist Tradition: Moses to Lenin,,,,Alexander Gray,2010,,Ludwig von Mises Institute,,531,0,English,,,0,"1933550686,9781933550688",,,,,,,,,,,0,,,,,1,,1,45590010,pdf,0594741b16b3ef0f5b8c2baa1d1ff107,,,The Socialist Tradition Moses to Lenin.pdf,0,2000-01-01 01:00:00,2016-04-03 02:51:08,854000/0594741b16b3ef0f5b8c2baa1d1ff107-d.jpg,,
22149237,The Great American Land Bubble,,,,A.M. Sakolski,2011,,Ludwig von Mises Institute,,434,0,English,,,0,"1610162412,9781610162418",,,,,,,,,,,0,,,,,1,,1,39227142,pdf,6a7c121b7f85b92244be681bcabaf680,,,"The Great American Land Bubble The Amazing Story of Land-Grabbing, Speculations, and Booms from Colonial Days to the Present Times.pdf",0,2000-01-01 01:00:00,2016-04-03 02:51:08,854000/6a7c121b7f85b92244be681bcabaf680-d.jpg,,
22149238,Fiat Money Inflation in France,,,,Andrew Dickson White,2007,,Ludwig von Mises Institute,,,0,English,,,0,9781610160827,,,,,,,,,,,0,,,,,1,,,1035465,epub,dd5d7e09e31c7611b53369b7b6e130d8,,,Fiat Money Inflation in France.epub,0,2000-01-01 01:00:00,2016-04-03 02:51:08,854000/dd5d7e09e31c7611b53369b7b6e130d8-d.jpg,,
22149239,Fiat Money Inflation in France,,,,Andrew Dickson White,2007,,Ludwig von Mises Institute,,79,0,English,,,0,9781610160827,,,,,,,,,,,0,,,,,1,,1,4854442,pdf,79a9df92c54d091d103952e83cd2e577,,,Fiat Money Inflation in France.pdf,0,2000-01-01 01:00:00,2016-04-03 02:51:08,854000/79a9df92c54d091d103952e83cd2e577-d.jpg,,
22149240,Adaptive Web Design: Crafting Rich Experiences with Progressive Enhancement,,,,"Aaron Gustafson, Jeffrey Zeldman",2011,1st,"Easy Readers, LLC",,144,0,English,70,,0,"098358950X,9780983589501",,,,,,,,,,,0,,,,,1,,1,4765173,pdf,89eb5062b6d9c42f4b17bd5db9c1c8d1,,,Easy.Readers.Adaptive.Web.Design.May.2011,0,2000-01-01 01:00:00,2016-04-03 02:51:08,854000/89eb5062b6d9c42f4b17bd5db9c1c8d1-d.jpg,,
22149241,Adaptive Web Design: Crafting Rich Experiences with Progressive Enhancement,,,,"Aaron Gustafson, Jeffrey Zeldman",2011,1st,"Easy Readers, LLC",,144,0,English,70,,0,"098358950X,9780983589501",,,,,,,,,,,0,,,,,1,,,12034341,epub,1de1ffdd3da84bd36c8068d95d3e8cc5,,,Easy.Readers.Adaptive.Web.Design.May.2011,0,2000-01-01 01:00:00,2016-04-03 02:51:08,854000/1de1ffdd3da84bd36c8068d95d3e8cc5-d.jpg,,
22149242,Territorio y Población: nuevas dinámicas regionales en el Paraguay,,,,Fabricio Vázquez,2006,,Asociación Paraguaya de Estudios de Población (ADEPO),,201,0,spanish,,,0,,,,,,,,,,,,0,,,0,,1,,1,11066241,pdf,8442dc5f2c7b98bdf4cbeae8c9b66e9e,,,Paraguay Territorio Y Poblacion,0,2000-01-01 01:00:00,2016-04-03 02:51:08,854000/8442dc5f2c7b98bdf4cbeae8c9b66e9e-g.jpg,,
22149243,Turgot Collection Pocket Edition,,,,Anne-Robert-Jacques Turgot,2011,,Ludwig von Mises Institute,,534,0,English,,,0,"1933550945,9781933550947",,,,,,,,,,,0,,,,,1,,,928719,epub,bb35eb9a9e0290dbe34b8c6dc8be2e44,,,"The Turgot Collection Writings, Speeches, and Letters of Anne Robert Jacques Turgot, Baron de Laune.epub",0,2000-01-01 01:00:00,2016-04-03 02:51:08,854000/bb35eb9a9e0290dbe34b8c6dc8be2e44-d.jpg,,
22149244,Turgot Collection Pocket Edition,,,,Anne-Robert-Jacques Turgot,2011,,Ludwig von Mises Institute,,534,0,English,,,0,"1933550945,9781933550947",,,,,,,,,,,0,,,,,1,,,1340417,mobi,6958f2a38a43f8bdd66bf18fef942913,,,"The Turgot Collection Writings, Speeches, and Letters of Anne Robert Jacques Turgot, Baron de Laune.mobi",0,2000-01-01 01:00:00,2016-04-03 02:51:08,854000/6958f2a38a43f8bdd66bf18fef942913-d.jpg,,
22149245,Turgot Collection Pocket Edition,,,,Anne-Robert-Jacques Turgot,2011,,Ludwig von Mises Institute,,534,0,English,,,0,"1933550945,9781933550947",,,,,,,,,,,0,,,,,1,,1,4853489,pdf,95043c5c8c722b8551dcf21f4465cce6,,,"The Turgot Collection Writings, Speeches, and Letters of Anne Robert Jacques Turgot, Baron de Laune.pdf",0,2000-01-01 01:00:00,2016-04-03 02:51:08,854000/95043c5c8c722b8551dcf21f4465cce6-d.jpg,,
22149246,Man and Nature in America,,Bison Book,,Arthur A. Ekirch Jr.,1973,,University of Nebraska Press,,247,0,English,,,0,"0803257856,9780803257856",,,,,,,,,,,0,,,,,1,,1,12006940,pdf,f77f67cdf948787ef1de27d22a7a1d58,,,Man and Nature in America.pdf,0,2000-01-01 01:00:00,2016-04-03 02:51:08,854000/f77f67cdf948787ef1de27d22a7a1d58-g.jpg,,
22149247,Theory of Prices: A Re-Examination of the Central Problems of Monetary Theory,1,,,Arthur W. Marget,1964,,Augustus M. Kelley,New York,652,0,English,,,0,,,,,,,,,,,,0,,,,,1,,1,49389481,pdf,58c8ab4bfdd986387ad41c9983332d51,,,"The Theory of Prices A Re-Examination of the Central Problems of Monetary Theory, Vol I.pdf",0,2000-01-01 01:00:00,2016-04-03 02:51:08,854000/58c8ab4bfdd986387ad41c9983332d51-g.jpg,,
22149248,The Theory of Prices: A Re-Examination of the Central Problems of Monetary Theory,2,,,Arthur W.  Marget,1966,,Augustus M. Kelley,New York,828,0,English,,,0,,,,,,,,,,,,0,,,,,1,,1,68332098,pdf,7141a9a06bb0845160401c5e0095ed88,,,"The Theory of Prices A Re-Examination of the Central Problems of Monetary Theory, Vol II.pdf",0,2000-01-01 01:00:00,2016-04-03 02:51:08,854000/7141a9a06bb0845160401c5e0095ed88-g.jpg,,
22149249,Фізика. Підручник,,,,Чолпан П.П.,2003,,Вища школа,,573,0,Ukrainian,,,0,966-642-112-7,,,53(075.8),22.3я73,,,,,,,0,,,,,1,,0,5029509,djvu,205116b81f0db70ada5033db9a3d4a04,27cde99aca153e67fc8b5b4ff8da468c,no,Cholpan_Phizyka,0,2000-01-01 01:00:00,2016-04-03 02:51:08,854000/205116b81f0db70ada5033db9a3d4a04-g.jpg,,
22149250,Crescita e declino. Studi di storia dell'economia romana,,,,Elio lo Cascio,2009,,L'Erma di Bretschneider,,385,0,Italian,,,0,9788882655624,,,,,,,,,,,0,,,,,1,,1,32500466,pdf,e0865748c6bafe4631439454ad14aa5d,,,Crescita e declino economia Romana,0,2000-01-01 01:00:00,2016-04-03 02:51:08,854000/e0865748c6bafe4631439454ad14aa5d-g.jpg,,
22149251,Trajano Emperador de Roma,,,,Julian Gonzalez (ed.),2000,,L'Erma di Bretschneider,,537,0,"Spanish,Italian,English",,,0,88-8265-111-8,,,,,,,,,,,0,,,,,1,,1,40041042,pdf,df6d624ba5548b81bfc6ea11b4661c7a,,,Trajano emperador de Roma,0,2000-01-01 01:00:00,2016-04-03 02:51:08,854000/df6d624ba5548b81bfc6ea11b4661c7a-g.jpg,,
22149252,Death and Desease in the Ancient City,,,,Valerie M. Hope,2011,,Routledge,,203,0,English,,,0,9780415619325,,,,,,,,,,,0,,,,,1,,1,16238585,pdf,1491eb5fcd45f16ceac413cbab581b9b,,,Death and Disease in the Ancient City - Valerie M. Hope,0,2000-01-01 01:00:00,2016-04-03 02:51:08,854000/1491eb5fcd45f16ceac413cbab581b9b-g.jpg,,
22149253,Елементарний підручник фізики. Том 1. Механіка. Теплота. Молекулярна фізика,Том 1,,,Ландсберг Г.С.,1968,5,Радянська школа,Київ,562,0,Ukrainian,,,0,,,,,,,,,,,,0,,,,,1,,0,13046986,djvu,f735b2b7b99a8837313d81e1a3fb2fb7,2fe244fdc6424771594c9ab1611e88c0,no,Landsberg_tom_1,0,2000-01-01 01:00:00,2016-04-03 02:51:08,854000/f735b2b7b99a8837313d81e1a3fb2fb7-g.jpg,,
22149254,Елементарний підручник фізики. Том 2. Електрика і магнетизм,Том 2,,,Ландсберг Г.С.,1967,4,Радянська школа,Київ,459,0,Ukrainian,,,0,,,,,,,,,,,,0,,,,,1,,0,10813672,djvu,7b3c1399ea1fd76c311a17f9501457aa,1b58d39cb4d1e63126109ab0c5e5e24e,no,Landsberg_tom_2,0,2000-01-01 01:00:00,2016-04-03 02:51:08,854000/7b3c1399ea1fd76c311a17f9501457aa-g.jpg,,
22149255,Apostazja Cesarza Juliana w świadectwach antycznych pisarzy i w nowożytnej historiografii,,,,Lucjan Bielas,2001,,WAM,Kraków,251,0,Polish,,,0,83-7097-852-5,,,,,,,,,,,0,,,,,1,,1,5412326,pdf,6fff04b74e097ed8f76f3198c8b9bf2d,,,BIELAS-Apostazja cesarza Juliana...-2001,0,2000-01-01 01:00:00,2016-04-03 02:51:08,854000/6fff04b74e097ed8f76f3198c8b9bf2d-g.jpg,,
22149256,"Елементарний підручник фізики. Том 3. Коливання, хвилі, оптика, будова атома",3,,,Ландсберг Г.С.,1968,4,Радянська школа,Київ,526,0,Ukrainian,264,,0,,,,,,,,,,,,0,,,,,1,,0,14368439,djvu,29ac8ab2dbb7e695312b4854cf5b85ce,4fbcf6e41c53bdbe193cb71d2ae58dc0,no,Landsberg_tom_3,0,2000-01-01 01:00:00,2016-04-03 02:51:08,854000/29ac8ab2dbb7e695312b4854cf5b85ce-g.jpg,,
22149257,Economics and the Public Welfare,,,,Benjamin M. Anderson,1980,2nd,Liberty Fund Inc.,,595,0,English,,,0,"0913966681,9780913966686",,,,,,,,,,,0,,,,,1,,1,39280139,pdf,324ad0453c1d114c0dde2a6600442ad5,,,Economics and the Public Welfare.pdf,0,2000-01-01 01:00:00,2016-04-03 02:51:08,854000/324ad0453c1d114c0dde2a6600442ad5-d.jpg,,
22149258,"Effects of the War on Money, Credit and Banking in France and the United States",,,,Benjamin M. Anderson,1919,1St Edition,"Oxford University Press, American Branch",,241,0,English,,,0,,,,,,,,,,,,0,,,,,1,,1,13940460,pdf,5cd2c9dcf4149b45e337240a33e76e7d,,,"Effects of the War on the Money, Banking, Credit System of the United States.pdf",0,2000-01-01 01:00:00,2016-04-03 02:51:08,854000/5cd2c9dcf4149b45e337240a33e76e7d-d.jpg,,
22149259,The Value of Money,,,,Benjamin M. Anderson,1917,,MacMillan Company,New York,646,0,English,,,0,9781610160469,,,,,,,,,,,0,,,,,1,,1,27468893,pdf,7dfed412766457848f4f31e93b24797d,,,The Value of Money.pdf,0,2000-01-01 01:00:00,2016-04-03 02:51:08,854000/7dfed412766457848f4f31e93b24797d-d.jpg,,
22149260,The Value of Money,,,,Benjamin M. Anderson,1917,,MacMillan Company,New York,,0,English,,,0,9781610160469,,,,,,,,,,,0,,,,,1,,,1094508,epub,ac26847c8a477882c554932ebb04e0e9,,,The Value of Money.epub,0,2000-01-01 01:00:00,2016-04-03 02:51:08,854000/ac26847c8a477882c554932ebb04e0e9-d.jpg,,
22149261,Individual Liberty,,,,Benjamin R. Tucker,1926,,Vanguard Press,New York,304,0,English,,,0,,,,,,,,,,,,0,,,,,1,,1,23118584,pdf,51162eff4d1ae09e81e2a4a0f3dd3a28,,,Individual Liberty.pdf,0,2000-01-01 01:00:00,2016-04-03 02:51:08,854000/51162eff4d1ae09e81e2a4a0f3dd3a28-g.jpg,,
22149262,Free Market Economics: A Reader,,,,Bettina Bien Greaves,2007,,Ludwig von Mises Institute,,,0,English,,,0,,,,,,,,,,,,0,,,,,1,,,885035,epub,0edeb77a33b85105d316bd2ad21240d9,,,Free Market Economics A Basic Reader.epub,0,2000-01-01 01:00:00,2016-04-03 02:51:08,854000/0edeb77a33b85105d316bd2ad21240d9-d.jpg,,
22149263,Free Market Economics: A Reader,,,,Bettina Bien Greaves,2007,,Ludwig von Mises Institute,,,0,English,,,0,,,,,,,,,,,,0,,,,,1,,,1838936,mobi,0723af79c387290263ccd5fed695a3cf,,,Free Market Economics A Basic Reader.mobi,0,2000-01-01 01:00:00,2016-04-03 02:51:08,854000/0723af79c387290263ccd5fed695a3cf-d.jpg,,
22149264,Free Market Economics: A Reader,,,,Bettina Bien Greaves,2007,,Ludwig von Mises Institute,,298,0,English,,,0,,,,,,,,,,,,0,,,,,1,,1,27955553,pdf,61bb0c914adf48698139726311f7afd3,,,Free Market Economics A Basic Reader.pdf,0,2000-01-01 01:00:00,2016-04-03 02:51:08,854000/61bb0c914adf48698139726311f7afd3-d.jpg,,
22149265,Free Market Economics: A Syllabus,,,,Bettina Bien Greaves,2007,,Ludwig von Mises Institute,,,0,English,,,0,,,,,,,,,,,,0,,,,,1,,,1530313,epub,985d88c413a8e8921048bd9ec8c35a2b,,,Free Market Economics A Syllabus.epub,0,2000-01-01 01:00:00,2016-04-03 02:51:08,854000/985d88c413a8e8921048bd9ec8c35a2b-d.jpg,,
22149266,Free Market Economics: A Syllabus,,,,Bettina Bien Greaves,2007,,Ludwig von Mises Institute,,,0,English,,,0,,,,,,,,,,,,0,,,,,1,,,2584420,mobi,91db0118d75b45787ce4815e60e425c7,,,Free Market Economics A Syllabus.mobi,0,2000-01-01 01:00:00,2016-04-03 02:51:08,854000/91db0118d75b45787ce4815e60e425c7-d.jpg,,
22149267,Free Market Economics: A Syllabus,,,,Bettina Bien Greaves,2007,,Ludwig von Mises Institute,,250,0,English,,,0,,,,,,,,,,,,0,,,,,1,,1,23881981,pdf,e348b89730f2898ab5a4e25ccd7aa55d,,,Free Market Economics A Syllabus.pdf,0,2000-01-01 01:00:00,2016-04-03 02:51:08,854000/e348b89730f2898ab5a4e25ccd7aa55d-d.jpg,,
22149268,Mises: An Annotated Bibliography : A Comprehensive Listing of Books and Articles by and About Ludwig Von Mises,,,,Bettina Bien Greaves,1993,,Foundation for Economic Education,,408,0,English,,,0,"0910614792,9780910614795",,,,,,,,,,,0,,,,,1,,1,28937683,pdf,4e560ceeb80497f3383058a9a28599f1,,,Mises An Annotated Bibliography.pdf,0,2000-01-01 01:00:00,2016-04-03 02:51:08,854000/4e560ceeb80497f3383058a9a28599f1-d.jpg,,
22149269,Математическая статистика,,,,Боровков Александр Алексеевич,1997,,Изд-во Института математики им. С. Л. Соболева СО РАН,Новосибирск,772,0,Russian,,,0,5-86134-024-2,,,519.31,22.172,,,,,,,300,,,0,,1,,1,8018597,djvu,dbc1c1867724abe4547a599d12601a83,,,Боровков А. А. - Математическая статистика,0,2000-01-01 01:00:00,2016-04-03 02:51:08,854000/dbc1c1867724abe4547a599d12601a83-g.jpg,,
22149270,"Bagels, Barry Bonds, and Rotten Politicians",,,,Burton S. Blumert,2008,,Ludwig von Mises Institute,,366,0,English,,,0,"1933550309,9781933550305",,,,,,,,,,,0,,,,,1,,1,2707311,pdf,227794e7afcb344546f606dc35c7d8ac,,,"Bagels, Barry Bonds, and Rotten Politicians.pdf",0,2000-01-01 01:00:00,2016-04-03 02:51:08,854000/227794e7afcb344546f606dc35c7d8ac-d.jpg,,
22149271,Boundaries of Order: Private Property as a Social System,,,,Butler D. Shaffer,2009,1st,Ludwig von Mises Institute,,350,0,English,,,0,"1933550163,9781933550169",,,,,,,,,,,0,,,,,1,,,938861,epub,5259194b71e3f5ea101abf9b4f4b4014,,,Boundaries of Order Private Property as a Social System.epub,0,2000-01-01 01:00:00,2016-04-03 02:51:08,854000/5259194b71e3f5ea101abf9b4f4b4014-d.jpg,,
22149272,Boundaries of Order: Private Property as a Social System,,,,"Butler Shaffer, Butler D. Shaffer",2009,1st,Ludwig von Mises Institute,,350,0,English,,,0,"1933550163,9781933550169",,,,,,,,,,,0,,,,,1,,1,3132870,pdf,fe4805a433ab1e6adf9c92ae030c8bb8,,,Boundaries of Order Private Property as a Social System.pdf,0,2000-01-01 01:00:00,2016-04-03 02:51:08,854000/fe4805a433ab1e6adf9c92ae030c8bb8-d.jpg,,
22149273,"In Restraint of Trade: The business campaign against competition, 1918-1938",,,,Butler Shaffer,2008,,Ludwig von Mises Institute,,,0,English,,,0,9781610161145,,,,,,,,,,,0,,,,,1,,,916028,epub,5f93a694fd8d49d627598e7be2a29d62,,,"In Restraint of Trade The Business Campaign Against Competition, 1918-1938.epub",0,2000-01-01 01:00:00,2016-04-03 02:51:08,854000/5f93a694fd8d49d627598e7be2a29d62-d.jpg,,
22149274,"In Restraint of Trade: The business campaign against competition, 1918-1938",,,,Butler Shaffer,2008,,Ludwig von Mises Institute,,288,0,English,,,0,9781610161145,,,,,,,,,,,0,,,,,1,,1,17533506,pdf,7bdb0eec3a39e8cf6ae4cfb6c1fe0cb0,,,"In Restraint of Trade The Business Campaign Against Competition, 1918-1938.pdf",0,2000-01-01 01:00:00,2016-04-03 02:51:08,854000/7bdb0eec3a39e8cf6ae4cfb6c1fe0cb0-d.jpg,,
22149275,The Wizards of Ozymandias,,,,Butler Shaffer,2012,,Ludwig von Mises Institute,,310,0,English,,,0,"1610162528,9781610162524",,,,,,,,,,,0,,,,,1,,,680855,epub,43d17db46a5d5b2cce887f316f7f5356,,,The Wizards of Ozymandias.epub,0,2000-01-01 01:00:00,2016-04-03 02:51:08,854000/43d17db46a5d5b2cce887f316f7f5356-d.jpg,,
22149276,The Wizards of Ozymandias,,,,Butler Shaffer,2012,,Ludwig von Mises Institute,,310,0,English,,,0,"1610162528,9781610162524",,,,,,,,,,,0,,,,,1,,,592064,mobi,ba1de91dec32ee204edbcddeeb7a6d58,,,The Wizards of Ozymandias.mobi,0,2000-01-01 01:00:00,2016-04-03 02:51:08,854000/ba1de91dec32ee204edbcddeeb7a6d58-d.jpg,,
22149277,The Wizards of Ozymandias,,,,Butler Shaffer,2012,,Ludwig von Mises Institute,,310,0,English,,,0,"1610162528,9781610162524",,,,,,,,,,,0,,,,,1,,1,1253306,pdf,91b4866c5b3a8fcb32dd80edbf18be7f,,,The Wizards of Ozymandias.pdf,0,2000-01-01 01:00:00,2016-04-03 02:51:08,854000/91b4866c5b3a8fcb32dd80edbf18be7f-d.jpg,,
22149278,Modern Physics for Scientists and Engineers,,,,John C Morrison,,,Academic Press,,467,0,English,,,0,978-0-12-375112-6,,,,,,,,,,,0,,,,0,0,,1,6393159,pdf,80279f2bd2e47dca19967d86c16bb334,,,Modern Physics For Scientists and Engineers,0,2000-01-01 01:00:00,2016-04-03 02:51:08,854000/80279f2bd2e47dca19967d86c16bb334-g.jpg,,
22149279,C#. Сборник рецептов,CD-ROM,,,Агуров П.В.,2007,,,,0,0,Russian,92,,0,,,,,,,,,,,,0,,,,,1,,,2490058,rar,7f7496bcbd173475db1c1e025276aced,,,C_ Сборник рецептов. Агуров П.В,0,2000-01-01 01:00:00,2016-04-03 02:51:08,,,
22149280,PHP5 практика разработки web-сайтов,CD-ROM,,,М.Кузнецов,2005,,,,0,0,Russian,92,,0,,,,,,,,,,,,0,,,,,1,,,57647757,rar,9fdf2eeb7e005ba747506eadf4dd7181,,,CD М.Кузнецов-PHP5 практика разработки web-сайтов,0,2000-01-01 01:00:00,2016-04-03 02:51:08,,,
22149281,Аппаратура для проверки и налаживания приемников,,Массовая Радио Библиотека 0011,,З.Б. Гинсбург,1949,,Госэнергоиздат,,35,0,Russian,,,0,,,,,,,,,,,,0,,,,,1,,0,1014563,djvu,3279394f11bb9a827b91efbaaf38d104,d8269b5781500b7777a0c89492fd16e7,no,mrb0011 Аппаратура для проверки и налаживания приемников З.Б.Гинсбург 1949-600M,0,2000-01-01 01:00:00,2016-04-03 02:51:08,854000/3279394f11bb9a827b91efbaaf38d104-g.jpg,,
22149282,Радиолампы отечественного производства,,Массовая радиобиблиотека 0014,,Дроздов К.И.,1949,,Госэнергоиздат,,14,0,Russian,,,0,,,,,,,,,,,,0,,,,,1,,0,1326863,djvu,7ce6cbb0a868dbfe5dc6b8b6aa152c01,613752f02e669b873fdde96769c58f7a,no,mrb0014 Радиолампы отечественного производства К.И.Дроздов 1949-600M,0,2000-01-01 01:00:00,2016-04-03 02:51:08,854000/7ce6cbb0a868dbfe5dc6b8b6aa152c01-g.jpg,,
22149283,Самодельная измерительная аппаратура,,Массовая радиобиблиотека 0020,,Р. Малинин,1949,,Госэнергоиздат,,52,0,Russian,,,0,,,,,,,,,,,,0,,,,,1,,0,1625569,djvu,0830cdbe6eccd2d72c25fcfbc2704d14,7cb48ca9150fa98c2a8c8b5da3d055d0,no,mrb0020 Самодельная измерительная аппаратура Р.Малинин 1949-600M,0,2000-01-01 01:00:00,2016-04-03 02:51:08,854000/0830cdbe6eccd2d72c25fcfbc2704d14-g.jpg,,
22149284,Приборы для проверки и налаживания радиоприемников,,Массовая радиобиблиотека 0027,,,1949,,Госэнергоиздат,,73,0,Russian,256,,0,,,,,,,,,,,,0,,,,,1,,0,1702852,djvu,1d18a5089a972eaaa425599ece8291da,7df719ffd9807cb65a4bcc1a29053f25,no,mrb0027,0,2000-01-01 01:00:00,2016-04-03 02:51:08,854000/1d18a5089a972eaaa425599ece8291da-g.jpg,,
22149285,Шестнадцать радиолюбительских схем,,Массовая радиобиблиотека 0044,,В.В.Енютин,1949,,Госэнергоиздат,,124,0,Russian,256,,0,,,,,,,,,,,,0,,,,,1,,0,3595652,djvu,89bc9f51bf311756341dc0502042fbfa,3c0982131b7ddfbfb4deee06be58c13c,no,mrb0044 Шестнадцать радиолюбительских схем В.В.Енютин 1949-600M,0,2000-01-01 01:00:00,2016-04-03 02:51:08,854000/89bc9f51bf311756341dc0502042fbfa-g.jpg,,
22149286,Расчет маломощных силовых трансформаторов и дросселей фильтров,,Массовая радиобиблиотека 0060,,Кризе С.Н.,1950,,Госэнергоиздат,,45,0,Russian,250,,0,,,,,,,,,,,,0,,,,,1,,0,600383,djvu,5101113998ede3b2207e4dfef8d45a1e,266e79b58037b868757e8866b61bc36a,no,mrb0060,0,2000-01-01 01:00:00,2016-04-03 02:51:08,854000/5101113998ede3b2207e4dfef8d45a1e-g.jpg,,
22149287,Выходная ступень радиоприемника,,Массовая радиобиблиотека 0098,,Е.А. Левитин,1951,,Госэнергоиздат,,56,0,Russian,250,,0,,,,,,,,,,,,0,,,,,1,,0,600421,djvu,6e81d59d8b18190286ac24a40de132b8,5bf139a8885acc2b883516ada5640af6,no,mrb0098,0,2000-01-01 01:00:00,2016-04-03 02:51:08,854000/6e81d59d8b18190286ac24a40de132b8-g.jpg,,
22149288,Массовые батарейные радиоприемники,,Массовая радиобиблиотека 0107,,Комаров А.В.,1951,,Госэнергоиздат,,81,0,Russian,250,,0,,,,,,,,,,,,0,,,,,1,,0,1734713,djvu,41c0a09b76d7f7c8969c15335a4b2874,2e5565c83d59da948c5415a5993f0d1f,no,mrb0107,0,2000-01-01 01:00:00,2016-04-03 02:51:08,854000/41c0a09b76d7f7c8969c15335a4b2874-g.jpg,,
22149289,Конструирование любительских коротковолновых приемников,,Массовая радиобиблиотека 0171,,К.А.Шульгин,1953,,Госэнергоиздат,,145,0,Russian,,,0,,,,,,,,,,,,0,,,,,1,,0,3221933,djvu,c08d04cd304e3d086f26422361ae11ee,3b92068a3dbb0594a61b5ded87a8e2ec,no,mrb0171 Конструир любительск коротковолн приемников К.А.Шульгин 1953-600M,0,2000-01-01 01:00:00,2016-04-03 02:51:08,854000/c08d04cd304e3d086f26422361ae11ee-g.jpg,,
22149290,Выходные трансформаторы,,Массовая радиобиблиотека 0173,,С.Н. Кризе,1953,,Госэнергоиздат,,19,0,Russian,250,,0,,,,,,,,,,,,0,,,,,1,,0,609360,djvu,26dde415b3e0faf5d53999b4f075def7,07c189a7bb1da0d22f7a1ed93799e756,no,mrb0175 С.Н. Кризе Выходные трансформаторы,0,2000-01-01 01:00:00,2016-04-03 02:51:08,854000/26dde415b3e0faf5d53999b4f075def7-g.jpg,,
22149291,Расчет измерительных приборов,,Массовая радиобиблиотека 0215,,С.Сепанов,1955,,Госэнергоиздат,,33,0,Russian,,,0,,,,,,,,,,,,0,,,,,1,,0,925499,djvu,ebf55c6dc61f939b3814aaed24d9c239,f857f657da6be2ce0a63db40e85170be,no,mrb0215 Расчет измерительных приборов С.Сепанов 1955-600M,0,2000-01-01 01:00:00,2016-04-03 02:51:08,854000/ebf55c6dc61f939b3814aaed24d9c239-g.jpg,,
22149292,Снижение уровня шумов в усилителях низкой частоты,,Массовая радиобиблиотека 0244,,В.Б.Григоров,1956,,Госэнергоиздат,,40,0,Russian,256,,0,,,,,,,,,,,,0,,,,,1,,0,1332828,djvu,410159db6f2274a59809c3ec894d97c1,50829fe53bd0e874615c037e7691b557,no,mrb0244 Снижение уровня шумов в УНЧ В.Б.Григоров 1956-600M,0,2000-01-01 01:00:00,2016-04-03 02:51:08,854000/410159db6f2274a59809c3ec894d97c1-g.jpg,,
22149293,Стробоскопы и их применение,,Массовая радиобиблиотека 0246,,Либин И.Ш,1956,,Госэнергоиздат,,22,0,Russian,,,0,,,,,,,,,,,,0,,,,,1,,0,2857950,djvu,3dee6ff03a475c4282106ffd439df2dd,2fbc345b2f93058ee8866cb836f0b7aa,no,mrb0246 Стробоскопы и их применение  И.Ш.Либин 1956-600M,0,2000-01-01 01:00:00,2016-04-03 02:51:08,854000/3dee6ff03a475c4282106ffd439df2dd-g.jpg,,
22149294,Arthura O. Lovejoya filozofia i koncepcja historii idei,,,,Jerzy Cabaj,1989,,Uniwersytet Marii Curie-Skłodowskiej,Lublin,152,0,Polish,,,0,,,,,,,,,,,,0,,,,,1,,1,3883806,pdf,ad62f1a681c1392ca6091e4834d3153e,,,CABAJ-Artura O. Lovejoya filozofia i koncepcja historii idei-1989,0,2000-01-01 01:00:00,2016-04-03 02:51:08,854000/ad62f1a681c1392ca6091e4834d3153e-g.jpg,,
22149295,Азбука радиосхем,,Массовая радиобиблиотека 0259,,Л.В.Кубаркин,1957,,Госэнергоиздат,,34,0,Russian,250,,0,,,,,,,,,,,,0,,,,,1,,0,2130099,djvu,dee4d34af5a6f0bafca0b384166207aa,8f21c748cbbe1996c5945133e662b306,no,mrb0259 Азбука радиосхем Л.В.Кубаркин 1957-600M,0,2000-01-01 01:00:00,2016-04-03 02:51:08,854000/dee4d34af5a6f0bafca0b384166207aa-g.jpg,,
22149296,Любительский сетевой приемник с УКВ диапазоном,,Массовая радиобиблиотека 0270,,Л.А.Штейерт,1967,,Госэнергоиздат,,18,0,Russian,,,0,,,,,,,,,,,,0,,,,,1,,0,1609854,djvu,eecc6b34640986b73eac1c1a563379ab,c08acecc734aaccb38ccd4270372687e,no,mrb0270 Любит сетевой приёмник УКВ диапазон Л.А.Штейерт 1967-600M,0,2000-01-01 01:00:00,2016-04-03 02:51:08,854000/eecc6b34640986b73eac1c1a563379ab-g.jpg,,
22149297,С#. программирование для профессионалов,,,,Скит Джон,2011,2-е,И.Д. Вильямс,,544,0,Russian,92,,0,978-5-8459-1555-9,,,681.3.07,32.973.26-018.2.75,,,,,,,0,,,,,1,,1,5911936,djvu,e54209ef2211e634bc78135829c9d5d5,,,C_ программирование для профессионалов 2011,0,2000-01-01 01:00:00,2016-04-03 02:51:08,854000/e54209ef2211e634bc78135829c9d5d5-g.jpg,,
22149298,Расчет и проектирование полупроводниковых приборов,Том 2,Полупроводниковые материалы и прибороы,,Глебов Г.Д. (ред.),1963,,ОБОРОНГИЗ,,532,0,Russian,250,,0,,,,,,,,,,,,0,,,,,1,,1,10638810,djvu,13217c5a899529bf233f692535f6b113,,,"G., Shif Dzh. N. (eds.) Raschet i proektirovanie poluprovodnikovyx priborov (Inostrannaya literatura, 1961)(600dpi)(K)(T)(532s).djvu",0,2000-01-01 01:00:00,2016-04-03 02:51:08,854000/13217c5a899529bf233f692535f6b113-g.jpg,,
22149299,Электромеханические фильтры радиочастот,,Массовая радиобиблиотека 0282,,Голубцов М.Г,1957,,Госэнергоиздат,,26,0,Russian,256,,0,,,,,,,,,,,,0,,,,,1,,0,1711252,djvu,649245aa726fe961e3f388e167c63199,6debd842d432760eff26b43abd81b48f,no,mrb0282 Электромеханические фильтры радиочастот М.Г.Голубцов 1957-600M,0,2000-01-01 01:00:00,2016-04-03 02:51:08,854000/649245aa726fe961e3f388e167c63199-g.jpg,,
22149300,Язык программирования D,,,,Андрей Александреску,2012,,Символ-Плюс,,536,0,Russian,92,,0,978-5-93286-205-6,,,,,,,,,,,0,,,,,1,,1,13828290,pdf,761a9050359407e180669dacecff964a,,,Андрей Александреску - Язык программирования D - 2012,0,2000-01-01 01:00:00,2016-04-03 02:51:08,854000/761a9050359407e180669dacecff964a-g.jpg,,
22149301,Любительские радиостанции на диапазоны 144-146 и 420-425 Мгц,,Массовая радиобиблиотека 0288,,В.А.Ломанович,1958,,Госэнергоиздат,,50,0,Russian,256,,0,,,,,,,,,,,,0,,,,,1,,0,3088951,djvu,172a07d6ff40b2c9c77f48c921eb7b75,e573f9fafdadbbd122140c25e28e0fab,no,mrb0288 Любительские радиостанции на диапазоны 144-146 и 420-425 Мгц В.А.Ломанович 1958-600M,0,2000-01-01 01:00:00,2016-04-03 02:51:08,854000/172a07d6ff40b2c9c77f48c921eb7b75-g.jpg,,
22149302,Внешнее оформление приемника,,Массовая радиобиблиотека 0294,,Андреев И.В,1958,,Госэнергоиздат,,50,0,Russian,,,0,,,,,,,,,,,,0,,,,,1,,0,1468386,djvu,30ca20d145451bbde47529db7f3b7f30,a12848c48608cd097cc913fdab62c689,no,mrb0294,0,2000-01-01 01:00:00,2016-04-03 02:51:08,854000/30ca20d145451bbde47529db7f3b7f30-g.jpg,,
22149303,Радиолюбительские конструкции,,Массовая радиобиблиотека 0321,,В.А.Бурлянд,1959,,Госэнергоиздат,,195,0,Russian,,,0,,,,,,,,,,,,0,,,,,1,,0,5936511,djvu,c7a0426cc244f81e0b6ecde71d91f43e,6ada14203d49d4ab3461e90c431f99a1,no,mrb0321 Радиолюбительские конструкции В.А.Бурлянд 1959-600M,0,2000-01-01 01:00:00,2016-04-03 02:51:08,854000/c7a0426cc244f81e0b6ecde71d91f43e-g.jpg,,
22149304,Коаксиальные кабели,,Массовая радиобиблиотека 0324,,С.Е.Загик,1959,,Госэнергоиздат,,23,0,Russian,,,0,,,,,,,,,,,,0,,,,,1,,0,1466310,djvu,8a19e4749a18d76b0b908c8b17cbe9dd,f7dd56c2047280a9c5ac8491e34163f5,no,mrb0324 Коаксиальные кабели С.Е.Загик 1959-600M,0,2000-01-01 01:00:00,2016-04-03 02:51:08,854000/8a19e4749a18d76b0b908c8b17cbe9dd-g.jpg,,
22149305,Карманный приёмник на транзисторах,,Массовая радиобиблиотека 0334,,Лабутин В.К.,1959,,Госэнергоиздат,,26,0,Russian,250,,0,,,,,,,,,,,,0,,,,,1,,0,3179861,djvu,2c815a9ef8b8d3199c958d3c66871542,98d1dcd504ac2d908e0a087db5e20565,no,mrb0334 Карманный приёмник на транзисторах В.К.Лабутин 1959-600M,0,2000-01-01 01:00:00,2016-04-03 02:51:08,854000/2c815a9ef8b8d3199c958d3c66871542-g.jpg,,
22149306,Ремонт развертывающих устройств телевизоров,,Массовая радиобиблиотека 0377,,Самойлов Г.П.,1960,,Госэнергоиздат,,105,0,Russian,259,,0,,,,,,,,,,,,0,,,,,1,,0,6442356,djvu,1eeb139f08bace83bfe312769b6cc4a1,612e15fb276dac41721a7f1872abe05d,no,mrb0377_1,0,2000-01-01 01:00:00,2016-04-03 02:51:08,854000/1eeb139f08bace83bfe312769b6cc4a1-g.jpg,,
22149307,Справочник по электровакуумным и полупроводниковым приборам,,Массовая радиобиблиотека 0383,,"А.М.Бройде, Ф.И.Тарасов",1962,,Госэнергоиздат,,256,0,Russian,250,,0,,,,,,,,,,,,0,,,,,1,,0,4294794,djvu,ddecbfb0736c2d2ecf54faa96d18fdc2,bd4e9cb864a8db14ffe37608eb38c5e2,no,mrb0383_2,0,2000-01-01 01:00:00,2016-04-03 02:51:08,854000/ddecbfb0736c2d2ecf54faa96d18fdc2-g.jpg,,
22149308,Радиовещательная аппаратура на ВДНХ,,Массовая радиобиблиотека 0402,,С.В.Литвинов,1961,,Госэнергоиздат,,72,0,Russian,,,0,,,,,,,,,,,,0,,,,,1,,0,5664000,djvu,aae6cc8a99b48b5b1772265de7aa2b8c,4543bf451695db0bb730eecaf2ec95a7,no,mrb0402 Радиовещательн_аппаратура_ВДНХ_С.В.Литвинов_1961-600M,0,2000-01-01 01:00:00,2016-04-03 02:51:08,854000/aae6cc8a99b48b5b1772265de7aa2b8c-g.jpg,,
22149309,Комбинированная радиоустановка,,Массовая радиобиблиотека 0413,,Г.А.Бортновский,1961,,Госэнергоиздат,,40,0,Russian,250,,0,,,,,,,,,,,,0,,,,,1,,0,4770495,djvu,f3f44a4a17b61e97ec62d3bb7948a27e,7235e5f37b3fc0013391268dc3d82864,no,mrb0413 Комбинированная_радиоустановка_Г.А.Бортновский_1961-600M,0,2000-01-01 01:00:00,2016-04-03 02:51:08,854000/f3f44a4a17b61e97ec62d3bb7948a27e-g.jpg,,
22149310,Рассказ о радиоприемнике,,Массовая радиобиблиотека 0428,,А.Г.Соболевский,1962,,Госэнергоиздат,,50,0,Russian,256,,0,,,,,,,,,,,,0,,,,,1,,0,2684360,djvu,8c05c86e07d50eacff3d583d52e8baae,cec589be92da8dc03d91d34b59c2ed13,no,mrb0428 Рассказ_о_радиоприемнике_А.Г.Соболевский_1962-600M,0,2000-01-01 01:00:00,2016-04-03 02:51:08,854000/8c05c86e07d50eacff3d583d52e8baae-g.jpg,,
22149311,Всеволновый любительский радиоприёмник,,Массовая радиобиблиотека 0434,,А.Х.Чернышев,1962,,Госэнергоиздат,,14,0,Russian,250,,0,,,,,,,,,,,,0,,,,,1,,0,800657,djvu,d5327603984fe7c359931e090efe9908,9a1d07bf839249468dd2fe6d4274adb0,no,mrb0434 Всеволновый любительский радиоприёмник А.Х.Чернышев 1962-600M,0,2000-01-01 01:00:00,2016-04-03 02:51:08,854000/d5327603984fe7c359931e090efe9908-g.jpg,,
22149312,Акустическое оформление громкоговорителей,,Массовая радиобиблиотека 0441,,Эфрусси М.М,1962,,Госэнергоиздат,,26,0,Russian,,,0,,,,,,,,,,,,0,,,,,1,,0,921510,djvu,34c90c5f64efeca42c9152403362c4c5,3caca2f4ef21b4e92798949edfa29cd5,no,mrb0441,0,2000-01-01 01:00:00,2016-04-03 02:51:08,854000/34c90c5f64efeca42c9152403362c4c5-g.jpg,,
22149313,Акустическое оформление громкоговорителей,,Массовая радиобиблиотека 0441,,Эфрусси М.М,1962,,Госэнергоиздат,,26,0,Russian,,,0,,,,,,,,,,,,0,,,,,1,,0,1815248,djvu,e03e51e948f6505bc7ea4da53a785532,8f7722d0df75d4c3d065100e7874a5d8,no,mrb0441_1,0,2000-01-01 01:00:00,2016-04-03 02:51:08,854000/e03e51e948f6505bc7ea4da53a785532-g.jpg,,
22149314,Катушки с ферритовыми сердечниками,,Массовая радиобиблиотека 0443,,Г.А. Матвеев,1962,,Госэнергоиздат,,22,0,Russian,250,,0,,,,,,,,,,,,0,,,,,1,,0,1708126,djvu,2cf49a8dc32416406fb9715ac67ba31c,fa69e9b43e40f4e865d2b4154d4656d7,no,mrb0443 Катушки с ферритовыми сердечниками Г.А Матвеев 1962-600M,0,2000-01-01 01:00:00,2016-04-03 02:51:08,854000/2cf49a8dc32416406fb9715ac67ba31c-g.jpg,,
22149315,Характеристики плоскостных транзисторов,,Массовая радиобиблиотека 0451,,Попов П.А.,1963,,Госэнергоиздат,,25,0,Russian,250,,0,,,,,,,,,,,,0,,,,,1,,0,349804,djvu,70b59911dadabf5348e03ab3816a64c1,fcbdfb1429e64ed3abb5c3f0a4fffc54,no,mrb0451,0,2000-01-01 01:00:00,2016-04-03 02:51:08,854000/70b59911dadabf5348e03ab3816a64c1-g.jpg,,
22149316,Аппаратура для озвучивания любительских фильмов,,Массовая радиобиблиотека 0461,,"Борисов Е.Г., Самодуров Д.В.",1963,,Госэнергоиздат,,14,0,Russian,,,0,,,,,,,,,,,,0,,,,,1,,0,874793,djvu,1ce892a731167d1701af31b6d74a6ac0,d4476d90d7ac3f716fea578203646e36,no,mrb0461_,0,2000-01-01 01:00:00,2016-04-03 02:51:08,854000/1ce892a731167d1701af31b6d74a6ac0-g.jpg,,
22149317,Радиоприёмник с электронной настройкой,,Массовая радиобиблиотека 0472,,Г.М.Веденеев,1963,,Госэнергоиздат,,20,0,Russian,,,0,,,,,,,,,,,,0,,,,,1,,0,1596305,djvu,e3c369fb1f226f850ca937994614b84c,0bea11995a51722e293d8a6a04c7bb4e,no,mrb0472 Радиоприёмник с электронной настройкой Г.М.Веденеев 1963-600M,0,2000-01-01 01:00:00,2016-04-03 02:51:08,854000/e3c369fb1f226f850ca937994614b84c-g.jpg,,
22149318,Микрофоны,,Массовая радиобиблиотека 0497,,Дольник А.Г.,1964,,Энергия,,48,0,Russian,250,,0,,,,,,,,,,,,0,,,,,1,,0,764546,djvu,3bb725aeb2807ff32de692dfd1d49063,1e7f034519f69963bbedaefe31671582,no,mrb0497_1,0,2000-01-01 01:00:00,2016-04-03 02:51:08,854000/3bb725aeb2807ff32de692dfd1d49063-g.jpg,,
22149319,Транзисторный радиоприёмник Топаз-2,,Массовая радиобиблиотека 0518,,И.Ф.Белов,1964,,Энергия,,30,0,Russian,256,,0,,,,,,,,,,,,0,,,,,1,,0,1042193,djvu,a5283a629b14e9aa30572f962f77f196,5f7a2230e1bc085156f497cbc2529ef7,no,mrb0518 Транзисторный радиоприёмник Топаз-2 И.Ф.Белов 1964-600M,0,2000-01-01 01:00:00,2016-04-03 02:51:08,854000/a5283a629b14e9aa30572f962f77f196-g.jpg,,
22149320,Транзисторы общего назначения,,Массовая радиобиблиотека 0526,,Лабутин В.К.,1964,,Энергия,,36,0,Russian,,,0,,,,,,,,,,,,0,,,,,1,,0,640562,djvu,045ef927593e9f231f142db5570c6900,4e1d1fcd777b758280f10a3969f1d8cd,no,mrb0526_1,0,2000-01-01 01:00:00,2016-04-03 02:51:08,854000/045ef927593e9f231f142db5570c6900-g.jpg,,
22149321,Радиолюбительские телевизионные конструкции,,Массовая радиобиблиотека 0530,,Пилтакян А.М.,1964,,Энергия,,38,0,Russian,259,,0,,,,,,,,,,,,0,,,,,1,,,1995936,djvu,380f8e234d99222b6de13da77e484359,01588096ce7365bb9e78d080d899e3a5,no,mrb0530_,0,2000-01-01 01:00:00,2016-04-03 02:51:08,854000/380f8e234d99222b6de13da77e484359-g.jpg,,
22149322,Занимательная радиотехника,,Массовая радиобиблиотека 0549,,"Кубаркин Л.В., Левитин Е.А.",1964,,Энергия,,142,0,Russian,250,,0,,,,,,,,,,,,0,,,,,1,,0,5065004,pdf,39b215f5683065b8af78617c4903b698,,,mrb0549,0,2000-01-01 01:00:00,2016-04-03 02:51:08,854000/39b215f5683065b8af78617c4903b698-g.jpg,,
22149323,Аппаратура высококачественного звучания,,Массовая радиобиблиотека 0567,,Ф.Кюне,1965,,Энергия,,50,0,Russian,,,0,,,,,,,,,,,,0,,,,,1,,0,1610238,djvu,c54653e08e163a07f244bab162fafd15,596294428cf5667f220b3fe882a5fc61,no,mrb0567 Аппаратура высококачественного звучания Ф.Кюне 1965-600M,0,2000-01-01 01:00:00,2016-04-03 02:51:08,854000/c54653e08e163a07f244bab162fafd15-g.jpg,,
22149324,Новые типы усилителей,,Массовая радиобиблиотека 0611,,"Геккер И.Р., Яковлев Д.А.",1967,,Энергия,,34,0,Russian,,,0,,,,,,,,,,,,0,,,,,1,,0,1342768,djvu,9caa4d02bcf905f5b7789be20e0d6ab1,3fb7fbfe58033f0040f6cab79cceea38,no,mrb0611_1,0,2000-01-01 01:00:00,2016-04-03 02:51:08,854000/9caa4d02bcf905f5b7789be20e0d6ab1-g.jpg,,
22149325,Полупроводниковые переключающие приборы,,Массовая радиобиблиотека 0629,,В.В.Тащиян,1967,,Энергия,,38,0,Russian,,,0,,,,,,,,,,,,0,,,,,1,,0,2015638,djvu,0f2309e20dd14fcb7ffc454c4ce0e256,ec570f3557ec2ca380669b5c5b38f5bd,no,mrb0629 Полупроводниковые переключающие приборы В.В.Тащиян 1967-600M,0,2000-01-01 01:00:00,2016-04-03 02:51:08,854000/0f2309e20dd14fcb7ffc454c4ce0e256-g.jpg,,
22149326,Зарубежные транзисторы широкого применения,,Массовая радиобиблиотека 0678,,Леонтьев В.Ф.,1968,,Энергия,,46,0,Russian,250,,0,,,,,,,,,,,,0,,,,,1,,0,896026,djvu,e406eaac1a8d8767e8e1e076868dcb09,a13a4da9c67f60fe74b63c4c9c25493b,no,mrb0678_1,0,2000-01-01 01:00:00,2016-04-03 02:51:08,854000/e406eaac1a8d8767e8e1e076868dcb09-g.jpg,,
22149327,Самодельные коротковолновые приемники на транзисторах,,Массовая радиобиблиотека 0682,,Васильев В.А.,1968,,Энергия,,30,0,Russian,250,,0,,,,,,,,,,,,0,,,,,1,,0,2499000,djvu,09f713bc83ce40aa7c0bf4be363fd3d0,c55df8108c35da5c04be7be22d9fa961,no,mrb0682 Самодельн коротковолнов приёмники транзисторах В.А.Васильев 1968-600M,0,2000-01-01 01:00:00,2016-04-03 02:51:08,854000/09f713bc83ce40aa7c0bf4be363fd3d0-g.jpg,,
22149328,Строчная развертка на полупроводниковых приборах,,Массовая радиобиблиотека 0685,,Дризе Е.М.,1968,,Энергия,,32,0,Russian,250,,0,,,,,,,,,,,,0,,,,,1,,0,368280,djvu,752f25b3dc5be26dc3ecba6327e01502,17b7eadce42710b63768e14f4bee788b,no,mrb0685_1,0,2000-01-01 01:00:00,2016-04-03 02:51:08,854000/752f25b3dc5be26dc3ecba6327e01502-g.jpg,,
22149329,Бестрансформаторные транзисторные усилители низкой частоты,,Массовая радиобиблиотека 0706,,Синельников А.X.,1969,,Энергия,,56,0,Russian,250,,0,,,,,,,,,,,,0,,,,,1,,0,1986017,djvu,9bd98c26ff1d045f1760d0ab6f50f90c,c6ef890021ca309f4f17a05d77ba8c84,no,mrb0706 Бестрансформаторн транзисторн УНЧ А.X.Синельников 1969-600M,0,2000-01-01 01:00:00,2016-04-03 02:51:08,854000/9bd98c26ff1d045f1760d0ab6f50f90c-g.jpg,,
22149330,Высококачественное звуковоспроизведение,,Массовая радиобиблиотека 0722,,А.С.Гендин,1970,,Энергия,,82,0,Russian,,,0,,,,,,,,,,,,0,,,,,1,,0,6786733,djvu,c6f6c5585bd908feee3c8057d0d4219c,70bf78780f69020dd56bd851d6887ebb,no,mrb0722 Высококачественное звуковоспроизведение А.С.Гендин 1970-600M,0,2000-01-01 01:00:00,2016-04-03 02:51:08,854000/c6f6c5585bd908feee3c8057d0d4219c-g.jpg,,
22149331,Радиолы магниторадиолы магнитолы высш первого классов,,Массовая радиобиблиотека 0776,,Л.Е.Новоселов,1971,,Энергия,,48,0,Russian,256,,0,,,,,,,,,,,,0,,,,,1,,0,20584114,djvu,b0d6da77681eeabdc1865223867e6ebb,98408ef58bc2750c91a50737f2cc1f32,no,mrb0776 Радиолы магниторадиолы магнитолы высш первого классов 1971 Л.Е.Новоселов 1971-600M,0,2000-01-01 01:00:00,2016-04-03 02:51:08,854000/b0d6da77681eeabdc1865223867e6ebb-g.jpg,,
22149332,Как починить телевизор,,Массовая радиобиблиотека 0843,,К.Г.Лопатин,1974,,Энергия,,90,0,Russian,259,,0,,,,,,,,,,,,0,,,,,1,,0,3223286,djvu,c8923f5ba598466c2e3f48ea87056ca0,2cec1de9b58c15eb181db94c4ad0683b,no,mrb0843 Как починить телевизор К.Г.Лопатин 1974-600M,0,2000-01-01 01:00:00,2016-04-03 02:51:08,854000/c8923f5ba598466c2e3f48ea87056ca0-g.jpg,,
22149333,Портативные любительские осциллографы,,Массовая радиобиблиотека 0897,,А.С.Кузнецов,1975,,Энергия,,80,0,Russian,,,0,,,,,,,,,,,,0,,,,,1,,0,2241468,djvu,dcf1d53c0f79561c9191a220ae32911f,fd02e3e9832039c248d882ffa2e4ea84,no,mrb0897 Портативные любительские осциллографы А.С.Кузнецов 1975-600M,0,2000-01-01 01:00:00,2016-04-03 02:51:08,854000/dcf1d53c0f79561c9191a220ae32911f-g.jpg,,
22149334,Подавление внешних паразитных связей в усилителях,,Массовая радиобиблиотека 0926,,М.Л.Волин,1976,,Энергия,,56,0,Russian,,,0,,,,,,,,,,,,0,,,,,1,,0,1270703,djvu,150797ee5f9167f477c7df93f7fe80a6,16220774612cae85f5cc72fd6956bef7,no,mrb0926 Подавление внешних паразитных связей в усилителях М.Л.Волин 1976-600M,0,2000-01-01 01:00:00,2016-04-03 02:51:08,854000/150797ee5f9167f477c7df93f7fe80a6-g.jpg,,
22149335,Синхронный прием,,Массовая радиобиблиотека 0933,,Б.А.Павлов,1977,,Энергия,,78,0,Russian,,,0,,,,,,,,,,,,0,,,,,1,,0,2165455,djvu,5035be6fdc9b06a54c786daefdf54189,5bfe34b1f862551654b7a5799a6ba1b9,no,mrb0933_Синхронный прием Б.А.Павлов 1977-600M,0,2000-01-01 01:00:00,2016-04-03 02:51:08,854000/5035be6fdc9b06a54c786daefdf54189-g.jpg,,
22149336,Радиоприемник «Орион-301»,,Массовая радиобиблиотека 0943,,И.Т.Крупинин,1977,,Энергия,,48,0,Russian,,,0,,,,,,,,,,,,0,,,,,1,,0,993929,djvu,c0ca283635a4ebfc6801d6c37f484f19,e775a6f51ffb552476bcb750a96483c8,no,mrb0943_,0,2000-01-01 01:00:00,2016-04-03 02:51:08,854000/c0ca283635a4ebfc6801d6c37f484f19-g.jpg,,
22149337,Конструирование громкоговорителей со сглаженными частотными характеристиками,,Массовая радиобиблиотека 0966,,Э.Л.Виноградова,1978,,Энергия,,26,0,Russian,,,0,,,,,,,,,,,,0,,,,,1,,0,759384,djvu,405267a8beba9de18e1a7cd01b9d7303,9d4c398c915934245a7dce2bb8ed936e,no,mrb0966_Констр громкоговор сглаж характерист Э.Л.Виноградова 1978-600M,0,2000-01-01 01:00:00,2016-04-03 02:51:08,854000/405267a8beba9de18e1a7cd01b9d7303-g.jpg,,
22149338,Телевизионные антенны,,Массовая радиобиблиотека 0992,,Капчинский Л.М.,1979,,Энергия,,130,0,Russian,259,,0,,,,,,,,,,,,0,,,,,1,,0,1958574,djvu,5afe4b6673fff9d4b145be838a498be0,c86f38e44bb37dc52fb33ae8afe3553b,no,mrb0992 КАПЧИНСКИЙ - Телевизионные антенны-1979,0,2000-01-01 01:00:00,2016-04-03 02:51:08,854000/5afe4b6673fff9d4b145be838a498be0-g.jpg,,
22149339,Трехканальный осциллограф,,Массовая радиобиблиотека 1042,,А.С.Кузнецов,1981,,Радио и связь,,74,0,Russian,,,0,,,,,,,,,,,,0,,,,,1,,0,2225763,djvu,63830f1d9c1b08d27b795a8db9a9534e,085453e75e98d66d41c8bb1c2c740e55,no,mrb1042_Трехканальный осциллограф А.С.Кузнецов 1981-600M,0,2000-01-01 01:00:00,2016-04-03 02:51:08,854000/63830f1d9c1b08d27b795a8db9a9534e-g.jpg,,
22149340,Радиотехнический кружок и его работа,,Массовая радиобиблиотека 1061,,Борисов В.Г.,1983,,Радио и связь,,52,0,Russian,,,0,,,,,,,,,,,,0,,,,,1,,0,3009838,djvu,3b5ab7f9f5da3692d1167de0bcc26c96,a761b38fe4a6c06a6ebf89b3ba6e823a,no,mrb1061_1,0,2000-01-01 01:00:00,2016-04-03 02:51:08,854000/3b5ab7f9f5da3692d1167de0bcc26c96-g.jpg,,
22149341,Электронные устройства управления телевизорами,,Массовая радиобиблиотека 1106,,К.И.Забелин,1987,,Радио и связь,,128,0,Russian,259,,0,,,,621.397.622,,,32.94-5,,,,,0,,,,,1,,0,3021512,djvu,a2e353a72aaaf82075a85b2143c8af60,ef764c19d807eaa9c217f131eea33726,no,mrb1106 Электронн_устройства_управлен_телевизоми_К.И.Забелин_1987-600,0,2000-01-01 01:00:00,2016-04-03 02:51:08,854000/a2e353a72aaaf82075a85b2143c8af60-g.jpg,,
22149342,Магнитофон-приставка для озвучивания любительского фильма,,Массовая радиобиблиотека 1108,,А.В.Панфилов,1987,,Радио и связь,,48,0,Russian,,,0,,,,681.846.7:77,32.872,,,,,,,0,,,,,1,,0,986522,djvu,6e94fae94d312aeaa52bee420e5b2d24,cb6fe257a8042e1dd6692ea134a1fc49,no,mrb1108 Магнитофон_приставка_озвучив_любительск_фильма_А.В.Панфилов_1987-600M,0,2000-01-01 01:00:00,2016-04-03 02:51:08,854000/6e94fae94d312aeaa52bee420e5b2d24-g.jpg,,
22149343,Модернизация узлов телевизоров,,Массовая радиобиблиотека 1148,,Сотников С.К.,1989,2-е,Радио и связь,,144,0,Russian,259,,0,5-256-00657-6,,,,,,,,,,,0,,,,,1,,1,3359040,djvu,3637fd10fd6930a8f2856ff1770afa6e,,,mrb1148,0,2000-01-01 01:00:00,2016-04-03 02:51:08,854000/3637fd10fd6930a8f2856ff1770afa6e-g.jpg,,
22149344,Модернизация узлов телевизоров,,Массовая радиобиблиотека. Вып. 1148,,Сотников С. К.,1989,2-е,Радио и связь,,144,0,Russian,259,,0,5-256-00657-6,,,,32.94.5,,,,,,,0,,,,,1,,0,5147770,djvu,0023f949d7c17d025c0ca67b8fd7c2e9,0cf606d80022bf77f6aa48334af62ff1,no,mrb1148_,0,2000-01-01 01:00:00,2016-04-03 02:51:08,854000/0023f949d7c17d025c0ca67b8fd7c2e9-g.jpg,,
22149345,Любительская радиосвязь на KB. Справочник,,Массовая радиобиблиотека; Вып. 1156,,Степанов Б.Г.,1991,,Радио и связь,,120,0,Russian,250,,0,5-256-00659-2,,,621.396.72.029.55 : 001.92 (035),32.884.1,,,,,,,0,,,,,1,,0,1705469,djvu,db8284289899ab0e750729278a5b8814,7d690bd30e01bf82e2ba714deebeae0a,no,mrb1156,0,2000-01-01 01:00:00,2016-04-03 02:51:08,854000/db8284289899ab0e750729278a5b8814-g.jpg,,
22149346,Любительские переносные приемники на транзисторах,,Массовая радиобиблиотека 0335,,Яковлев В.В.,1959,,Госэнергоиздат,,32,0,Russian,250,,0,,,,,,,,,,,,0,,,,,1,,0,7167952,djvu,8c8e757cd969810c1eca334af6e57604,d479fc890d2e6abc9ca8045e8a2e27d6,no,МРБ-0335 Любительские переносные приемники на транзисторах В.В.Яковлев 1959-600M,0,2000-01-01 01:00:00,2016-04-03 02:51:08,854000/8c8e757cd969810c1eca334af6e57604-g.jpg,,
22149347,Счетчики ядерного излучен счетные устройства,,Массовая радиобиблиотека Вып. 338,,В.А.Хитун,1959,,Госэнергоиздат,,38,0,Russian,,,0,,,,,,,,,,,,0,,,,,1,,0,1663409,djvu,3189145716c049c66d2957a1a07eb3ae,5fe0d95b6b81edad7542a94fc7b16a2a,no,МРБ-0338 Счетчики ядерного излучен счетные устройства В.А.Хитун 1959-600M,0,2000-01-01 01:00:00,2016-04-03 02:51:08,854000/3189145716c049c66d2957a1a07eb3ae-g.jpg,,
22149348,Трансформаторы автотрансформаторы питания,,Массовая радиобиблиотека 0466,,Р.М.Малинин,1963,,Госэнергоиздат,,40,0,Russian,250,,0,,,,,,,,,,,,0,,,,,1,,0,1117084,djvu,231c57ec35a112443f09b9248acd07dc,9736ce6805747ca4a730d58676c2a7a9,no,МРБ-0466 Трансформаторы автотрансформаторы питания Р.М.Малинин 1963-600M,0,2000-01-01 01:00:00,2016-04-03 02:51:08,854000/231c57ec35a112443f09b9248acd07dc-g.jpg,,
22149349,Самоучитель Visual C++.NET,CD-ROM,,,Н. Секунов,2002,,BHV,,0,0,Russian,92,,0,,,,,,,,,,,,0,,,,,1,,,463348,rar,b000541c13d71033944c95f37b3302dd,,,Секунов Самоучитель Visual C++.NET (дискета),0,2000-01-01 01:00:00,2016-04-03 02:51:08,,,
22149350,Практика программирования USB,CD-ROM,,,П.В. Агуров,2006,,БХВ-Петербург,,0,0,Russian,92,,0,,,,,,,,,,,,0,,,,,1,,,1767521,rar,41dddd64e6da1aa53cdeaa7622c2c4a3,,,П.В. Агуров Практика программирования USB,0,2000-01-01 01:00:00,2016-04-03 02:51:08,,,
22149351,Программирование документов и приложений MS Office в Delphi,CD-ROM,,,В. Корняков,2005,,БХВ-Петербург,,0,0,Russian,92,,0,,,,,,,,,,,,0,,,,,1,,,5719366,rar,178110d811c262d11134485f062460d3,,,В. Корняков Программирование документов и приложений MS Office в Delphi,0,2000-01-01 01:00:00,2016-04-03 02:51:08,,,
22149352,Исследование информационных моделей,CD-ROM,,,Угринович Н.Л.,2006,,БИНОМ. Лаборатория знаний,,0,0,Russian,,,0,,,,,,,,,,,,0,,,,,1,,,6161005,rar,09a6e40beb215b78b91c072b093ea9b1,,,Угринович Н.Л. - Исследование информационных моделей CD,0,2000-01-01 01:00:00,2016-04-03 02:51:08,,,
22149353,Visual Basic 2010 на примерах,CD-ROM,,,В.В. Зиборов,2010,,,,0,0,Russian,92,,0,,,,,,,,,,,,0,,,,,1,,,7970498,rar,f66f5fe26322295f7cc2601144fab8e8,,,В.В. Зиборов Visual Basic 2010 на примерах,0,2000-01-01 01:00:00,2016-04-03 02:51:08,,,
22149354,"Rootkits, spyware, adware, keyloggers, backdoors. Обнаружение и защита",CD-ROM,,,Зайцев О.В.,2006,,БХВ,,0,0,Russian,,,0,,,,,,,,,,,,0,,,,,1,,,9173659,rar,9ae5e8d9b7588d4cd7512d7973312d9b,,,"Зайцев О. Rootkits, SpyWare, AdWare, Keyloggers _amp; BackDoors. Обнаружение и защита Sources",0,2000-01-01 01:00:00,2016-04-03 02:51:08,,,
22149355,Искусство создания компонентов Delphi,CD-ROM,,,Фаронов,0,,,,0,0,Russian,92,,0,,,,,,,,,,,,0,,,,,1,,,19202271,rar,37d87b80b99286df090329e98bda3ccf,,,Фаронов Искусство создания компонентов Delphi source.rar,0,2000-01-01 01:00:00,2016-04-03 02:51:08,,,
22149356,Введение в Microsoft Silverlight 2,CD-ROM,,,Лоуренс Морони,0,,,,0,0,Russian,92,,0,,,,,,,,,,,,0,,,,,1,,,54762746,rar,a4e2629fd0bd34604b70effaa5805086,,,Введение в Microsoft Silverlight 2,0,2000-01-01 01:00:00,2016-04-03 02:51:08,,,
22149357,Библия Delphi,CD-ROM,,,Фленов М.,2008,2-е изд,БХВ-Петербург,,0,0,Russian,92,,0,,,,,,,,,,,,0,,,,,1,,,65309601,rar,86a23caf5e3a3012056abd536ef97688,,,Фленов - Библия Delphi - CD (2-е изд. 2008),0,2000-01-01 01:00:00,2016-04-03 02:51:08,854000/86a23caf5e3a3012056abd536ef97688-g.jpg,,
22149358,Математические основы квантовой теории поля,,,,Шварц А. С.,1975,,Атомиздат,Москва,369,0,Russian,,,0,,,,530.145,,,,,,,,0,,,,,1,,1,3283250,djvu,5b9ebafecd6cc62b4b28b8671add5bcf,,,Шварц А. С. - Математические основы квантовой теории поля,0,2000-01-01 01:00:00,2016-04-03 02:51:08,854000/5b9ebafecd6cc62b4b28b8671add5bcf-g.jpg,,
22149359,Théorie de la Deuxième  Microlocalisation dans le  Domaine Complexe,,Progress in Mathematics 53,,Yves Laurent,1985,,Birkhäuser Boston,,330,0,French,,,0,"0817632875,9780817632878",,,,,,,,,,,300,,,,,1,,1,2875423,djvu,7d473d47bd7891a47c015aa12bd595c2,,,PIM 53 - Micro,0,2000-01-01 01:00:00,2016-04-03 02:51:08,854000/7d473d47bd7891a47c015aa12bd595c2-g.jpg,,
22149360,Bayerische Bild-Enzyklopaedie. Das Weltbild eines wissenschaftlich-magischen Hausbuches aus dem fruehen 16. Jahrhundert,,,,Ewa Chojecka,1982,,Valentin Koerner,Baden-Baden,304,0,German,,,0,,,,,,,,,,,,0,,,,,1,,0,52892658,pdf,cffd4d25c4b6528d04c71586b2fd0015,,,CHOJECKA-Bayerische Bild-Enzyklopaedie-Baden-Baden 1982,0,2000-01-01 01:00:00,2016-04-03 02:51:08,854000/cffd4d25c4b6528d04c71586b2fd0015-g.jpg,,
22149361,Vanishing Theorems on Complex Manifolds,,Progress in Mathematics 56,,"Bernard Shiffman,  Andrew John Sommese",1985,,Birkhäuser Boston,,186,0,English,,,0,"0817632883,9780817632885",,,,,,,,,,,200,,,,,1,,1,1391172,djvu,1b52e8da2387e951694b97bf31c0bc2f,,,PIM 56 - Complex Manifolds,0,2000-01-01 01:00:00,2016-04-03 02:51:08,854000/1b52e8da2387e951694b97bf31c0bc2f-g.jpg,,
22149362,How to Think Your Way to the Life You Want: A Guide to Understanding How Your Thoughts and Beliefs Create Your Life,,,,Bruce I Doyle III  Ph.D.,2011,,Hampton Roads Pub Co,,160,0,English,,,0,"1571746404,9781571746405",,,,,,,,,,,0,,,,,1,,,1394795,epub,2bd44ae9a50485efcd24b14b858b05f1,,,how_to_think_your_way_to_the_life_you_want_-_bruce_doyle,0,2000-01-01 01:00:00,2016-04-03 02:51:08,854000/2bd44ae9a50485efcd24b14b858b05f1-d.jpg,,
22149363,Virtual Justice: The New Laws of Online Worlds,,,,Greg Lastowka,2011,,Yale University Press,,240,0,English,,,0,"0300177747,9780300177749",,,,,,,,,,,0,,,,,1,,1,5655890,pdf,49eb20957f5b6b97d526399ddc3c0145,,,VirtualJustice,0,2000-01-01 01:00:00,2016-04-03 02:51:08,854000/49eb20957f5b6b97d526399ddc3c0145-d.jpg,,
22149364,Fundamentals of Physics and Chemistry of the Atmosphere,,,,Guido Visconti,2001,1,Springer,,612,0,English,,,0,"3540674209,9783540674207",,,,,,,,ZkYgymQgl7YC,,,600,0,1,,0,1,0,1,12335368,djvu,6fb6b637450924023b8dbe31c8e50b7b,,,2001 - Fundamentals of Physics and Chemistry of the Atmosphere (Visconti),0,2000-01-01 01:00:00,2016-04-03 02:51:08,854000/6fb6b637450924023b8dbe31c8e50b7b-d.jpg,,
22149365,WebGL Beginner's Guide,,,,"Diego Cantor, Brandon Jones",2012,,Packt Publishing,,376,0,English,,,0,"184969172X,9781849691727",,,,,,,,,,,0,,,,,1,,1,12475668,pdf,20d505dcc93eaa4f39df40d6dcd9eadb,,,Packtpub.WebGL.Beginners.Guide.Jun.2012,0,2000-01-01 01:00:00,2016-04-03 02:51:08,854000/20d505dcc93eaa4f39df40d6dcd9eadb-d.jpg,,
22149366,Investigations into the Methods of the Social Sciences,,,,Carl Menger,2009,,Ludwig von Mises Institute,,260,0,English,,,0,9781610161503,,,,,,,,,,,0,,,,,1,,,989277,epub,bc68299f3c8fe321922d8d4e68035a3c,,,Investigations into the Method of the Social Sciences.epub,0,2000-01-01 01:00:00,2016-04-03 02:51:08,854000/bc68299f3c8fe321922d8d4e68035a3c-d.jpg,,
22149367,WebGL Beginner's Guide,,,,"Diego Cantor, Brandon Jones",2012,,Packt Publishing,,376,0,English,,,0,"184969172X,9781849691727",,,,,,,,,,,0,,,,,1,,,12893515,epub,92f97a50950ee85f7a59819efcac9b02,,,Packtpub.WebGL.Beginners.Guide.Jun.2012,0,2000-01-01 01:00:00,2016-04-03 02:51:08,854000/92f97a50950ee85f7a59819efcac9b02-d.jpg,,
22149368,Investigations into the Methods of the Social Sciences,,,,Carl Menger,2009,,Ludwig von Mises Institute,,260,0,English,,,0,9781610161503,,,,,,,,,,,0,,,,,1,,1,16936584,pdf,34cc0dd35e0794c1eb86543f7df5dc4d,,,Investigations into the Method of the Social Sciences.pdf,0,2000-01-01 01:00:00,2016-04-03 02:51:08,854000/34cc0dd35e0794c1eb86543f7df5dc4d-d.jpg,,
22149369,The Origins of Money,,,,Carl Menger,2009,,Ludwig von Mises Institute,,,0,English,,,0,9781933550596,,,,,,,,,,,0,,,,,1,,,1114557,epub,5356a1a5a10e59395fe5ce7c214f1c3b,,,On the Origins of Money.epub,0,2000-01-01 01:00:00,2016-04-03 02:51:08,854000/5356a1a5a10e59395fe5ce7c214f1c3b-d.jpg,,
22149370,The Origins of Money,,,,Carl Menger,2009,,Ludwig von Mises Institute,,56,0,English,,,0,9781933550596,,,,,,,,,,,0,,,,,1,,1,1341232,pdf,02674778421799995281eb9377846b52,,,On the Origins of Money.pdf,0,2000-01-01 01:00:00,2016-04-03 02:51:08,854000/02674778421799995281eb9377846b52-d.jpg,,
22149371,Principles of Economics - Pocket Edition,,,,Carl Menger,2011,,Ludwig von Mises Institute,,328,0,English,,,0,"1610162021,9781610162029",,,,,,,,,,,0,,,,,1,,,1588667,epub,6d660287e1de5b14563832b02581bde1,,,Principles of Economics.epub,0,2000-01-01 01:00:00,2016-04-03 02:51:08,854000/6d660287e1de5b14563832b02581bde1-d.jpg,,
22149372,Capitalism the Creator: The economic foundations of modern industrial society,,,,Carl Snyder,1972,,Ayer Co Pub,,473,0,English,,,0,"0405004397,9780405004391",,,,,,,,,,,0,,,,,1,,1,22748607,pdf,bd866d2339542c64b77d2d87bea39e6d,,,Capitalism the Creator.pdf,0,2000-01-01 01:00:00,2016-04-03 02:51:08,854000/bd866d2339542c64b77d2d87bea39e6d-g.jpg,,
22149373,Back Door to War: Roosevelt foreign policy 1933-1941,,,,Charles Callan Tansill,1971,1,Regnery,,712,0,English,,,0,0837279904,,,,,,,,,,,0,,,,,1,,1,35540246,pdf,f09f5589ab09dabebf48acfdb97012a5,,,Back Door to War The Roosevelt Foreign Policy 1933-1941.pdf,0,2000-01-01 01:00:00,2016-04-03 02:51:08,854000/f09f5589ab09dabebf48acfdb97012a5-g.jpg,,
22149374,"Duncombe's Free Banking: An essay on banking, currency, finance, exchanges, and political economy",,,,Charles Duncombe,1969,,A. M. Kelley,,370,0,English,,,0,,,B007EIHJLY,,,,,,,,,0,,,,,1,,1,18238112,pdf,8c3df0d5bbed777df07d4049723b0061,,,Duncombes Free Banking.pdf,0,2000-01-01 01:00:00,2016-04-03 02:51:08,854000/8c3df0d5bbed777df07d4049723b0061-g.jpg,,
22149375,Resist Not Evil,,,,"Clarence Darrow, Douglas E. French",2011,,Ludwig von Mises Institute,,112,0,English,,,0,"1610162056,9781610162050",,,,,,,,,,,0,,,,,1,,,247725,epub,0208bec96dfeaa95a4e007cf7da0c402,,,Resist Not Evil.epub,0,2000-01-01 01:00:00,2016-04-03 02:51:08,854000/0208bec96dfeaa95a4e007cf7da0c402-d.jpg,,
22149376,Resist Not Evil,,,,"Clarence Darrow, Douglas E. French",2011,,Ludwig von Mises Institute,,112,0,English,,,0,"1610162056,9781610162050",,,,,,,,,,,0,,,,,1,,1,520727,pdf,acfe2b92fb45735a954f71bcf23d5738,,,Resist Not Evil.pdf,0,2000-01-01 01:00:00,2016-04-03 02:51:08,854000/acfe2b92fb45735a954f71bcf23d5738-d.jpg,,
22149377,An Outline of International Price Theory,,,,Chi-Yuen Wu,2007,,Ludwig von Mises Institute,,385,0,English,,,0,9781610160452,,,,,,,,,,,0,,,,,1,,1,21152709,pdf,e58232eba474e12454064e754c3c68ae,,,An Outline of International Price Theory.pdf,0,2000-01-01 01:00:00,2016-04-03 02:51:08,,,
22149378,Bank Credit: A Study of the Principles and Factors Underlying Advances Made by Banks To Borrowers,,,,Chester A. Phillips,1931,,MacMillan Company,New York,383,0,English,,,0,,,,,,,,,,,,0,,,,,1,,1,14680296,pdf,ebbe0199689dbf54aeeeda8f98499431,,,Bank Credit A Study of the Principles and Factors Underlying Advances Made by Banks To Borrowers.pdf,0,2000-01-01 01:00:00,2016-04-03 02:51:08,854000/ebbe0199689dbf54aeeeda8f98499431-g.jpg,,
22149379,Banking and the Business Cycle: A Study of the Great Depression in the United States,,,,"T. F. McManus, R. W. Nelson, Chester A. Phillips",2012,,Ludwig von Mises Institute,,290,0,English,,,0,9781610160377,,,,,,,,,,,0,,,,,1,,1,17487185,pdf,8cb4225293bc501be8d05fcd9522be90,,,Banking and the Business Cycle.pdf,0,2000-01-01 01:00:00,2016-04-03 02:51:08,854000/8cb4225293bc501be8d05fcd9522be90-d.jpg,,
22149380,Banking and the Business Cycle: A Study of the Great Depression in the United States,,,,"T. F. McManus, R. W. Nelson, Chester A. Phillips",2012,,Ludwig von Mises Institute,,290,0,English,,,0,9781610160377,,,,,,,,,,,0,,,,,1,,,1937910,epub,9a578498ed618bcb02e2da23fed03fde,,,Banking and the Business Cycle.epub,0,2000-01-01 01:00:00,2016-04-03 02:51:08,854000/9a578498ed618bcb02e2da23fed03fde-d.jpg,,
22149381,The Twenty-Year Revolution from Roosevelt to Eisenhower,,,,Chesly Manly,1954,,H. Regnery Co,,272,0,English,,,0,,,,,,,,,,,,0,,,,,1,,1,17934038,pdf,d5024f1df9e50dcdf9775b95d1f9a76a,,,The Twenty-Year Revolution from Roosevelt to Eisenhower.pdf,0,2000-01-01 01:00:00,2016-04-03 02:51:08,854000/d5024f1df9e50dcdf9775b95d1f9a76a-d.jpg,,
22149382,Liberty and the Great Libertarians,,,,Charles T. Sprading,2008,,Ludwig von Mises Institute,,544,0,English,,,0,9781610161077,,,,,,,,,,,0,,,,,1,,1,24932130,pdf,0900dfa0ed539a5d98b38b396aab3b73,,,Liberty and the Great Libertarians.pdf,0,2000-01-01 01:00:00,2016-04-03 02:51:08,,,
22149383,Not for Happiness: A Guide to the So-Called Preliminary Practices,,,,Dzongsar Jamyang Khyentse,2012,,Shambhala Publications,,240,0,English,,,0,,,B007PTA8WE,,,,,,,,,0,,,,,1,,,396804,mobi,ec7490a00a2449ecc842d62f0da9d40c,,,"Not for Happiness_ A Guide to the So-Called Preliminary Practises - Khyentse, Dzongsar Jamyang",0,2000-01-01 01:00:00,2016-04-03 02:51:08,854000/ec7490a00a2449ecc842d62f0da9d40c-d.jpg,,
22149384,The Tibetan Book of Living and Dying,,,,Sogyal Rinpoche,1998,New Ed,Rider,,480,0,English,,,0,"0712671390,9780712671392",,,,,,,,,,,0,,,,,1,,,859394,mobi,c15a6550f64fcdbade62f561e97dc6a3,,,The Tibetan Book of Living and Dying - Sogyal Rinpoche,0,2000-01-01 01:00:00,2016-04-03 02:51:08,854000/c15a6550f64fcdbade62f561e97dc6a3-d.jpg,,
22149385,POLITICA E PARTECIPAZIONE NELLE CITTÀ DELL'IMPERO ROMANO,,,,Francesco Amarelli (ed.),2005,,L'Erma di Bretschneider,,211,0,Italian,,,0,88-8265-269-6,,,,,,,,,,,0,,,,,1,,1,14506781,pdf,2e82d0aaf6cc340f6936ef38e8d24672,,,Politica e partecipazione Impero Romano,0,2000-01-01 01:00:00,2016-04-03 02:51:08,854000/2e82d0aaf6cc340f6936ef38e8d24672-g.jpg,,
22149386,Gedankenexperimente in der Philosophie,,,,Daniel Cohniz,2006,,Mentis,Padeborn,353,0,German,195,,0,3-89785-539-9,,,,,,,,,,,0,,,,,1,,0,7565746,djvu,84bc3e3fc8ec3ebc4e6422433d230b1e,c34e42db25ca9cf444a7cbbb8363ba9e,no,COHNIZ-Gedankenexperimente in der Philosophie-Padeborn 2006,0,2000-01-01 01:00:00,2016-04-03 02:51:08,854000/84bc3e3fc8ec3ebc4e6422433d230b1e-g.jpg,,
22149387,Внутренний мир Borland Delphi,CD-ROM,,,Хладни И.,2006,,Вильямс,,0,0,Russian,92,,0,,,,,,,,,,,,0,,,,,1,,,106587783,rar,cffcd7f6bb530b4079707c6d2494b979,,,Хладни И.- Внутренний мир Borland Delphi,0,2000-01-01 01:00:00,2016-04-03 02:51:08,,,
22149388,History of Monetary and Credit Theory,,,,Charles Rist,1966,,Augustus M. Kelley Publishers,New York,430,0,English,,,0,,,,,,,,,,,,0,,,,,1,,1,32153429,pdf,ec4dd6cbc8813f67349bb630925e704c,,,History of Monetary and Credit Theory.pdf,0,2000-01-01 01:00:00,2016-04-03 02:51:08,854000/ec4dd6cbc8813f67349bb630925e704c-g.jpg,,
22149389,The Triumph of Gold,,The Wisdom Library,,Charles Rist,1961,1st U.S. Ed,Philosophical Library,,258,0,English,,,0,,,B0007FFFXA,,,,,,,,,0,,,,,1,,1,10850587,pdf,79b539b88696143a3b402805602cc655,,,The Triumph of Gold.pdf,0,2000-01-01 01:00:00,2016-04-03 02:51:08,854000/79b539b88696143a3b402805602cc655-g.jpg,,
22149390,Обнаружение хакерских атак,CD-ROM,Для профессионалов,,Чирилло Дж.,2002,,Питер,,0,0,Russian,,,0,,,,,,,,,,,,0,,,,,1,,,110871245,rar,c6daa61d23bf437f09a68a67de1c62b0,,,Чирилло Дж. - Обнаружение хакерских атак,0,2000-01-01 01:00:00,2016-04-03 02:51:08,,,
22149391,"Too Much Government, Too Much Taxation",,,,Charles Norman Fay,1923,,"Doubleday, Page & Company","Garden City, New York",439,0,English,,,0,,,B007T0NFRO,,,,,,,,,0,,,,,1,,1,23787870,pdf,cc8203c3a66a089cfdb77d1f8fa3e421,,,"Too Much Government, Too Much Taxation.pdf",0,2000-01-01 01:00:00,2016-04-03 02:51:08,854000/cc8203c3a66a089cfdb77d1f8fa3e421-g.jpg,,
22149392,A Treatise on Currency and Banking,,,,Condy Raguet,2011,,Ludwig von Mises Institute,,340,0,English,,,0,,,B005GNIBA2,,,,,,,,,0,,,,,1,,,1538606,epub,bc1ac19b81671c1de7f2b1fbb065d1eb,,,A Treatise on Currency and Banking.epub,0,2000-01-01 01:00:00,2016-04-03 02:51:08,854000/bc1ac19b81671c1de7f2b1fbb065d1eb-d.jpg,,
22149393,A Treatise on Currency and Banking,,,,Condy Raguet,2011,,Ludwig von Mises Institute,,340,0,English,,,0,,,B005GNIBA2,,,,,,,,,0,,,,,1,,1,19409860,pdf,ac1c9403fbcfa3e82da0c9e5c46f2820,,,A Treatise on Currency and Banking_2.pdf,0,2000-01-01 01:00:00,2016-04-03 02:51:08,854000/ac1c9403fbcfa3e82da0c9e5c46f2820-d.jpg,,
22149394,The Economics of Inflation: A Study of Currency Depreciation in Post-War Germany,,,,Costantino Bresciani-Turroni,2007,,Ludwig von Mises Institute,,466,0,English,,,0,,,,,,,,,,,,0,,,,,1,,1,21123400,pdf,ff91d9c6930d9d338cb7e91eae57d434,,,The Economics of Inflation A Study of Currency Depreciation in Post-War Germany.pdf,0,2000-01-01 01:00:00,2016-04-03 02:51:08,854000/ff91d9c6930d9d338cb7e91eae57d434-d.jpg,,
22149395,An Introduction to Economic Reasoning,,,,David Gordon,2000,,Ludwig von Mises Institute,,194,0,English,,,0,"0945466285,9780945466284",,,,,,,,,,,0,,,,,1,,1,1608235,pdf,4817d2f91873fd42e5ff69a60f698c8b,,,An Introduction to Economic Reasoning.pdf,0,2000-01-01 01:00:00,2016-04-03 02:51:08,854000/4817d2f91873fd42e5ff69a60f698c8b-d.jpg,,
22149396,The Essential Rothbard,,,,David Gordon,2007,1st,Ludwig von Mises Institute,,184,0,English,,,0,"1933550104,9781933550107",,,,,,,,,,,0,,,,,1,,,1289348,epub,710f39a8a4885c5967c6c7d1dbc1ce2f,,,The Essential Rothbard.epub,0,2000-01-01 01:00:00,2016-04-03 02:51:08,854000/710f39a8a4885c5967c6c7d1dbc1ce2f-d.jpg,,
22149397,The Essential Rothbard,,,,David Gordon,2007,1st,Ludwig von Mises Institute,,184,0,English,,,0,"1933550104,9781933550107",,,,,,,,,,,0,,,,,1,,1,654215,pdf,1b7ef336f86ae5c8d175fb23906ecb54,,,The Essential Rothbard.pdf,0,2000-01-01 01:00:00,2016-04-03 02:51:08,854000/1b7ef336f86ae5c8d175fb23906ecb54-d.jpg,,
22149398,Taxpayers in Revolt: Tax Resistance During the Great Depression,,,,David T. Beito,2011,,Ludwig von Mises Institute,,254,0,English,,,0,9781610161312,,,,,,,,,,,0,,,,,1,,,1281619,epub,e8108f3b23db0e1e7812961b2b2433ed,,,Taxpayers in Revolt Tax Resistance During the Great Depression.epub,0,2000-01-01 01:00:00,2016-04-03 02:51:08,854000/e8108f3b23db0e1e7812961b2b2433ed-d.jpg,,
22149399,Taxpayers in Revolt: Tax Resistance During the Great Depression,,,,David T. Beito,2011,,Ludwig von Mises Institute,,254,0,English,,,0,9781610161312,,,,,,,,,,,0,,,,,1,,1,24905319,pdf,9dcf0b194ab7862f2276603c44903913,,,Taxpayers in Revolt Tax Resistance During the Great Depression.pdf,0,2000-01-01 01:00:00,2016-04-03 02:51:08,854000/9dcf0b194ab7862f2276603c44903913-d.jpg,,
22149400,"Freedom, Society, and the State: An Investigation into the Possibility of Society without Government",,,,"David Osterfeld, William O. Reichert",1983,1st,University Press Of America,,399,0,English,,,0,"0819130842,9780819130846",,,,,,,,,,,0,,,,,1,,1,23277304,pdf,c2d656bfc2acbce64ab6e2ac5df52cc6,,,"Freedom, Society, and the State.pdf",0,2000-01-01 01:00:00,2016-04-03 02:51:08,854000/c2d656bfc2acbce64ab6e2ac5df52cc6-g.jpg,,
22149401,Metasploit Penetration Testing Cookbook,,,,Abhinav Singh,2012,,Packt Publishing,,268,0,English,,,0,"1849517428,9781849517423",,,,,,,,,,,0,,,,,1,,1,5154679,pdf,a1a469ecdd9c86baff7513ded9a8da50,,,Packtpub.Metasploit.Penetration.Testing.Cookbook.Jun.2012,0,2000-01-01 01:00:00,2016-04-03 02:51:08,854000/a1a469ecdd9c86baff7513ded9a8da50-d.jpg,,
22149402,Metasploit Penetration Testing Cookbook,,,,Abhinav Singh,2012,,Packt Publishing,,268,0,English,,,0,"1849517428,9781849517423",,,,,,,,,,,0,,,,,1,,,4979576,epub,5103ba072b171774b556c75b597e241f,,,Packtpub.Metasploit.Penetration.Testing.Cookbook.Jun.2012,0,2000-01-01 01:00:00,2016-04-03 02:51:08,854000/5103ba072b171774b556c75b597e241f-d.jpg,,
22149403,A Treatise on Political Economy,,,,"Antoine Louis Claude Destutt de Tracy, Thomas Jefferson",2012,,Ludwig von Mises Institute,,266,0,English,,,0,9781610161305,,,,,,,,,,,0,,,,,1,,1,1429352,pdf,ad15b9da646500fb39c462f461a5d513,,,A Treatise on Political Economy.pdf,0,2000-01-01 01:00:00,2016-04-03 02:51:08,854000/ad15b9da646500fb39c462f461a5d513-d.jpg,,
22149404,A Treatise on Political Economy,,,,"Antoine Louis Claude Destutt de Tracy, Thomas Jefferson",2012,,Ludwig von Mises Institute,,266,0,English,,,0,9781610161305,,,,,,,,,,,0,,,,,1,,,822787,epub,1829067fad4a068a24a1ab8b38e94f80,,,A Treatise on Political Economy.epub,0,2000-01-01 01:00:00,2016-04-03 02:51:08,854000/1829067fad4a068a24a1ab8b38e94f80-d.jpg,,
22149405,Antitrust: The Case for Repeal,,,,Dominick T. Armentano,2007,3rd,Ludwig von Mises Institute,,112,0,English,,,0,"0945466250,9780945466253",,,,,,,,,,,0,,,,,1,,,329298,epub,edc9a787e80744cb4da823fdaffda4b8,,,Antitrust The Case for Repeal.epub,0,2000-01-01 01:00:00,2016-04-03 02:51:08,854000/edc9a787e80744cb4da823fdaffda4b8-d.jpg,,
22149406,Antitrust: The Case for Repeal,,,,Dominick T. Armentano,2007,3rd,Ludwig von Mises Institute,,112,0,English,,,0,"0945466250,9780945466253",,,,,,,,,,,0,,,,,1,,1,7030011,pdf,81275e1d5899638c453182fcb97b4d64,,,Antitrust The Case for Repeal.pdf,0,2000-01-01 01:00:00,2016-04-03 02:51:08,854000/81275e1d5899638c453182fcb97b4d64-d.jpg,,
22149407,Early Speculative Bubbles & Increases in the Money Supply,,,,Douglas E. French,2009,2nd,Ludwig von Mises Institute,,144,0,English,,,0,"1933550449,9781933550442",,,,,,,,,,,0,,,,,1,,,972962,epub,5c83d0a9c64ab02c46c991f70aea4751,,,Early Speculative Bubbles and Increases in the Supply of Money.epub,0,2000-01-01 01:00:00,2016-04-03 02:51:08,854000/5c83d0a9c64ab02c46c991f70aea4751-d.jpg,,
22149408,Early Speculative Bubbles & Increases in the Money Supply,,,,Douglas E. French,2009,2nd,Ludwig von Mises Institute,,144,0,English,,,0,"1933550449,9781933550442",,,,,,,,,,,0,,,,,1,,1,1807148,pdf,c59666cd0c0bf183067766a3309808a1,,,Early Speculative Bubbles and Increases in the Supply of Money.pdf,0,2000-01-01 01:00:00,2016-04-03 02:51:08,854000/c59666cd0c0bf183067766a3309808a1-d.jpg,,
22149409,Walk Away: The Rise and Fall of the Home-Ownership Myth,,,,Douglas E. French,2010,,Ludwig von Mises Institute,,93,0,English,,,0,"1610161025,9781610161022",,,,,,,,,,,0,,,,,1,,,567345,epub,8f11e9d0cd5f1916d3b4d684a2e8e122,,,Walk Away The Rise and Fall of the Home-Ownership Myth,0,2000-01-01 01:00:00,2016-04-03 02:51:08,854000/8f11e9d0cd5f1916d3b4d684a2e8e122-d.jpg,,
22149410,Walk Away: The Rise and Fall of the Home-Ownership Myth,,,,Douglas E. French,2010,,Ludwig von Mises Institute,,93,0,English,,,0,"1610161025,9781610161022",,,,,,,,,,,0,,,,,1,,1,1787072,pdf,c3b43f20f736177b1692c7b5f019bdeb,,,Walk Away The Rise and Fall of the Home-Ownership Myth,0,2000-01-01 01:00:00,2016-04-03 02:51:08,854000/c3b43f20f736177b1692c7b5f019bdeb-d.jpg,,
22149411,Библия Delphi,CD-ROM,,,Фленов М.Е.,2004,,БХВ-Петербург,,0,0,Russian,92,,0,,,,,,,,,,,,0,,,,,1,,,176859828,rar,6c18ae67c9359e2b8521134737a85978,,,Фленов - Библия Delphi - CD 2004,0,2000-01-01 01:00:00,2016-04-03 02:51:08,854000/6c18ae67c9359e2b8521134737a85978-g.jpg,,
22149412,Joomla 1.5. Руководство пользователя,CD-ROM,,,Колисниченко Д.Н.,2009,,Диалектика,,0,0,Russian,92,,0,,,,,,,,,,,,0,,,,,1,,,156687531,rar,24b673006fec3714822bf9c68989a834,,,Joomla Kolisnichenko CD,0,2000-01-01 01:00:00,2016-04-03 02:51:08,,,
22149413,Анти-хакер. Средства защиты компьютерных сетей. Справочник профессионала,CD-ROM,,,"К. Дж. Джонс, М. Шема, Б. С. Джонсон",2003,,СП ЭКОМ,,0,0,Russian,92,,0,,,,,,,,,,,,0,,,,,1,,,138689587,rar,9fbd182de5e891935e5082aab777e4a1,,,"Mike Shema, Bradley C. Johnson Anti-Hacker Tool Kit (Джонс_Анти-хакер)",0,2000-01-01 01:00:00,2016-04-03 02:51:08,854000/9fbd182de5e891935e5082aab777e4a1-g.jpg,,
22149414,Программирование в Delphi глазами хакера,CD-ROM,,,Фленов М.Е.,2003,,БХВ-Петербург,,0,0,Russian,92,,0,,,,,,,,,,,,0,,,,,1,,,125656906,rar,a702de6d407d62301b7361e396fa240d,,,М. Фленов Программирование в Delphi глазами хакера,0,2000-01-01 01:00:00,2016-04-03 02:51:08,854000/a702de6d407d62301b7361e396fa240d-g.jpg,,
22149415,PHP and MySQL Web Development,CD-ROM,,,"Luke Welling, Laura Thomson",2001,,Sams,,0,0,English,92,,0,,,,,,,,,,,,0,,,,,1,,,111201180,rar,305cadd532a195bd5cd6f23d558bed85,,,PHP and MySQL Web Developmen,0,2000-01-01 01:00:00,2016-04-03 02:51:08,854000/305cadd532a195bd5cd6f23d558bed85-g.jpg,,
22149416,Money: Its connexion with rising and falling prices,,,,Edwin Cannan,1932,7th,"P.S. King & Son, Ltd",,127,0,English,,,0,,,B00088UZU4,,,,,,,,,0,,,,,1,,1,8786393,pdf,475db46ffae58bfdc3d4b73cec59e9cf,,,Money Its Connexion with Rising and Falling Prices.pdf,0,2000-01-01 01:00:00,2016-04-03 02:51:08,854000/475db46ffae58bfdc3d4b73cec59e9cf-g.jpg,,
22149417,Wealth: A Brief Explanation of the Causes of Economic Welfare,,,,Edwin Cannan,1948,3,Staples Press,New York,320,0,English,,,0,,,,,,,,,,,,0,,,,,1,,1,18514666,pdf,5f0ff5f7ba430e1f811c76322bff5d00,,,Wealth A Brief Explanation of the Causes of Economic Welfare.pdf,0,2000-01-01 01:00:00,2016-04-03 02:51:08,854000/5f0ff5f7ba430e1f811c76322bff5d00-g.jpg,,
22149418,The Monetary Powers and Disabilities of the US Constitution: A study in constitutional law,,,,"Edwin Vieira, Jr.",1982,,United States Gold Commission,,320,0,English,,,0,,,,,,,,,,,,0,,,,,1,,1,22697121,pdf,17e317d94abf1e494c46fcc2b70374c8,,,The Monetary Powers and Disabilities of the US Constitution.pdf,0,2000-01-01 01:00:00,2016-04-03 02:51:08,854000/17e317d94abf1e494c46fcc2b70374c8-g.jpg,,
22149419,"Gold and the Gold Standard: The Story of Gold Money, Past, Present, and Future",,,,Edwin Walter Kemmerer,2011,,Ludwig von Mises Institute,,248,0,English,,,0,9781610161749,,,,,,,,,,,0,,,,,1,,,1390039,epub,d83e503fb430fcdb42167eff0013947f,,,Gold and the Gold Standard.epub,0,2000-01-01 01:00:00,2016-04-03 02:51:08,854000/d83e503fb430fcdb42167eff0013947f-d.jpg,,
22149420,"Gold and the Gold Standard: The Story of Gold Money, Past, Present, and Future",,,,Edwin Walter Kemmerer,2011,,Ludwig von Mises Institute,,248,0,English,,,0,9781610161749,,,,,,,,,,,0,,,,,1,,1,14209323,pdf,afc46a89d0f86e3ba89f679712fabc5c,,,Gold and the Gold Standard.pdf,0,2000-01-01 01:00:00,2016-04-03 02:51:08,854000/afc46a89d0f86e3ba89f679712fabc5c-d.jpg,,
22149421,America's Money Machine: The Story of the Federal Reserve,,,,Elgin Groseclose,2011,,Ludwig von Mises Institute,,286,0,English,,,0,9781610161596,,,,,,,,,,,0,,,,,1,,1,19633785,pdf,33c389b06dd7c0c8c30ede5a13d6a11f,,,Americas Money Machine The Story of the Federal Reserve.pdf,0,2000-01-01 01:00:00,2016-04-03 02:51:08,854000/33c389b06dd7c0c8c30ede5a13d6a11f-d.jpg,,
22149422,Reglas y sostenibilidad de la política fiscal. Lecciones de la experiencia peruana,,,,Felix Jimenez,,,Fondo Editorial de la Pontificia Universidad Católica del Perú,Lima,244,0,Spanish,31,,0,978-9972-42-862-3,,,,,,,,UevwPgAACAAJ,,,0,,,0,1,1,1,1,4228131,pdf,7b3dc3602726d99160a4d5c54248d97f,,,Jiménez 2008 Reglas y sostenibilidad de la política fiscal.Lecciones de la experiencia peruana,0,2000-01-01 01:00:00,2016-04-03 02:51:08,854000/7b3dc3602726d99160a4d5c54248d97f-g.jpg,,
22149423,America's Money Machine: The Story of the Federal Reserve,,,,Elgin Groseclose,2011,,Ludwig von Mises Institute,,286,0,English,,,0,9781610161596,,,,,,,,,,,0,,,,,1,,,656100,epub,d913d8ccaa28701af7861cd5f39c067d,,,Americas Money Machine The Story of the Federal Reserve.epub,0,2000-01-01 01:00:00,2016-04-03 02:51:08,854000/d913d8ccaa28701af7861cd5f39c067d-d.jpg,,
22149424,Money and Man: A survey of monetary experience,,,,Elgin Groseclose,1934,4,University of Oklahoma Press,"Norman, Oklahoma",328,0,English,,,0,"0806113383,0806113391",,,,,,,,,,,0,,,,,1,,1,14929103,pdf,f95cdacab1448fd529501506254f4b3c,,,Money and Man.pdf,0,2000-01-01 01:00:00,2016-04-03 02:51:08,854000/f95cdacab1448fd529501506254f4b3c-g.jpg,,
22149425,Socialism and International Economic Order,,,,Elizabeth Tamedly,2007,,Ludwig von Mises Institute,,,0,English,,,0,"1610160444,9781610160445",,,,,,,,,,,0,,,,,1,,,915184,epub,63e67c03e970178e2883364b33db3e9c,,,Socialism and International Economic Order.epub,0,2000-01-01 01:00:00,2016-04-03 02:51:08,854000/63e67c03e970178e2883364b33db3e9c-d.jpg,,
22149426,Socialism and International Economic Order,,,,Elizabeth Tamedly,2007,,Ludwig von Mises Institute,,318,0,English,,,0,"1610160444,9781610160445",,,,,,,,,,,0,,,,,1,,1,18130577,pdf,e6f5299720d9b9327ebdf9a67212f1f6,,,Socialism and International Economic Order.pdf,0,2000-01-01 01:00:00,2016-04-03 02:51:08,854000/e6f5299720d9b9327ebdf9a67212f1f6-d.jpg,,
22149427,Liberty or Equality: The Challenge of Our Time,,,,Erik von Kuhnelt-Leddihn,2012,,Ludwig von Mises Institute,,452,0,English,,,0,9781610160308,,,,,,,,,,,0,,,,,1,,,4226329,epub,f1cc3d497c517934aba40eeb484531fe,,,Liberty or Equality The Challenge of Our Time.epub,0,2000-01-01 01:00:00,2016-04-03 02:51:08,854000/f1cc3d497c517934aba40eeb484531fe-d.jpg,,
22149428,Liberty or Equality: The Challenge of Our Time,,,,Erik von Kuhnelt-Leddihn,2012,,Ludwig von Mises Institute,,452,0,English,,,0,9781610160308,,,,,,,,,,,0,,,,,1,,1,21752649,pdf,970bec9d85b64045bcc0587774b15fab,,,Liberty or Equality The Challenge of Our Time.pdf,0,2000-01-01 01:00:00,2016-04-03 02:51:08,854000/970bec9d85b64045bcc0587774b15fab-d.jpg,,
22149429,Menace of the Herd or Procrustes at Large,,,,Erik Ritter von Kuehnelt-Leddihn,2012,,Ludwig von Mises Institute,,490,0,English,,,0,9781610160322,,,,,,,,,,,0,,,,,1,,,4285736,epub,44ba7c262c73e6921e16bd0861078024,,,"The Menace of the Herd, or Procrustes at Large",0,2000-01-01 01:00:00,2016-04-03 02:51:08,854000/44ba7c262c73e6921e16bd0861078024-d.jpg,,
22149430,Menace of the Herd or Procrustes at Large,,,,Erik Ritter von Kuehnelt-Leddihn,2012,,Ludwig von Mises Institute,,490,0,English,,,0,9781610160322,,,,,,,,,,,0,,,,,1,,1,23066527,pdf,3833ee3fd27b619c85a9c320c9fa7bb0,,,"The Menace of the Herd, or Procrustes at Large",0,2000-01-01 01:00:00,2016-04-03 02:51:08,854000/3833ee3fd27b619c85a9c320c9fa7bb0-d.jpg,,
22149431,Natura emocji. Podstawowe zagadnienia,,,,"Paul Ekman, Richard J. Davidson, B. Wojciszke (transl.)",2002,,Gdańskie Wydawnictwo Psychologiczne,Gdańsk,400,0,Polish,198,,0,,,,,,,,,,,,0,,,,,1,,0,30946791,pdf,c3ed5ce1504c6a124d86d86d47e18678,,,EKMAN _amp; DAVIDSON (red.)-Natura emocji-2002,0,2000-01-01 01:00:00,2016-04-03 02:51:08,854000/c3ed5ce1504c6a124d86d86d47e18678-g.jpg,,
22149432,The mechanisms of fast reactions in solution,,,,E. F. Caldin,2001,,IOS Press,,336,0,English,,,0,58603 103 1,,,,,,,,,,,0,1,,,,1,1,1,29302621,pdf,86a5430561afc995fd8dad6d193538fe,,,The mechanisms of fast reactions in solution,0,2000-01-01 01:00:00,2016-04-03 02:51:08,854000/86a5430561afc995fd8dad6d193538fe-g.jpg,,
22149433,The Politics Of Obedience The Discourse Of Voluntary Servitude,,,,Etienne De La Boetie,2004,,"Kessinger Publishing, LLC",,48,0,English,,,0,"1419178091,9781419178092,9781610161237",,,,,,,,,,,0,,,,,1,,1,708799,pdf,2db07118d8d3195bfe13d9f3a336d5a3,,,The Politics of Obedience The Discourse of Voluntary Servitude.pdf,0,2000-01-01 01:00:00,2016-04-03 02:51:08,854000/2db07118d8d3195bfe13d9f3a336d5a3-d.jpg,,
22149434,CLR via C#. Программирование на платформе Microsoft .NET Framework 4.0 на языке C#,,Мастер-класс,,Рихтер Дж.,2012,3,Питер,,928,0,Russian,87,,0,978-5-459-00297-3,,,004.45,32.973.2-018.2,,,,,,,0,,,,,1,1,1,11419754,pdf,ad4554fda50aa1da7f7087e2350f719a,,,CLR via C_. Программирование на платформе Microsoft .NET Framework 4.0 на языке C_ - 2011,0,2000-01-01 01:00:00,2016-04-03 02:51:08,854000/ad4554fda50aa1da7f7087e2350f719a-g.jpg,,
22149435,"The Austrian School of Economics: A history of its ideas, ambassadors, and institutions",,,,"Eugen-Maria Schulak, Herbert Unterköfler",2011,,Ludwig von Mises Institute,,262,0,English,,,0,"1610161343,9781610161343",,,,,,,,,,,0,,,,,1,,1,1744938,pdf,a5330110aae188daa2e0754436e68104,,,"The Austrian School of Economics A History of Its Ideas, Ambassadors, and Institutions",0,2000-01-01 01:00:00,2016-04-03 02:51:08,854000/a5330110aae188daa2e0754436e68104-d.jpg,,
22149436,"Austrian School of Economics: A history of its ideas, ambassadors, and institutions",,,,"Eugen-Maria Schulak, Herbert Unterköfler",2011,,Ludwig von Mises Institute,,,0,English,,,0,"1610161343,9781610161343",,,,,,,,,,,0,,,,,1,,,681635,epub,d8eb2b3ccc157c3a57ef1a8dd59e9471,,,"The Austrian School of Economics A History of Its Ideas, Ambassadors, and Institutions",0,2000-01-01 01:00:00,2016-04-03 02:51:08,854000/d8eb2b3ccc157c3a57ef1a8dd59e9471-d.jpg,,
22149437,"The Viennese School of Economics: A History of its Ideas, Proponents, and Institutions",,,,"Eugen-Maria Schulak, Herbert Unterköfler",2010,Draft,Ludwig von Mises Institute,,157,0,English,,,0,,,,,,,,,,,,0,,,,,1,,1,2988600,pdf,66a79073eaea1dbede2f9bdc7d250657,,,"The Viennese School of Economics A History of its Ideas, Proponents, and Institutions",0,2000-01-01 01:00:00,2016-04-03 02:51:08,854000/66a79073eaea1dbede2f9bdc7d250657-g.jpg,,
22149438,Hypoellipticité  Maximale pour des  Opérateurs Polynômes  de Champs de Vecteurs,,Progress in Mathematics 58,,"Bernard Helffer, Jean Nourrigat",1985,1,Birkhäuser Boston,,290,0,French,,,0,"0817633103,9780817633103",,,,,,,,,,,300,,,,,1,,1,2581982,djvu,c7d9b272adc55423fc09092966b17c97,,,PIM 58 - Helffer,0,2000-01-01 01:00:00,2016-04-03 02:51:08,854000/c7d9b272adc55423fc09092966b17c97-g.jpg,,
22149439,Терминология теплопередачи.,,Сборник рекомендуемых терминов Выпуск 001,,Ответственный редактор А.М.Терпигорев.,1951,,Издательство Академии наук СССР,М.,19,0,Russian,,,,,,,,,,,,,,"Scan: AAW, Djvuing, OCR: Dmitry7, 2011",0,,1,,1,1,,1,351003,djvu,309ddaf1bbe2ad079cecab553eba37f3,,,D:\\Сборники научно-нормативной терминологии\\Выпуск 001_- Терминология теплопередачи (1951).djvu,0,2000-01-01 01:00:00,2016-04-03 02:51:08,854000/309ddaf1bbe2ad079cecab553eba37f3-g.jpg,,
22149440,Терминология теплопередачи.,,Сборник рекомендуемых терминов Выпуск 001а,,Ответственный редактор А.М.Терпигорев.,1959,,Издательство Академии наук СССР,М.,22,0,Russian,,,,,,,,,,,,,,"Scan: AAW, Djvuing, OCR: Dmitry7, 2011",0,,1,,1,1,,1,360000,djvu,59749643db11aaacddcd5b503ed6caa3,,,D:\\Сборники научно-нормативной терминологии\\Выпуск 001а- Основные буквенные обозначения в астрономии (1959).djvu,0,2000-01-01 01:00:00,2016-04-03 02:51:08,854000/59749643db11aaacddcd5b503ed6caa3-g.jpg,,
22149441,Терминология технической термодинамики.,,Сборник рекомендуемых терминов Выпуск 002,,"Под редакцией С.А.Чаплыгина, А.М.Терпигорева, Д.С.Лотте.",1948,,Издательство Академии наук СССР,М.-Л.,74,0,Russian,,,,,,,,,,,,,,"Scan, Djvuing, OCR: Dmitry7, 2012",0,,1,,1,1,,1,1548160,djvu,671caf977f740dd8a7519e07afdd1448,,,D:\\Сборники научно-нормативной терминологии\\Выпуск 002 - Терминология технической термодинамики (1948).djvu,0,2000-01-01 01:00:00,2016-04-03 02:51:08,854000/671caf977f740dd8a7519e07afdd1448-g.jpg,,
22149442,Терминология гидромеханики.,,Сборник рекомендуемых терминов Выпуск 003,,Ответственный редактор А.М.Терпигорев.,1947,,Издательство Академии наук СССР,М.-Л.,59,0,Russian,,,,,,,,,,,,,,"Scan: AAW, Djvuing, OCR: Dmitry7, 2011",0,,1,,1,1,,1,1697315,djvu,2b0456233ef753bcb5f6424ea2aea267,,,D:\\Сборники научно-нормативной терминологии\\Выпуск 003 - Терминология гидромеханики (1947).djvu,0,2000-01-01 01:00:00,2016-04-03 02:51:08,854000/2b0456233ef753bcb5f6424ea2aea267-g.jpg,,
22149443,Терминология по коррозии и защите металлов.,,Сборник рекомендуемых терминов Выпуск 004,,Ответственный редактор А.М.Терпигорев.,1951,,Издательство Академии наук СССР,М.,47,0,Russian,,,,,,,,,,,,,,"Scan: AAW, Djvuing, OCR: Dmitry7, 2011",0,,1,,1,1,,1,1233591,djvu,8cb14f99369acc484b1c720df4a3c97d,,,D:\\Сборники научно-нормативной терминологии\\Выпуск 004 - Терминология по коррозии и защите металлов (1951).djvu,0,2000-01-01 01:00:00,2016-04-03 02:51:08,854000/8cb14f99369acc484b1c720df4a3c97d-g.jpg,,
22149444,Терминология строительной механики.,,Сборник рекомендуемых терминов Выпуск 005,,Ответственный редактор А.М.Терпигорев.,1952,,Издательство Академии наук СССР,М.-Л.,22,0,Russian,,,,,,,,,,,,,,"Scan: AAW, Djvuing, OCR: Dmitry7, 2011",0,,1,,1,1,,1,342983,djvu,f7a5e65310c252a10131c19e41130da3,,,D:\\Сборники научно-нормативной терминологии\\Выпуск 005 - Терминология горного дела - Горные работы и элементы систем разработки твердых полезных ископаемых (1952).djvu,0,2000-01-01 01:00:00,2016-04-03 02:51:08,854000/f7a5e65310c252a10131c19e41130da3-g.jpg,,
22149445,Терминология горного дела. Горные работы и элементы систем разработки твердых полезных ископаемых.,,Сборник рекомендуемых терминов Выпуск 005a,,Ответственный редактор А.М.Терпигорев.,1947,,Издательство Академии наук СССР,М.,50,0,Russian,,,,,,,,,,,,,,"Scan, Djvuing, OCR: Dmitry7, 2011",0,,1,,1,1,,1,1272095,djvu,ecbf9b2a0011d88cfe2f6a2c7ab28a08,,,D:\\Сборники научно-нормативной терминологии\\Выпуск 005a - Терминология строительной механики (1947).djvu,0,2000-01-01 01:00:00,2016-04-03 02:51:08,854000/ecbf9b2a0011d88cfe2f6a2c7ab28a08-g.jpg,,
22149446,Терминология физико-химического анализа. Часть 1.,,Сборник рекомендуемых терминов Выпуск 006,,Ответственный редактор А.М.Терпигорев.,1951,,Издательство Академии наук СССР,М.,38,0,Russian,,,,,,,,,,,,,,"Scan: AAW, Djvuing, OCR: Dmitry7, 2011",0,,1,,1,1,,1,551509,djvu,0bb025592d4dcef34948c6d92b2abc9a,,,D:\\Сборники научно-нормативной терминологии\\Выпуск 006 - Терминология физико-химического анализа - Часть 1 (1951).djvu,0,2000-01-01 01:00:00,2016-04-03 02:51:08,854000/0bb025592d4dcef34948c6d92b2abc9a-g.jpg,,
22149447,Терминология термодинамики.,,Сборник рекомендуемых терминов Выпуск 007,,Ответственный редактор А.М.Терпигорев.,1952,,Издательство Академии наук СССР,М.,59,0,Russian,,,,,,,,,,,,,,"Scan: AAW, Djvuing, OCR: Dmitry7, 2011",0,,1,,1,1,,1,937734,djvu,30ac8c4f5d451db3d313572375acfed9,,,D:\\Сборники научно-нормативной терминологии\\Выпуск 007 - Терминология термодинамики (1952).djvu,0,2000-01-01 01:00:00,2016-04-03 02:51:08,854000/30ac8c4f5d451db3d313572375acfed9-g.jpg,,
22149448,Терминология по структурному анализу и синтезу релейно-контактных схем.,,Сборник рекомендуемых терминов Выпуск 008,,Ответственный редактор А.М.Терпигорев.,1953,,Издательство Академии наук СССР,М.,26,0,Russian,,,,,,,,,,,,,,"Scan: AAW, Djvuing, OCR: Dmitry7, 2011",0,,1,,1,1,,1,414407,djvu,60f285655250071c3b2eb31e789b88a2,,,D:\\Сборники научно-нормативной терминологии\\Выпуск 008 - Терминология по структурному анализу и синтезу релейно-контактных схем (1953).djvu,0,2000-01-01 01:00:00,2016-04-03 02:51:08,854000/60f285655250071c3b2eb31e789b88a2-g.jpg,,
22149449,Терминология горного дела. Горные крепи. Часть 1.,,Сборник рекомендуемых терминов Выпуск 009,,Ответственный редактор А.М.Терпигорев.,1952,,Издательство Академии наук СССР,М.,26,0,Russian,,,,,,,,,,,,,,"Scan: AAW, Djvuing, OCR: Dmitry7, 2011",0,,1,,1,1,,1,346640,djvu,dd034e880b4ab6ee4d0906e21b80bf2a,,,D:\\Сборники научно-нормативной терминологии\\Выпуск 009 - Терминология горного дела - Горные крепи - Часть 1 (1952).djvu,0,2000-01-01 01:00:00,2016-04-03 02:51:08,854000/dd034e880b4ab6ee4d0906e21b80bf2a-g.jpg,,
22149450,"Терминология железнодорожной сигнализации, централизации стрелок, сигналов и блокировки.",,Сборник рекомендуемых терминов Выпуск 010,,Ответственный редактор А.М.Терпигорев.,1952,,Издательство Академии наук СССР,М.,58,0,Russian,,,,,,,,,,,,,,"Scan: AAW, Djvuing, OCR: Dmitry7, 2011",0,,1,,1,1,,1,1372723,djvu,d0909d34ef33110af9ce97f23403e4bd,,,"D:\\Сборники научно-нормативной терминологии\\Выпуск 010 - Терминология железнодорожной сигнализации, централизации стрелок, сигналов и блокировки (1952).djvu",0,2000-01-01 01:00:00,2016-04-03 02:51:08,854000/d0909d34ef33110af9ce97f23403e4bd-g.jpg,,
22149451,Терминология деталей машин. Разъемные соединения.,,Сборник рекомендуемых терминов Выпуск 011,,Ответственный редактор А.М.Терпигорев.,1953,,Издательство Академии наук СССР,М.,50,0,Russian,,,,,,,,,,,,,,"Scan: AAW, Djvuing, OCR: Dmitry7, 2011",0,,1,,1,1,,1,858785,djvu,ac971c2a8724388874991bfd1330e0ef,,,D:\\Сборники научно-нормативной терминологии\\Выпуск 011 - Терминология деталей машин - Разъемные соединения (1953).djvu,0,2000-01-01 01:00:00,2016-04-03 02:51:08,854000/ac971c2a8724388874991bfd1330e0ef-g.jpg,,
22149452,Терминология механики жидкости (гидромеханики).,,Сборник рекомендуемых терминов Выпуск 012,,Ответственный редактор А.М.Терпигорев.,1952,,Издательство Академии наук СССР,М.,42,0,Russian,,,,,,,,,,,,,,"Scan: AAW, Djvuing, OCR: Dmitry7, 2011",0,,1,,1,1,,1,721485,djvu,87e45de50ac9f5d2def2bbe0d0ca9443,,,D:\\Сборники научно-нормативной терминологии\\Выпуск 012 - Терминология механики жидкости (гидромеханики) (1952).djvu,0,2000-01-01 01:00:00,2016-04-03 02:51:08,854000/87e45de50ac9f5d2def2bbe0d0ca9443-g.jpg,,
22149453,Терминология электрических явлений в газах.,,Сборник рекомендуемых терминов Выпуск 013,,Ответственный редактор А.М.Терпигорев.,1952,,Издательство Академии наук СССР,М.,34,0,Russian,,,,,,,,,,,,,,"Scan: AAW, Djvuing, OCR: Dmitry7, 2011",0,,1,,1,1,,1,604558,djvu,490ce10416b036d974b30330ae0edfaf,,,D:\\Сборники научно-нормативной терминологии\\Выпуск 013 - Терминология электрических явлений в газах (1952).djvu,0,2000-01-01 01:00:00,2016-04-03 02:51:08,854000/490ce10416b036d974b30330ae0edfaf-g.jpg,,
22149454,"Терминология теории упругости, испытаний и механических свойств материалов и строительной механики.",,Сборник рекомендуемых терминов Выпуск 014,,Ответственный редактор А.М.Терпигорев.,1952,,Издательство Академии наук СССР,М.,83,0,Russian,,,,,,,,,,,,,,"Scan: AAW, Djvuing, OCR: Dmitry7, 2011",0,,1,,1,1,,1,1696496,djvu,1adaeb18a8b675fe225b52c08f8b2f10,,,"D:\\Сборники научно-нормативной терминологии\\Выпуск 014 - Терминология теории упругости, строительной механики, испытаний и механических свойств материалов (1952).djvu",0,2000-01-01 01:00:00,2016-04-03 02:51:08,854000/1adaeb18a8b675fe225b52c08f8b2f10-g.jpg,,
22149455,Классификация и терминология горных машин.,,Сборник рекомендуемых терминов Выпуск 015,,Ответственный редактор А.М.Терпигорев.,1952,,Издательство Академии наук СССР,М.,30,0,Russian,,,,,,,,,,,,,,"Scan, Djvuing, OCR: Dmitry7, 2011",0,,1,,1,1,,1,555429,djvu,0a37b8c904bdd7ceb3ad895624a067e9,,,D:\\Сборники научно-нормативной терминологии\\Выпуск 015 - Классификация и терминология горных машин (1952).djvu,0,2000-01-01 01:00:00,2016-04-03 02:51:08,854000/0a37b8c904bdd7ceb3ad895624a067e9-g.jpg,,
22149456,Терминология жидкостных ракетных двигателей.,,Сборник рекомендуемых терминов Выпуск 016,,Ответственный редактор А.М.Терпигорев.,1953,,Издательство Академии наук СССР,М.,30,0,Russian,,,,,,,,,,,,,,"Scan: AAW, Djvuing, OCR: Dmitry7, 2011",0,,1,,1,1,,1,452049,djvu,beec5dd309c8e79b6c11bc525be81d81,,,D:\\Сборники научно-нормативной терминологии\\Выпуск 016 - Терминология жидкостных ракетных двигателей (1953).djvu,0,2000-01-01 01:00:00,2016-04-03 02:51:08,854000/beec5dd309c8e79b6c11bc525be81d81-g.jpg,,
22149457,Терминология аэродинамического расчета самолета.,,Сборник рекомендуемых терминов Выпуск 017,,Ответственный редактор А.М.Терпигорев.,1954,,Издательство Академии наук СССР,М.,26,0,Russian,245,,,,,,,,,,,,,"Scan: AAW, Djvuing, OCR: Dmitry7, 2011",0,,1,,1,1,,1,289575,djvu,b3c4fe99c47192f7865158eccf293af7,,,D:\\Сборники научно-нормативной терминологии\\Выпуск 017 - Терминология аэродинамического расчета самолета (1954).djvu,0,2000-01-01 01:00:00,2016-04-03 02:51:08,854000/b3c4fe99c47192f7865158eccf293af7-g.jpg,,
22149458,Терминология конструкции и прочности самолета.,,Сборник рекомендуемых терминов Выпуск 018,,Ответственный редактор А.М.Терпигорев.,1954,,Издательство Академии наук СССР,М.,42,0,Russian,245,,,,,,,,,,,,,"Scan: AAW, Djvuing, OCR: Dmitry7, 2011",0,,1,,1,1,,1,562800,djvu,b3df54c05d75c250d617c4ac18726c57,,,D:\\Сборники научно-нормативной терминологии\\Выпуск 018 - Терминология конструкции и прочности самолета (1954).djvu,0,2000-01-01 01:00:00,2016-04-03 02:51:08,854000/b3df54c05d75c250d617c4ac18726c57-g.jpg,,
22149459,"Терминология конструкций турбореактивных, турбовинтовых и поршневых двигателей.",,Сборник рекомендуемых терминов Выпуск 019,,Ответственный редактор А.М.Терпигорев.,1954,,Издательство Академии наук СССР,М.,35,0,Russian,,,,,,,,,,,,,,"Scan: AAW, Djvuing, OCR: Dmitry7, 2011",0,,1,,1,1,,1,346914,djvu,39e5633dc8d9f4456a88c5e0f881c2e0,,,"D:\\Сборники научно-нормативной терминологии\\Выпуск 019 - Терминология конструкции турбореактивных, турбовинтовых и поршневых двигателей (1954).djvu",0,2000-01-01 01:00:00,2016-04-03 02:51:08,854000/39e5633dc8d9f4456a88c5e0f881c2e0-g.jpg,,
22149460,Терминология воздушных винтов и вертолетов.,,Сборник рекомендуемых терминов Выпуск 020,,Ответственный редактор А.М.Терпигорев.,1954,,Издательство Академии наук СССР,М.,42,0,Russian,,,,,,,,,,,,,,"Scan: AAW, Djvuing, OCR: Dmitry7, 2011",0,,1,,1,1,,1,477630,djvu,28a6970c1d8c529c12345b9c903c2742,,,D:\\Сборники научно-нормативной терминологии\\Выпуск 020 - Терминология воздушных винтов и вертолетов (1954).djvu,0,2000-01-01 01:00:00,2016-04-03 02:51:08,854000/28a6970c1d8c529c12345b9c903c2742-g.jpg,,
22149461,Терминология гидротурбин.,,Сборник рекомендуемых терминов Выпуск 021,,Ответственный редактор А.М.Терпигорев.,1953,,Издательство Академии наук СССР,М.,42,0,Russian,,,,,,,,,,,,,,"Scan: AAW, Djvuing, OCR: Dmitry7, 2011",0,,1,,1,1,,1,548044,djvu,7542a41aa0c2846a60a9f583b77185c6,,,D:\\Сборники научно-нормативной терминологии\\Выпуск 021 - Терминология гидротурбин (1953).djvu,0,2000-01-01 01:00:00,2016-04-03 02:51:08,854000/7542a41aa0c2846a60a9f583b77185c6-g.jpg,,
22149462,Терминология взрывных работ.,,Сборник рекомендуемых терминов Выпуск 022,,Ответственный редактор А.М.Терпигорев.,1953,,Издательство Академии наук СССР,М.,22,0,Russian,,,,,,,,,,,,,,"Scan: AAW, Djvuing, OCR: Dmitry7, 2011",0,,1,,1,1,,1,295522,djvu,0bcc0a9fef22e1dc416d2d813f94bbfa,,,D:\\Сборники научно-нормативной терминологии\\Выпуск 022 - Терминология взрывных работ (1953).djvu,0,2000-01-01 01:00:00,2016-04-03 02:51:08,854000/0bcc0a9fef22e1dc416d2d813f94bbfa-g.jpg,,
22149463,Терминология авиационных силовых установок.,,Сборник рекомендуемых терминов Выпуск 023,,Ответственный редактор А.М.Терпигорев.,1954,,Издательство Академии наук СССР,М.,30,0,Russian,,,,,,,,,,,,,,"Scan: AAW, Djvuing, OCR: Dmitry7, 2011",0,,1,,1,1,,1,337752,djvu,e2f5f787d902470553d62baef3a5365a,,,D:\\Сборники научно-нормативной терминологии\\Выпуск 023 - Терминология авиационных силовых установок (1954).djvu,0,2000-01-01 01:00:00,2016-04-03 02:51:08,854000/e2f5f787d902470553d62baef3a5365a-g.jpg,,
22149464,Терминология теории и характеристик авиационных газотурбинных двигателей и турбомашин для комбинированных силовых установок.,,Сборник рекомендуемых терминов Выпуск 024,,Ответственный редактор А.М.Терпигорев.,1954,,Издательство Академии наук СССР,М.,31,0,Russian,,,,,,,,,,,,,,"Scan: AAW, Djvuing, OCR: Dmitry7, 2011",0,,1,,1,1,,1,470837,djvu,3b8506e078c5ae1ab59ba41881d72e09,,,D:\\Сборники научно-нормативной терминологии\\Выпуск 024 - Терминология теории и характеристик авиационных газотурбинных двигателей (1954).djvu,0,2000-01-01 01:00:00,2016-04-03 02:51:08,854000/3b8506e078c5ae1ab59ba41881d72e09-g.jpg,,
22149465,Терминология электрооборудования самолетов.,,Сборник рекомендуемых терминов Выпуск 025,,Ответственный редактор А.М.Терпигорев.,1954,,Издательство Академии наук СССР,М.,42,0,Russian,245,,,,,,,,,,,,,"Scan: AAW, Djvuing, OCR: Dmitry7, 2011",0,,1,,1,1,,1,555504,djvu,8fee41a7bfeb667ef19bcb81aadf7fb4,,,D:\\Сборники научно-нормативной терминологии\\Выпуск 025 - Терминология электрооборудования самолетов (1954).djvu,0,2000-01-01 01:00:00,2016-04-03 02:51:08,854000/8fee41a7bfeb667ef19bcb81aadf7fb4-g.jpg,,
22149466,Терминология кислородного и высотного оборудования самолетов.,,Сборник рекомендуемых терминов Выпуск 026,,Ответственный редактор А.М.Терпигорев.,1954,,Издательство Академии наук СССР,М.,22,0,Russian,245,,,,,,,,,,,,,"Scan: AAW, Djvuing, OCR: Dmitry7, 2011",0,,1,,1,1,,1,290113,djvu,77d36caaf7407a2f034e9950796c6385,,,D:\\Сборники научно-нормативной терминологии\\Выпуск 026 - Терминология кислородного и высотного оборудования самолетов (1954).djvu,0,2000-01-01 01:00:00,2016-04-03 02:51:08,854000/77d36caaf7407a2f034e9950796c6385-g.jpg,,
22149467,Терминология гидротехники.,,Сборник рекомендуемых терминов Выпуск 027,,Ответственный редактор А.М.Терпигорев.,1955,,Издательство Академии наук СССР,М.,74,0,Russian,,,,,,,,,,,,,,"Scan: AAW, Djvuing, OCR: Dmitry7, 2011",0,,1,,1,1,,1,1174583,djvu,95f13924af81ddf1afd95796f53ed631,,,D:\\Сборники научно-нормативной терминологии\\Выпуск 027 - Терминология гидротехники (1955).djvu,0,2000-01-01 01:00:00,2016-04-03 02:51:08,854000/95f13924af81ddf1afd95796f53ed631-g.jpg,,
22149468,"Терминология управления, регулирования и автоматики авиадвигателей.",,Сборник рекомендуемых терминов Выпуск 028,,Ответственный редактор А.М.Терпигорев.,1954,,Издательство Академии наук СССР,М.,26,0,Russian,,,,,,,,,,,,,,"Scan: AAW, Djvuing, OCR: Dmitry7, 2011",0,,1,,1,1,,1,247675,djvu,0ad9a270e849b08ba560c67919fb6683,,,"D:\\Сборники научно-нормативной терминологии\\Выпуск 028 - Терминология управления, регулирования и автоматики авиадвигателей (1954).djvu",0,2000-01-01 01:00:00,2016-04-03 02:51:08,854000/0ad9a270e849b08ba560c67919fb6683-g.jpg,,
22149469,Терминология по воздушному фотографированию.,,Сборник рекомендуемых терминов Выпуск 029,,Ответственный редактор А.М.Терпигорев.,1954,,Издательство Академии наук СССР,М.,34,0,Russian,,,,,,,,,,,,,,"Scan: AAW, Djvuing, OCR: Dmitry7, 2011",0,,1,,1,1,,1,576304,djvu,0f85404702cd507c71549a297338321b,,,D:\\Сборники научно-нормативной терминологии\\Выпуск 029 - Терминология по воздушному фотографированию (1954).djvu,0,2000-01-01 01:00:00,2016-04-03 02:51:08,854000/0f85404702cd507c71549a297338321b-g.jpg,,
22149470,Терминология волновых движений жидкости.,,Сборник рекомендуемых терминов Выпуск 030,,Ответственный редактор А.М.Терпигорев.,1954,,Издательство Академии наук СССР,М.,19,0,Russian,,,,,,,,,,,,,,"Scan: AAW, Djvuing, OCR: Dmitry7, 2011",0,,1,,1,1,,1,200059,djvu,9975cda698ed7f462f5c3df5db7f1649,,,D:\\Сборники научно-нормативной терминологии\\Выпуск 030 - Терминология волновых движений жидкости (1954).djvu,0,2000-01-01 01:00:00,2016-04-03 02:51:08,854000/9975cda698ed7f462f5c3df5db7f1649-g.jpg,,
22149471,Терминология электрической тяги магистральных железных дорог и метрополитенов. Электротяговая сеть.,,Сборник рекомендуемых терминов Выпуск 031,,Ответственный редактор А.М.Терпигорев.,1954,,Издательство Академии наук СССР,М.,39,0,Russian,,,,,,,,,,,,,,"Scan: AAW, Djvuing, OCR: Dmitry7, 2011",0,,1,,1,1,,1,484048,djvu,5dc68dab22b957e99b8faa3a6cddbacc,,,D:\\Сборники научно-нормативной терминологии\\Выпуск 031 - Терминология электрической тяги магистральных железных дорог и метрополитена - Электротяговая сеть (1954).djvu,0,2000-01-01 01:00:00,2016-04-03 02:51:08,854000/5dc68dab22b957e99b8faa3a6cddbacc-g.jpg,,
22149472,Терминология электрической тяги магистральных железных дорог и метрополитенов. Тяговые подстанции.,,Сборник рекомендуемых терминов Выпуск 032,,Ответственный редактор А.М.Терпигорев.,1954,,Издательство Академии наук СССР,М.,23,0,Russian,,,,,,,,,,,,,,"Scan: AAW, Djvuing, OCR: Dmitry7, 2011",0,,1,,1,1,,1,250624,djvu,9f8e1e8672e19cfade56b92ad63ac9ae,,,D:\\Сборники научно-нормативной терминологии\\Выпуск 032 - Терминология электрической тяги магистральных железных дорог и метрополитена - Тяговые подстанции (1954).djvu,0,2000-01-01 01:00:00,2016-04-03 02:51:08,854000/9f8e1e8672e19cfade56b92ad63ac9ae-g.jpg,,
22149473,Терминология общей механики.,,Сборник рекомендуемых терминов Выпуск 033,,Ответственный редактор А.М.Терпигорев.,1955,,Издательство Академии наук СССР,М.,51,0,Russian,,,,,,,,,,,,,,"Scan: AAW, Djvuing, OCR: Dmitry7, 2011",0,,1,,1,1,,1,645090,djvu,93e9b6fb0199a83b5b670b30501fff12,,,D:\\Сборники научно-нормативной терминологии\\Выпуск 033 - Терминология общей механики (1955).djvu,0,2000-01-01 01:00:00,2016-04-03 02:51:08,854000/93e9b6fb0199a83b5b670b30501fff12-g.jpg,,
22149474,Терминология поршневых двигателей внутреннего сгорания.,,Сборник рекомендуемых терминов Выпуск 034,,Ответственный редактор А.М.Терпигорев.,1954,,Издательство Академии наук СССР,М.,63,0,Russian,,,,,,,,,,,,,,"Scan: AAW, Djvuing, OCR: Dmitry7, 2011",0,,1,,1,1,,1,847990,djvu,81db05bf23488316449efa91a7b1ce9e,,,D:\\Сборники научно-нормативной терминологии\\Выпуск 034 - Терминология поршневых двигателей внутреннего сгорания (1954).djvu,0,2000-01-01 01:00:00,2016-04-03 02:51:08,854000/81db05bf23488316449efa91a7b1ce9e-g.jpg,,
22149475,Терминология основных понятий автоматики.,,Сборник рекомендуемых терминов Выпуск 035,,Ответственный редактор А.М.Терпигорев.,1954,,Издательство Академии наук СССР,М.,26,0,Russian,,,,,,,,,,,,,,"Scan: AAW, Djvuing, OCR: Dmitry7, 2011",0,,1,,1,1,,1,340732,djvu,bb16b4b47fd69057af19d54c1dd0ec32,,,D:\\Сборники научно-нормативной терминологии\\Выпуск 035 - Терминология основных понятий автоматики (1954).djvu,0,2000-01-01 01:00:00,2016-04-03 02:51:08,854000/bb16b4b47fd69057af19d54c1dd0ec32-g.jpg,,
22149476,Терминология горного дела. Горные работы и горные выработки.,,Сборник рекомендуемых терминов Выпуск 036,,Ответственный редактор А.М.Терпигорев.,1954,,Издательство Академии наук СССР,М.,31,0,Russian,,,,,,,,,,,,,,"Scan: AAW, Djvuing, OCR: Dmitry7, 2011",0,,1,,1,1,,1,459895,djvu,8326a592071e537ffe4bb22ef79a0e13,,,D:\\Сборники научно-нормативной терминологии\\Выпуск 036 - Терминология горного дела - Горные работы и горные выработки (1954).djvu,0,2000-01-01 01:00:00,2016-04-03 02:51:08,854000/8326a592071e537ffe4bb22ef79a0e13-g.jpg,,
22149477,Терминология по автомобилям.,,Сборник рекомендуемых терминов Выпуск 037,,Ответственный редактор А.М.Терпигорев.,1954,,Издательство Академии наук СССР,М.,47,0,Russian,,,,,,,,,,,,,,"Scan: AAW, Djvuing, OCR: Dmitry7, 2011",0,,1,,1,1,,1,580671,djvu,1ebb1db7002632c3e5711281c04c4245,,,D:\\Сборники научно-нормативной терминологии\\Выпуск 037 - Терминология по автомобилям (1954).djvu,0,2000-01-01 01:00:00,2016-04-03 02:51:08,854000/1ebb1db7002632c3e5711281c04c4245-g.jpg,,
22149478,Терминология водоподготовки для паровых котлов.,,Сборник рекомендуемых терминов Выпуск 038,,Ответственный редактор А.М.Терпигорев.,1956,,Издательство Академии наук СССР,М.,42,0,Russian,,,,,,,,,,,,,,"Scan: AAW, Djvuing, OCR: Dmitry7, 2011",0,,1,,1,1,,1,665939,djvu,1a3d736eb4db5798cf6e53c8333078e6,,,D:\\Сборники научно-нормативной терминологии\\Выпуск 038 - Терминология водоподготовки для паровых котлов (1956).djvu,0,2000-01-01 01:00:00,2016-04-03 02:51:08,854000/1a3d736eb4db5798cf6e53c8333078e6-g.jpg,,
22149479,Терминология электровакуумных приборов.,,Сборник рекомендуемых терминов Выпуск 039,,Ответственный редактор А.М.Терпигорев.,1956,,Издательство Академии наук СССР,М.,52,0,Russian,,,,,,,,,,,,,,"Scan: AAW, Djvuing, OCR: Dmitry7, 2011",0,,1,,1,1,,1,893742,djvu,6d0e5e73f06e8cca2d24993455a3cadd,,,D:\\Сборники научно-нормативной терминологии\\Выпуск 039 - Терминология электровакуумных приборов (1956).djvu,0,2000-01-01 01:00:00,2016-04-03 02:51:08,854000/6d0e5e73f06e8cca2d24993455a3cadd-g.jpg,,
22149480,Терминология горного давления.,,Сборник рекомендуемых терминов Выпуск 040,,Ответственный редактор А.М.Терпигорев.,1956,,Издательство Академии наук СССР,М.,18,0,Russian,,,,,,,,,,,,,,"Scan: AAW, Djvuing, OCR: Dmitry7, 2011",0,,1,,1,1,,1,257601,djvu,0c73cde1748f9c396281611fb4d4a1dd,,,D:\\Сборники научно-нормативной терминологии\\Выпуск 040 - Терминология горного давления (1956).djvu,0,2000-01-01 01:00:00,2016-04-03 02:51:08,854000/0c73cde1748f9c396281611fb4d4a1dd-g.jpg,,
22149481,Терминология газовой техники.,,Сборник рекомендуемых терминов Выпуск 041,,Ответственный редактор Н.М.Караваев.,1957,,Издательство Академии наук СССР,М.,30,0,Russian,,,,,,,,,,,,,,"Scan: AAW, Djvuing, OCR: Dmitry7, 2011",0,,1,,1,1,,1,556675,djvu,35e1918c65f43204945dfab11fd2575a,,,D:\\Сборники научно-нормативной терминологии\\Выпуск 041 - Терминология газовой механики (1957).djvu,0,2000-01-01 01:00:00,2016-04-03 02:51:08,854000/35e1918c65f43204945dfab11fd2575a-g.jpg,,
22149482,Терминология вычислительных машин и приборов.,,Сборник рекомендуемых терминов Выпуск 042,,Ответственный редактор выпуска А.М.Терпигорев.,1957,,Издательство Академии наук СССР,М.,18,0,Russian,,,,,,,,,,,,,,"Scan, Djvuing, OCR: Dmitry7, 2011",0,,1,,1,1,,1,284389,djvu,7854b126b55cf27d92f00138ce03b64f,,,D:\\Сборники научно-нормативной терминологии\\Выпуск 042 - Терминология вычислительных машин и приборов (1957).djvu,0,2000-01-01 01:00:00,2016-04-03 02:51:08,854000/7854b126b55cf27d92f00138ce03b64f-g.jpg,,
22149483,Терминология обогащения твердого ископаемого сырья.,,Сборник рекомендуемых терминов Выпуск 043,,Ответственный редактор И.М.Верховский.,1957,,Издательство Академии наук СССР,М.,22,0,Russian,,,,,,,,,,,,,,"Scan: AAW, Djvuing, OCR: Dmitry7, 2011",0,,1,,1,1,,1,361256,djvu,aad9f589c99f739cf011e5488bb78a61,,,D:\\Сборники научно-нормативной терминологии\\Выпуск 043 - Терминология обогащения твердого ископаемого сырья (1957).djvu,0,2000-01-01 01:00:00,2016-04-03 02:51:08,854000/aad9f589c99f739cf011e5488bb78a61-g.jpg,,
22149484,Терминология топлива для двигателей внутреннего сгорания.,,Сборник рекомендуемых терминов Выпуск 044,,Ответственный редактор выпуска С.Р.Сергиенко.,1957,,Издательство Академии наук СССР,М.,34,0,Russian,,,,,,,,,,,,,,"Scan: AAW, Djvuing, OCR: Dmitry7, 2011",0,,1,,1,1,,1,570023,djvu,f6d94371e202c6e93a11ebd475285bf5,,,D:\\Сборники научно-нормативной терминологии\\Выпуск 044 - Терминология топлива для двигателей внутреннего сгорания (1957).djvu,0,2000-01-01 01:00:00,2016-04-03 02:51:08,854000/f6d94371e202c6e93a11ebd475285bf5-g.jpg,,
22149485,Терминология деталей машин. Муфты.,,Сборник рекомендуемых терминов Выпуск 045,,Ответственный редактор выпуска Б.А.Иванов.,1958,,Издательство Академии наук СССР,М.,25,0,Russian,,,,,,,,,,,,,,"Scan, Djvuing, OCR: Dmitry7, 2011",0,,1,,1,1,,1,457768,djvu,eab3110ab320eb67d626a0a6ee1bc8c4,,,D:\\Сборники научно-нормативной терминологии\\Выпуск 045 - Терминология деталей машин - Муфты (1958).djvu,0,2000-01-01 01:00:00,2016-04-03 02:51:08,854000/eab3110ab320eb67d626a0a6ee1bc8c4-g.jpg,,
22149486,Терминология теоретической электротехники.,,Сборник рекомендуемых терминов Выпуск 046,,Ответственный редактор выпуска Л.Р.Нейман.,1958,,Издательство Академии наук СССР,М.,50,0,Russian,,,,,,,,,,,,,,"Scan: AAW, Djvuing, OCR: Dmitry7, 2011",0,,1,,1,1,,1,1192117,djvu,46855e1571d375c608fafd0718349e50,,,D:\\Сборники научно-нормативной терминологии\\Выпуск 046 - Терминология теоретической электротехники (1958).djvu,0,2000-01-01 01:00:00,2016-04-03 02:51:08,854000/46855e1571d375c608fafd0718349e50-g.jpg,,
22149487,Терминология распространения радиоволн.,,Сборник рекомендуемых терминов Выпуск 047,,Ответственный редактор выпуска А.А.Пистолькорс.,1957,,Издательство Академии наук СССР,М.,31,0,Russian,256,,,,,,,,,,,,,"Scan, Djvuing, OCR: Dmitry7, 2011",0,,1,,1,1,,1,453121,djvu,b719da7a043e4283a3d0a350d3b7e4d1,,,D:\\Сборники научно-нормативной терминологии\\Выпуск 047 - Терминология распространения радиоволн (1957).djvu,0,2000-01-01 01:00:00,2016-04-03 02:51:08,854000/b719da7a043e4283a3d0a350d3b7e4d1-g.jpg,,
22149488,Терминология светотехники.,,Сборник рекомендуемых терминов Выпуск 048,,Ответственный редактор выпуска А.М.Терпигорев.,1957,,Издательство Академии наук СССР,М.,67,0,Russian,,,,,,,,,,,,,,"Scan: AAW, Djvuing, OCR: Dmitry7, 2011",0,,1,,1,1,,1,1293496,djvu,7e2a1ff009d0544229b21ef206ddd283,,,D:\\Сборники научно-нормативной терминологии\\Выпуск 048 - Терминология светотехники (1957).djvu,0,2000-01-01 01:00:00,2016-04-03 02:51:08,854000/7e2a1ff009d0544229b21ef206ddd283-g.jpg,,
22149489,Терминология реле.,,Сборник рекомендуемых терминов Выпуск 049,,Ответственный редактор выпуска Б.С.Сотсков.,1958,,Издательство Академии наук СССР,М.,45,0,Russian,,,,,,,,,,,,,,"Scan, Djvuing, OCR: Dmitry7, 2011",0,,1,,1,1,,1,935643,djvu,a6329e6895a56093b507da1e7180cf2e,,,D:\\Сборники научно-нормативной терминологии\\Выпуск 049 - Терминология реле (1958).djvu,0,2000-01-01 01:00:00,2016-04-03 02:51:08,854000/a6329e6895a56093b507da1e7180cf2e-g.jpg,,
22149490,Поршневые двигатели внутреннего сгорания. Дефекты работы двигателей.,,Сборник рекомендуемых терминов Выпуск 050,,Ответственный редактор выпуска Ю.А.Степанов.,1959,,Издательство Академии наук СССР,М.,18,0,Russian,,,,,,,,,,,,,,"Scan: AAW, Djvuing, OCR: Dmitry7, 2011",0,,1,,1,1,,1,281886,djvu,73a4fe47a5ef7309ae2b4d65626509d3,,,D:\\Сборники научно-нормативной терминологии\\Выпуск 050 - Поршневые двигатели внутреннего сгорания - Дефекты работы двигателей (1959).djvu,0,2000-01-01 01:00:00,2016-04-03 02:51:08,854000/73a4fe47a5ef7309ae2b4d65626509d3-g.jpg,,
22149491,Терминология систем разработки месторождений твердых полезных ископаемых подземным способом.,,Сборник рекомендуемых терминов Выпуск 051,,Ответственный редактор выпуска Л.Д.Шевяков.,1959,,Издательство Академии наук СССР,М.,18,0,Russian,,,,,,,,,,,,,,"Scan, Djvuing, OCR: Dmitry7, 2012",0,,1,,1,1,,1,313005,djvu,e2879702899ba379e4c9e255537de979,,,D:\\Сборники научно-нормативной терминологии\\Выпуск 051 - Терминология систем разработки месторождений твердых полезных ископаемых подземным способом (1959).djvu,0,2000-01-01 01:00:00,2016-04-03 02:51:08,854000/e2879702899ba379e4c9e255537de979-g.jpg,,
22149492,Электрические машины. Виды электрических машин.,,Сборник рекомендуемых терминов Выпуск 052,,Ответственный редактор выпуска Е.В.Нитусов.,1960,,Издательство Академии наук СССР,М.,30,0,Russian,,,,,,,,,,,,,,"Scan: AAW, Djvuing, OCR: Dmitry7, 2011",0,,1,,1,1,,1,793637,djvu,6769a1b9c967f4adb4df59d878dea9bd,,,D:\\Сборники научно-нормативной терминологии\\Выпуск 052 - Электрические машины - Виды электрических машин (1960).djvu,0,2000-01-01 01:00:00,2016-04-03 02:51:08,854000/6769a1b9c967f4adb4df59d878dea9bd-g.jpg,,
22149493,Диэлектрики.,,Сборник рекомендуемых терминов Выпуск 053,,Ответственный редактор выпуска Б.М.Тареев.,1960,,Издательство Академии наук СССР,М.,26,0,Russian,,,,,,,,,,,,,,"Scan: AAW, Djvuing, OCR: Dmitry7, 2011",0,,1,,1,1,,1,496587,djvu,74a31fa1bfa99d83071dc81f22df7e0d,,,D:\\Сборники научно-нормативной терминологии\\Выпуск 053 - Диэлектрики (1960).djvu,0,2000-01-01 01:00:00,2016-04-03 02:51:08,854000/74a31fa1bfa99d83071dc81f22df7e0d-g.jpg,,
22149494,"Электровакуумные приборы. Режимы, параметры и характеристики.",,Сборник рекомендуемых терминов Выпуск 054,,Ответственный редактор выпуска Г.А.Тягунов.,1960,,Издательство Академии наук СССР,М.,27,0,Russian,250,,,,,,,,,,,,,"Scan: AAW, Djvuing, OCR: Dmitry7, 2012",0,,1,,1,1,,1,471882,djvu,1daa623b2bb16b115fb0b7a0e1e8af0c,,,"D:\\Сборники научно-нормативной терминологии\\Выпуск 054 - Электровакуумные приборы - Режимы, параметры и характеристики (1960).djvu",0,2000-01-01 01:00:00,2016-04-03 02:51:08,854000/1daa623b2bb16b115fb0b7a0e1e8af0c-g.jpg,,
22149495,Обработка металлов давлением. Операции и переходы ковки и штамповки: Терминология.,,Сборник рекомендуемых терминов Выпуск 055,,Ответственный редактор выпуска С.Н.Хржановский.,1961,,Издательство Академии наук СССР,М.,31,0,Russian,,,,,,,,,,,,,,"Scan: AAW, Djvuing, OCR: Dmitry7, 2011",0,,1,,1,1,,1,473319,djvu,496b6a9300f9158454e2b2c94e29d843,,,D:\\Сборники научно-нормативной терминологии\\Выпуск 055 - Обработка металлов давлением - Операции и переходы ковки и штамповки - Терминология (1961).djvu,0,2000-01-01 01:00:00,2016-04-03 02:51:08,854000/496b6a9300f9158454e2b2c94e29d843-g.jpg,,
22149496,Лопастные насосы центробежные и осевые: Терминология и буквенные обозначения.,,Сборник рекомендуемых терминов Выпуск 056,,Ответственный редактор выпуска Я.Л.Некрасов.,1961,,Издательство Академии наук СССР,М.,35,0,Russian,,,,,,,,,,,,,,"Scan: AAW, Djvuing, OCR: Dmitry7, 2011",0,,1,,1,1,,1,566123,djvu,ee7d87895909eaa073c442a032798ae2,,,D:\\Сборники научно-нормативной терминологии\\Выпуск 056 - Лопастные насосы - Центробежные и осевые - Терминология и буквенные обозначения (1961).djvu,0,2000-01-01 01:00:00,2016-04-03 02:51:08,854000/ee7d87895909eaa073c442a032798ae2-g.jpg,,
22149497,"Зубчатые колеса, зацепления и передачи с постоянным передаточным отношением. Терминология.",,Сборник рекомендуемых терминов Выпуск 057,,Ответственный редактор выпуска В.А.Гавриленко.,1962,,Издательство Академии наук СССР,М.,70,0,Russian,,,,,,,,,,,,,,"Scan, Djvuing, OCR: Dmitry7, 2012",0,,1,,1,1,,1,1508053,djvu,906381393bf9c6874665861d127d5276,,,"D:\\Сборники научно-нормативной терминологии\\Выпуск 057 - Зубчатые колеса, зацепления и передачи с постоянным передаточным отношением - Терминология (1962).djvu",0,2000-01-01 01:00:00,2016-04-03 02:51:08,854000/906381393bf9c6874665861d127d5276-g.jpg,,
22149498,Гидромеханика. Волновое движение жидкости. Строительная механика. Терминология.,,Сборник рекомендуемых терминов Выпуск 058,,Ответственный редактор выпуска И.Я.Артоболевский.,1962,,Издательство Академии наук СССР,М.,91,0,Russian,236,,,,,,,,,,,,,"Scan: AAW, Djvuing, OCR: Dmitry7, 2012",0,,1,,1,1,,1,1993175,djvu,eaffe34be2c00505e485c86a59aade59,,,"D:\\Сборники научно-нормативной терминологии\\Выпуск 058 - Гидромеханика, Волновое движение жидкости, Строительная механика - Терминология (1962).djvu",0,2000-01-01 01:00:00,2016-04-03 02:51:08,854000/eaffe34be2c00505e485c86a59aade59-g.jpg,,
22149499,"Электротехника, Электроника - Терминология",,Сборник рекомендуемых терминов Выпуск 059,,,1962,,Издательство Академии наук СССР,М.,235,0,Russian,250,,,,,,,,,,,,,,0,,1,,1,1,,1,4666796,djvu,b80b23146fe69390a5c1294c64f3090e,,,"D:\\Сборники научно-нормативной терминологии\\Выпуск 059 - Электротехника, Электроника - Терминология (1962).djvu",0,2000-01-01 01:00:00,2016-04-03 02:51:08,854000/b80b23146fe69390a5c1294c64f3090e-g.jpg,,
22149500,Теория надежности в области радиоэлектроники. Общие понятия. Отказы. Резервирование. Параметры. Испытания. Терминология.,,Сборник рекомендуемых терминов Выпуск 060,,Ответственный редактор выпуска В.Я.Сифоров.,1962,,Издательство Академии наук СССР,М.,51,0,Russian,250,,,,,,,,,,,,,"Scan, Djvuing, OCR: Dmitry7, 2011",0,,1,,1,1,,1,1196005,djvu,60b985e9bce0505f15a6b8dfed092731,,,D:\\Сборники научно-нормативной терминологии\\Выпуск 060 - Теория надежности в области радиоэлектроники - Терминология (1962).djvu,0,2000-01-01 01:00:00,2016-04-03 02:51:08,854000/60b985e9bce0505f15a6b8dfed092731-g.jpg,,
22149501,Обработка металлов давлением. Волочение. Терминология.,,Сборник рекомендуемых терминов Выпуск 061,,Ответственный редактор И.Л.Перлин.,1962,,Издательство Академии наук СССР,М.,18,0,Russian,,,,,,,,,,,,,,"Scan, Djvuing, OCR: Dmitry7, 2012",0,,1,,1,1,,1,565862,djvu,e444782e5528c09ad9f65e9c73467659,,,D:\\Сборники научно-нормативной терминологии\\Выпуск 061 - Обработка металлов давлением - Волочение - Терминология (1962).djvu,0,2000-01-01 01:00:00,2016-04-03 02:51:08,854000/e444782e5528c09ad9f65e9c73467659-g.jpg,,
22149502,Полупроводниковые приборы. Часть 1. Основные понятия. Терминология.,,Сборник рекомендуемых терминов Выпуск 062,,Ответственный редактор Г.И.Тягунов.,1962,,Издательство Академии наук СССР,М.,27,0,Russian,,,,,,,,,,,,,,"Scan, Djvuing, OCR: Dmitry7, 2011",0,,1,,1,1,,1,859374,djvu,014f5b4cdef208c2a3be477a632f4ef4,,,D:\\Сборники научно-нормативной терминологии\\Выпуск 062 - Полупроводниковые приборы - Часть 1 - Основные понятия - Терминология (1962).djvu,0,2000-01-01 01:00:00,2016-04-03 02:51:08,854000/014f5b4cdef208c2a3be477a632f4ef4-g.jpg,,
22149503,Гидропривод. Часть I. Гидродинамические передачи.,,Сборник рекомендуемых терминов Выпуск 063,,Ответственный редактор выпуска А.Я.Вощинин.,1963,,Издательство Академии наук СССР,М.,30,0,Russian,,,,,,,,,,,,,,"Scan: AAW, Djvuing, OCR: Dmitry7, 2012",0,,1,,1,1,,1,492389,djvu,cb4647183a2c5fa32a66e1d76d2baa57,,,D:\\Сборники научно-нормативной терминологии\\Выпуск 063 - Гидропривод - Часть 1 - Гидродинамические передачи - Терминология (1963).djvu,0,2000-01-01 01:00:00,2016-04-03 02:51:08,854000/cb4647183a2c5fa32a66e1d76d2baa57-g.jpg,,
22149504,Теория информации. Терминология.,,Сборник рекомендуемых терминов Выпуск 064,,Ответственный А.А.Харкевич.,1964,,Наука,М.,14,0,Russian,,,,,,,,,,,,,,"Scan, Djvuing, OCR: Dmitry7, 2011",0,,1,,1,1,,1,573916,djvu,42116a0d4026bce86c7f07691f13bb03,,,D:\\Сборники научно-нормативной терминологии\\Выпуск 064 - Теория информации - Терминология (1964).djvu,0,2000-01-01 01:00:00,2016-04-03 02:51:08,854000/42116a0d4026bce86c7f07691f13bb03-g.jpg,,
22149505,"Ускорители заряженных частиц - Основные понятия, Терминология",,Сборник рекомендуемых терминов Выпуск 065,,,1963,,Наука,М.,26,0,Russian,,,,,,,,,,,,,,,0,,1,,1,1,,1,504025,djvu,1f6461b10e30ed84348abe87de85d636,,,"D:\\Сборники научно-нормативной терминологии\\Выпуск 065 - Ускорители заряженных частиц - Основные понятия, Терминология (1963).djvu",0,2000-01-01 01:00:00,2016-04-03 02:51:08,854000/1f6461b10e30ed84348abe87de85d636-g.jpg,,
22149506,Гидропривод - Часть 2 - Объемный гидропривод - Терминология,,Сборник рекомендуемых терминов Выпуск 066,,,1964,,Наука,М.,35,0,Russian,,,,,,,,,,,,,,,0,,1,,1,1,,1,593036,djvu,b83894032cf6b73e81163083fbed8119,,,D:\\Сборники научно-нормативной терминологии\\Выпуск 066 - Гидропривод - Часть 2 - Объемный гидропривод - Терминология (1964).djvu,0,2000-01-01 01:00:00,2016-04-03 02:51:08,854000/b83894032cf6b73e81163083fbed8119-g.jpg,,
22149507,Надежность технических систем и изделий. Основные понятия. Терминология.,,Сборник рекомендуемых терминов Выпуск 067,,Ответственный редактор Б.С.Сотсков.,1964,,Наука,М.,10,0,Russian,,,,,,,,,,,,,,"Scan, Djvuing, OCR: Dmitry7, 2012",0,,1,,1,1,,1,199667,djvu,23c6744a7aa606188ac1874ea1045adc,,,D:\\Сборники научно-нормативной терминологии\\Выпуск 067 - Надежность технических систем и изделий - Основные понятия - Терминология (1964).djvu,0,2000-01-01 01:00:00,2016-04-03 02:51:08,854000/23c6744a7aa606188ac1874ea1045adc-g.jpg,,
22149508,Надежность технических систем и изделий. Основные понятия. Терминология.,,Сборник рекомендуемых терминов Выпуск 067a,,Ответственный редактор В.Л.Сифоров.,1965,,Наука,М.,42,0,Russian,,,,,,,,,,,,,,"Scan, Djvuing, OCR: Dmitry7, 2011",0,,1,,1,1,,1,867034,djvu,d5c3466e0129e81f0424903795e46dce,,,"D:\\Сборники научно-нормативной терминологии\\Выпуск 067a- Надежность технических систем и изделий - Основные понятия, Терминология (1965).djvu",0,2000-01-01 01:00:00,2016-04-03 02:51:08,854000/d5c3466e0129e81f0424903795e46dce-g.jpg,,
22149509,Теория механизмов. Основные понятия. Терминология.,,Сборник рекомендуемых терминов Выпуск 068,,Ответственный редактор выпуска Н.И.Левитский.,1965,,Наука,М.,26,0,Russian,271,,,,,,,,,,,,,"Scan, Djvuing, OCR: Dmitry7, 2011",0,,1,,1,1,,1,695298,djvu,3e5cd3512056c928aa35fd5bd2a9289e,,,"D:\\Сборники научно-нормативной терминологии\\Выпуск 068 - Теория механизмов - Основные понятия, Терминология (1965).djvu",0,2000-01-01 01:00:00,2016-04-03 02:51:08,854000/3e5cd3512056c928aa35fd5bd2a9289e-g.jpg,,
22149510,Полупроводниковые приборы. Основные понятия. Физические элементы полупроводниковых приборов. Виды полупроводниковых приборов. Явления в полупроводниковых приборах. Терминология.,,Сборник рекомендуемых терминов Выпуск 069,,Ответственный редактор выпуска Я.А.Федотов.,1965,,Наука,М.,55,0,Russian,250,,,,,,,,,,,,,"Scan, Djvuing, OCR: Dmitry7, 2011",0,,1,,1,1,,1,1251141,djvu,318794229e4509461efa4152860893e7,,,D:\\Сборники научно-нормативной терминологии\\Выпуск 069 - Полупроводниковые приборы - Терминология (1965).djvu,0,2000-01-01 01:00:00,2016-04-03 02:51:08,854000/318794229e4509461efa4152860893e7-g.jpg,,
22149511,Дозиметрия ионизирующих излучений. Основные понятия. Терминология.,,Сборник рекомендуемых терминов Выпуск 070,,Ответственный редактор выпуска В.И.Иванов.,1965,,Наука,М.,26,0,Russian,,,,,,,,,,,,,,"Scan: AAW, Djvuing, OCR: Dmitry7, 2012",0,,1,,1,1,,1,356189,djvu,d4e23fa60a5165a31b8a4e154ad4a1ca,,,D:\\Сборники научно-нормативной терминологии\\Выпуск 070 - Дозиметрия ионизирующих излучений - Основные понятия - Терминология (1965).djvu,0,2000-01-01 01:00:00,2016-04-03 02:51:08,854000/d4e23fa60a5165a31b8a4e154ad4a1ca-g.jpg,,
22149512,Основные понятия автоматики. Терминология.,,Сборник рекомендуемых терминов Выпуск 071,,Ответственный редактор выпуска М.А.Гаврилов.,1966,,Наука,М.,22,0,Russian,,,,,,,,,,,,,,"Scan: AAW, Djvuing, OCR: Dmitry7, 2012",0,,1,,1,1,,1,365143,djvu,92b028cb4320cfd3b079fccda005aa39,,,D:\\Сборники научно-нормативной терминологии\\Выпуск 071 - Основные понятия автоматики - Терминология (1966).djvu,0,2000-01-01 01:00:00,2016-04-03 02:51:08,854000/92b028cb4320cfd3b079fccda005aa39-g.jpg,,
22149513,Квантовая электроника. Терминология.,,Сборник рекомендуемых терминов Выпуск 075,,Ответственный редактор выпуска М.Е.Жаботинский.,1968,,Наука,М.,52,0,Russian,,,,,,,,,,,,,,"Scan, Djvuing, OCR: Dmitry7, 2011-12",0,,1,,1,1,,1,1130659,djvu,77ecd403d5a5fb1f2c0d92da15367560,,,D:\\Сборники научно-нормативной терминологии\\Выпуск 075 - Квантовая электроника - Терминология (1968).djvu,0,2000-01-01 01:00:00,2016-04-03 02:51:08,854000/77ecd403d5a5fb1f2c0d92da15367560-g.jpg,,
22149514,Дозиметрия ионизирующих излучений. Терминология.,,Сборник рекомендуемых терминов Выпуск 076,,Ответственный редактор выпуска Ю.В.Сивинцев.,1968,,Наука,М.,38,0,Russian,,,,,,,,,,,,,,"Scan: AAW, Djvuing, OCR: Dmitry7, 2012",0,,1,,1,1,,1,597834,djvu,bb211a9d4a365c2cc2a5016cc0fc5cec,,,D:\\Сборники научно-нормативной терминологии\\Выпуск 076 - Дозиметрия ионизирующих излучений - Терминология (1968).djvu,0,2000-01-01 01:00:00,2016-04-03 02:51:08,854000/bb211a9d4a365c2cc2a5016cc0fc5cec-g.jpg,,
22149515,Элементы технической кибернетики.,,Сборник рекомендуемых терминов Выпуск 077,,Ответственный редактор выпуска В.С.Кулебакин.,1968,,Наука,М.,56,0,Russian,80,,,,,,,,,,,,,"Scan, Djvuing, OCR: Dmitry7, 2011-12",0,,1,,1,1,,1,1187525,djvu,178f34a9a056c4d22dc72a66fbd89ac6,,,D:\\Сборники научно-нормативной терминологии\\Выпуск 077 - Элементы технической кибернетики - Терминология (1968).djvu,0,2000-01-01 01:00:00,2016-04-03 02:51:08,854000/178f34a9a056c4d22dc72a66fbd89ac6-g.jpg,,
22149516,Электротехнические материалы. Общие понятия. Диэлектрики и электроизоляционные материалы. Проводниковые материалы. Полупроводниковые материалы. Магнитные материалы. Терминология.,,Сборник рекомендуемых терминов Выпуск 078,,Ответственный редактор выпуска Б.М.Тареев.,1969,,Наука,М.,86,0,Russian,250,,,,,,,,,,,,,"Scan, Djvuing, OCR: Dmitry7, 2011-12",0,,1,,1,1,,1,1699435,djvu,c946fb23c113458daeee45fec18c70a5,,,D:\\Сборники научно-нормативной терминологии\\Выпуск 078 - Электротехнические материалы - Терминология (1969).djvu,0,2000-01-01 01:00:00,2016-04-03 02:51:08,854000/c946fb23c113458daeee45fec18c70a5-g.jpg,,
22149517,Физическая оптика. Терминология,,Сборник рекомендуемых терминов Выпуск 079,,Ответственный редактор выпуска Ф.А.Королев.,1970,,Наука,М.,53,0,Russian,279,,,,,,,,,,,,,"Scan, Djvuing, OCR: Dmitry7, 2011-12",0,,1,,1,1,,1,1141503,djvu,9a16e94f2f5aa1bc1c74537d0cfa0c75,,,D:\\Сборники научно-нормативной терминологии\\Выпуск 079 - Физическая оптика - Терминология (1970).djvu,0,2000-01-01 01:00:00,2016-04-03 02:51:08,854000/9a16e94f2f5aa1bc1c74537d0cfa0c75-g.jpg,,
22149518,"Энергетические системы. Общие понятия. Режимы, процессы и параметры режимов энергетических систем. Управление энергетическими системами. Графики нагрузок и экономичность энергетических систем. Терминология.",,Сборник рекомендуемых терминов Выпуск 081,,Ответственный редактор выпуска В.А.Веников.,1970,,Наука,М.,75,0,Russian,305,,,,,,,,,,,,,"Scan, Djvuing, OCR: Dmitry7, 2011-12",0,,1,,1,1,,1,1327202,djvu,f6eb35698f25c3c28b03ca91deab63e4,,,D:\\Сборники научно-нормативной терминологии\\Выпуск 081 - Энергетические системы - Терминология (1970).djvu,0,2000-01-01 01:00:00,2016-04-03 02:51:08,854000/f6eb35698f25c3c28b03ca91deab63e4-g.jpg,,
22149519,Строительная механика.,,Сборник рекомендуемых терминов Выпуск 082,,Ответственный редактор выпуска И.М.Рабинович.,1970,,Наука,М.,,0,Russian,236,,,,,,,,,,,,,"Scan, Formatting: ???, предоставил: Dmitry7, 2011",0,,1,,1,1,,1,1123840,doc,9c7920d2743efbbda02d3480a0bf24c0,,,D:\\Сборники научно-нормативной терминологии\\Выпуск 082 - Строительная механика - Терминология (1970).doc,0,2000-01-01 01:00:00,2016-04-03 02:51:08,,,
22149520,Строительная механика - Терминология,,Сборник рекомендуемых терминов Выпуск 082,,,1970,,Наука,М.,26,0,Russian,236,,,,,,,,,,,,,,0,,1,,1,1,,1,368530,pdf,29e2338827914eeff5cd7f04086e8b6d,,,D:\\Сборники научно-нормативной терминологии\\Выпуск 082 - Строительная механика - Терминология (1970).pdf,0,2000-01-01 01:00:00,2016-04-03 02:51:08,854000/29e2338827914eeff5cd7f04086e8b6d-g.jpg,,
22149521,Аналоговая вычислительная техника. Терминология.,,Сборник рекомендуемых терминов Выпуск 084,,Ответственный редактор выпуска В.Б.Ушаков.,1972,,Наука,М.,31,0,Russian,,,,,,,,,,,,,,"Scan, Djvuing, OCR: Dmitry7, 2011-12",0,,1,,1,1,,1,689430,djvu,3cc56215706b5976a5bd52e4a03e0855,,,D:\\Сборники научно-нормативной терминологии\\Выпуск 084 - Аналоговая вычислительная техника - Терминология (1972).djvu,0,2000-01-01 01:00:00,2016-04-03 02:51:08,854000/3cc56215706b5976a5bd52e4a03e0855-g.jpg,,
22149522,Термодинамика. Терминология.,,Сборник рекомендуемых терминов Выпуск 085,,Ответственный редактор выпуска И.И.Новиков.,1973,,Наука,М.,56,0,Russian,,,,,,,,,,,,,,"Scan, Djvuing, OCR: Dmitry7, 2011-12",0,,1,,1,1,,1,1176927,djvu,70bc9aaf39dbafb78d4ce6e48d30a8d7,,,D:\\Сборники научно-нормативной терминологии\\Выпуск 085 - Термодинамика - Терминология (1973).djvu,0,2000-01-01 01:00:00,2016-04-03 02:51:08,854000/70bc9aaf39dbafb78d4ce6e48d30a8d7-g.jpg,,
22149523,Энергетический баланс. Общие понятия. Балансовые понятия. Показатели совершенства энергетического хозяйства и энергетические характеристики развития народного хозяйства. Терминология.,,Сборник рекомендуемых терминов Выпуск 086,,Ответственный редактор выпуска Л.А.Мелентьев.,1973,,Наука,М.,34,0,Russian,262,,,,,,,,,,,,,"Scan, Djvuing, OCR: Dmitry7, 2011-12",0,,1,,1,1,,1,602049,djvu,87785543bf3bc56cd6fb946c1ed65165,,,D:\\Сборники научно-нормативной терминологии\\Выпуск 086 - Энергетический баланс - Терминология (1973).djvu,0,2000-01-01 01:00:00,2016-04-03 02:51:08,854000/87785543bf3bc56cd6fb946c1ed65165-g.jpg,,
22149524,Вычислительная техника. Терминология.,,Сборник рекомендуемых терминов Выпуск 087,,Ответственный редактор выпуска В.Б.Ушаков.,1974,,Наука,М.,53,0,Russian,,,,,,,,,,,,,,"Scan, Djvuing, OCR: Dmitry7, 2011-12",0,,1,,1,1,,1,1076867,djvu,af5a552ccde693d560871cbb33c9a144,,,D:\\Сборники научно-нормативной терминологии\\Выпуск 087 - Вычислительная техника - Терминология (1974).djvu,0,2000-01-01 01:00:00,2016-04-03 02:51:08,854000/af5a552ccde693d560871cbb33c9a144-g.jpg,,
22149525,"Основы теории подобия и моделирования. Общие понятия. Основные виды подобия. Основные виды моделей. Основные виды моделирования. Критерии подобия, величины, погрешности моделирования. Терминология.",,Сборник рекомендуемых терминов Выпуск 088,,Ответственный редактор выпуска Д.А.Веников.,1973,,Наука,М.,26,0,Russian,,,,,,,,,,,,,,"Scan, Djvuing, OCR: Dmitry7, 2011-12",0,,1,,1,1,,1,541275,djvu,c1daa26d1dfbc580b44c56bf07283048,,,D:\\Сборники научно-нормативной терминологии\\Выпуск 088 - Основы теории подобия и моделирования - Терминология (1973).djvu,0,2000-01-01 01:00:00,2016-04-03 02:51:08,854000/c1daa26d1dfbc580b44c56bf07283048-g.jpg,,
22149526,Теоретическая механика. Общие понятия. Кинематика. Кинетика (статика и динамика). Терминология.,,Сборник рекомендуемых терминов Выпуск 090,,Ответственный редактор выпуска А.Ю.Ишлинский.,1977,,Наука,М.,50,0,Russian,,,,,,,,,,,,,,"Scan, Djvuing, OCR: Dmitry7, 2011-12",0,,1,,1,1,,1,1045999,djvu,510d6bf7565eeb1498d817e58c7f6e7c,,,D:\\Сборники научно-нормативной терминологии\\Выпуск 090 - Теоретическая механика - Терминология (1977).djvu,0,2000-01-01 01:00:00,2016-04-03 02:51:08,854000/510d6bf7565eeb1498d817e58c7f6e7c-g.jpg,,
22149527,Прогностика. Терминология.,,Сборник рекомендуемых терминов Выпуск 092,,Ответственный редактор выпуска В.И.Сифоров.,1978,,Наука,М.,34,0,Russian,,,,,,,,,,,,,,"Scan, Djvuing, OCR: Dmitry7, 2012",0,,1,,1,1,,1,739497,djvu,029a64f09082f21afc19354108c8f3ea,,,D:\\Сборники научно-нормативной терминологии\\Выпуск 092 - Прогностика - Терминология (1978).djvu,0,2000-01-01 01:00:00,2016-04-03 02:51:08,854000/029a64f09082f21afc19354108c8f3ea-g.jpg,,
22149528,Теория передачи информации. Терминология.,,Сборник рекомендуемых терминов Выпуск 094,,Ответственный редактор выпуска В.И.Сифоров.,1979,,Наука,М.,26,0,Russian,,,,,,,,,,,,,,"Scan, Djvuing, OCR: Dmitry7, 2011-12",0,,1,,1,1,,1,771046,djvu,2ad07c05970286b46f693047ed895f29,,,D:\\Сборники научно-нормативной терминологии\\Выпуск 094 - Теория передачи информации - Терминология (1979).djvu,0,2000-01-01 01:00:00,2016-04-03 02:51:08,854000/2ad07c05970286b46f693047ed895f29-g.jpg,,
22149529,Теоретическая механика. Буквенные обозначения величин.,,Сборник рекомендуемых терминов Выпуск 096,,Ответственный редактор А.Ю.Ишлинский.,1980,,Наука,М.,18,0,Russian,,,,,,,,,,,,,,"Scan, Djvuing, ???, ReFormatting, OCR: Dmitry7, 2012",0,,1,,1,1,,1,245402,djvu,a4630ed5c5ec015ad7f84ec703a50362,,,D:\\Сборники научно-нормативной терминологии\\Выпуск 096 - Теоретическая механика - Буквенные обозначения величин (1980).djvu,0,2000-01-01 01:00:00,2016-04-03 02:51:08,854000/a4630ed5c5ec015ad7f84ec703a50362-g.jpg,,
22149530,Термодинамика. Термины и буквенные обозначения величин.,,Сборник рекомендуемых терминов Выпуск 097,,Ответственный редактор И.И.Новиков.,1980,,Наука,М.,18,0,Russian,,,,,,,,,,,,,,"Scan: AAW, Djvuing, OCR: Dmitry7, 2012",0,,1,,1,1,,1,296100,djvu,159b07852b80d625e759e2e8d348e93f,,,D:\\Сборники научно-нормативной терминологии\\Выпуск 097 - Термодинамика - Термины и буквенные обозначения величин (1980).djvu,0,2000-01-01 01:00:00,2016-04-03 02:51:08,854000/159b07852b80d625e759e2e8d348e93f-g.jpg,,
22149531,Гидромеханика. Буквенные обозначения величин.,,Сборник рекомендуемых терминов Выпуск 098,,Ответственный редактор Я.И.Секерж-Зенькович.,1980,,Наука,М.,19,0,Russian,,,,,,,,,,,,,,"Scan: AAW, Djvuing, OCR: Dmitry7, 2012",0,,1,,1,1,,1,281604,djvu,09db8a7205239019f6d16c7ec827a70c,,,D:\\Сборники научно-нормативной терминологии\\Выпуск 098 - Гидромеханика - Буквенные обозначения величин (1980).djvu,0,2000-01-01 01:00:00,2016-04-03 02:51:08,854000/09db8a7205239019f6d16c7ec827a70c-g.jpg,,
22149532,Теория механизмов и машин. Терминология. Буквенные обозначения величин.,,Сборник рекомендуемых терминов Выпуск 099,,Ответственный редактор Н.И.Левитский.,1984,,Наука,М.,42,0,Russian,271,,,,,,,,,,,,,"Scan, Djvuing, OCR: Dmitry7, 2011-12",0,,1,,1,1,,1,521938,djvu,f7aa6f6c743153c16ab3d8ec7d2a978b,,,"D:\\Сборники научно-нормативной терминологии\\Выпуск 099 - Теория механизмов и машин - Терминология, Буквенные обозначения величин (1984).djvu",0,2000-01-01 01:00:00,2016-04-03 02:51:08,854000/f7aa6f6c743153c16ab3d8ec7d2a978b-g.jpg,,
22149533,Основные понятия магнитной гидродинамики. МГД-устройства и МГД-установки. Терминология.,,Сборник рекомендуемых терминов Выпуск 100,,Ответственный редактор А.Е.Шейндлин.,1982,,Наука,М.,50,0,Russian,,,,,,,,,,,,,,"Scan: AAW, Djvuing, OCR: Dmitry7, 2012",0,,1,,1,1,,1,737087,djvu,db61d76eb004fb9a84d3edf3e39aadb0,,,"D:\\Сборники научно-нормативной терминологии\\Выпуск 100 - Основные понятия магнитной гидродинамики, МГД-устройства и МГД-установки - Терминология (1982).djvu",0,2000-01-01 01:00:00,2016-04-03 02:51:08,854000/db61d76eb004fb9a84d3edf3e39aadb0-g.jpg,,
22149534,Теоретическая механика. Терминология. Буквенные обозначения величин.,,Сборник рекомендуемых терминов Выпуск 102,,Ответственный редактор А.Ю.Ишлинский.,1984,,Наука,М.,49,0,Russian,,,,,,,,,,,,,,"Scan, Djvuing, OCR: Dmitry7, 2011-12",0,,1,,1,1,,1,547539,djvu,b1253f7f91641c006818b7f52daf5e90,,,"D:\\Сборники научно-нормативной терминологии\\Выпуск 102 - Теоретическая механика - Терминология, буквенные обозначения величин (1984).djvu",0,2000-01-01 01:00:00,2016-04-03 02:51:08,854000/b1253f7f91641c006818b7f52daf5e90-g.jpg,,
22149535,Термодинамика. Основные понятия. Терминология. Буквенные обозначения величин.,,Сборник рекомендуемых терминов Выпуск 103,,Ответственный редактор выпуска И.И.Новиков.,1984,,Наука,М.,42,0,Russian,,,,,,,,,,,,,,"Scan: AAW, Djvuing, OCR: Dmitry7, 2012",0,,1,,1,1,,1,621617,djvu,f0dd1e2241dfa869dadaffd4614905ac,,,"D:\\Сборники научно-нормативной терминологии\\Выпуск 103 - Термодинамика - Основные понятия, терминология, буквенные обозначения величин (1984) 1.djvu",0,2000-01-01 01:00:00,2016-04-03 02:51:08,854000/f0dd1e2241dfa869dadaffd4614905ac-g.jpg,,
22149536,"Термодинамика - Основные понятия, терминология, буквенные обозначения величин",,Сборник рекомендуемых терминов Выпуск 103,,,1984,,Наука,М.,42,0,Russian,,,,,,,,,,,,,,,0,,1,,1,1,,1,504858,djvu,7f16996f0558c31a5c9cdd3251dfe902,,,"D:\\Сборники научно-нормативной терминологии\\Выпуск 103 - Термодинамика - Основные понятия, терминология, буквенные обозначения величин (1984).djvu",0,2000-01-01 01:00:00,2016-04-03 02:51:08,854000/7f16996f0558c31a5c9cdd3251dfe902-g.jpg,,
22149537,Квантовая теория твердого тела. Терминология.,,Сборник рекомендуемых терминов Выпуск 105,,Ответственный редактор выпуска А.М.Косевич.,1985,,Наука,М.,27,0,Russian,,,,,,,,,,,,,,"Scan: AAW, Djvuing, OCR: Dmitry7, 2012",0,,1,,1,1,,1,301166,djvu,241e4228ff0fe0002327def86eaa081d,,,D:\\Сборники научно-нормативной терминологии\\Выпуск 105 - Квантовая теория твердого тела - Терминология (1985).djvu,0,2000-01-01 01:00:00,2016-04-03 02:51:08,854000/241e4228ff0fe0002327def86eaa081d-g.jpg,,
22149538,Механические колебания. Основные понятия. Терминология. Буквенные обозначения величин.,,Сборник рекомендуемых терминов Выпуск 106,,Ответственный редактор Н.И.Левитский.,1987,,Наука,М.,26,0,Russian,,,,,,,,,,,,,,"Scan, Djvuing, OCR: Dmitry7, 2011-12",0,,1,,1,1,,1,290525,djvu,d70af1ad301e9801cd6a65d453f27a02,,,"D:\\Сборники научно-нормативной терминологии\\Выпуск 106 - Механические колебания - Основные понятия - Терминология, Буквенные обозначения величин (1987).djvu",0,2000-01-01 01:00:00,2016-04-03 02:51:08,854000/d70af1ad301e9801cd6a65d453f27a02-g.jpg,,
22149539,Теория управления. Терминология.,,Сборник рекомендуемых терминов Выпуск 107,,Ответственный редактор Б.Г.Волик.,1988,,Наука,М.,58,0,Russian,,,,5-02-006617-6,,,,,,,,,,"Scan, Djvuing, OCR: Dmitry7, 2011-12",0,,1,,1,1,,1,663668,djvu,665c7a464f914e21b72d32d90f7459bd,,,D:\\Сборники научно-нормативной терминологии\\Выпуск 107 - Теория управления - Терминология (1988).djvu,0,2000-01-01 01:00:00,2016-04-03 02:51:08,854000/665c7a464f914e21b72d32d90f7459bd-g.jpg,,
22149540,Физика атомного ядра и элементарных частиц. Терминология.,,Сборник рекомендуемых терминов Выпуск 110,,Ответственный редактор выпуска A.B.Ефремов.,1989,,Наука,М.,51,0,Russian,264,,,5-02-000703-X,,,,,,,,,,"Scan, Djvuing, OCR: Dmitry7, 2012",0,,1,,1,1,,1,808701,djvu,3fe45c009e992a14e61074c68682b1d9,,,D:\\Сборники научно-нормативной терминологии\\Выпуск 110 - Физика атомного ядра и элементарных частиц - Терминология (1989).djvu,0,2000-01-01 01:00:00,2016-04-03 02:51:08,854000/3fe45c009e992a14e61074c68682b1d9-g.jpg,,
22149541,Органолептические методы оценок пищевых продуктов: Терминология.,,Сборник рекомендуемых терминов Выпуск 111,,Ответственный редактор выпуска Р.В.Головня.,1990,,Наука,М.,40,0,Russian,,,,,,,,,,,,,,"Scan: ???, Formatting: Dmitry7, 2012",0,,1,,1,1,,1,3063091,pdf,c2ebf25660330b118402cc5d42d40beb,,,D:\\Сборники научно-нормативной терминологии\\Выпуск 111 - Органолептические методы оценок пищевых продуктов - Терминология (1990).pdf,0,2000-01-01 01:00:00,2016-04-03 02:51:08,854000/c2ebf25660330b118402cc5d42d40beb-g.jpg,,
22149542,Физика магнетизма и магнитные материалы. Терминология.,,Сборник рекомендуемых терминов Выпуск 113,,Проект. Ответственный редактор Ф.В.Лисовский.,1990,,Наука,М.,130,0,Russian,264,,,,,,,,,,,,,"Scan, Djvuing, OCR: Dmitry7, 2012",0,,1,,1,1,,1,2368302,djvu,dcc30a7e34fd1b0d0645b9b5bb0809fe,,,D:\\Сборники научно-нормативной терминологии\\Выпуск 113 - Физика магнетизма и магнитные материалы - Терминология (1990).djvu,0,2000-01-01 01:00:00,2016-04-03 02:51:08,854000/dcc30a7e34fd1b0d0645b9b5bb0809fe-g.jpg,,
22149543,Робототехника. Терминология.,,Сборник рекомендуемых терминов Выпуск 115,,Ответственный редактор выпуска Е.П.Попов.,2000,,Российская Академия наук,М.,49,0,Russian,,,,5-901158-05-9,,,,,,,,,,"Scan, Djvuing, OCR: Dmitry7, 2012",0,,1,,1,1,,1,1115373,djvu,5ad776e6e3be81bb50ac82d90b6fc1e6,,,D:\\Сборники научно-нормативной терминологии\\Выпуск 115 - Робототехника - Терминология (2000).djvu,0,2000-01-01 01:00:00,2016-04-03 02:51:08,854000/5ad776e6e3be81bb50ac82d90b6fc1e6-g.jpg,,
22149544,Гироскопия. Терминология.,,Сборник рекомендуемых терминов Выпуск 118,,Ответственный редактор выпуска И.В.Новожилов.,1994,,Российская Академия наук,М.,40,0,Russian,,,,,,,,,,,,,,"Scan, Djvuing, OCR: Dmitry7, 2011-12",0,,1,,1,1,,1,832836,djvu,58c79bab41f6a0b94651b8ac09e40c98,,,D:\\Сборники научно-нормативной терминологии\\Выпуск 118 - Гироскопия - Терминология (1994).djvu,0,2000-01-01 01:00:00,2016-04-03 02:51:08,854000/58c79bab41f6a0b94651b8ac09e40c98-g.jpg,,
22149545,Современные проблемы терминологии в науке и технике,,Сборник рекомендуемых терминов,,Кулебакин В. С. (ред.),1969,,,,162,0,Russian,,,,,,,,,,,,,,,0,,1,,1,1,,1,3649235,djvu,c8022462a92141456e7948a44b361c1a,,,D:\\Сборники научно-нормативной терминологии\\Кулебакин В.С. (ред.) - Современные проблемы терминологии в науке и технике - 1969.djvu,0,2000-01-01 01:00:00,2016-04-03 02:51:08,854000/c8022462a92141456e7948a44b361c1a-g.jpg,,
22149546,Краткие формы научно-технических терминов,,Сборник рекомендуемых терминов,,Лотте Д.С.,1971,,,,86,0,Russian,,,,,,,,,,,,,,,0,,1,,1,1,,1,2985974,djvu,f61fc53101477a1df28ff2db47bc3dcd,,,D:\\Сборники научно-нормативной терминологии\\Лотте Д.С. - Краткие формы научно-технических терминов - 1971.djvu,0,2000-01-01 01:00:00,2016-04-03 02:51:08,854000/f61fc53101477a1df28ff2db47bc3dcd-g.jpg,,
22149547,Образование и правописание трехэлементных научно-технических терминов,,Сборник рекомендуемых терминов,,Лотте Д.С.,1969,,,,122,0,Russian,,,,,,,,,,,,,,,0,,1,,1,1,,1,2361761,djvu,b7a60396e89a8330a450d27a5a78fa6c,,,D:\\Сборники научно-нормативной терминологии\\Лотте Д.С. - Образование и правописание трехэлементных научно-технических терминов - 1969.djvu,0,2000-01-01 01:00:00,2016-04-03 02:51:08,854000/b7a60396e89a8330a450d27a5a78fa6c-g.jpg,,
22149548,Англо-русские патентные термины.,,Тетради новых терминов Выпуск 002,,"Составители В.С.Попов, Л.А.Горник, A.M.Школьник, И.М.Агранов, С.Д.Руденко. Под общей редакцией И.П.Смирнова.",1971,,Всероссийский центр переводов,М.,110,0,Russian,,,,,,,,,,,,,,"Scan: AAW, Formatting: Dmitry7, 2012",0,,1,,1,1,,1,2599310,djvu,01941c917d3d5432a1a5bc3a0388eb8b,,,D:\\Тетради новых терминов\\Выпуск 002 - Англо-русские патентные термины (сост. Попов В.С. и др.) (Тетради новых терминов) - 1971.djvu,0,2000-01-01 01:00:00,2016-04-03 02:51:08,854000/01941c917d3d5432a1a5bc3a0388eb8b-g.jpg,,
22149549,Англо-русские патентные термины.,,Тетради новых терминов Выпуск 002,,"Составители В.С.Попов, Л.А.Горник, A.M.Школьник, И.М.Агранов, С.Д.Руденко. Под общей редакцией И.П.Смирнова.",1971,,Всероссийский центр переводов,М.,110,0,Russian,,,,,,,,,,,,,,"Scan: AAW, Formatting: Dmitry7, 2012",0,,1,,1,1,,1,8087248,pdf,b586462ada8769834180a5b2f78eb5e1,,,D:\\Тетради новых терминов\\Выпуск 002 - Англо-русские патентные термины (сост. Попов В.С. и др.) (Тетради новых терминов) - 1971.pdf,0,2000-01-01 01:00:00,2016-04-03 02:51:08,854000/b586462ada8769834180a5b2f78eb5e1-g.jpg,,
22149550,Англо-русские термины по сточным водам.,,Тетради новых терминов Выпуск 004,,"Составители И.П.Смирнов, Н.К.Слепова, М.Ф.Шиллер. Ответственный редактор И.П.Смирнов.",1973,,Всероссийский центр переводов,М.,103,0,Russian,,,,,,,,,,,,,,"Scan: AAW, Formatting: Dmitry7, 2012",0,,1,,1,1,,1,2195709,djvu,0fb7fb819bc3a9113da73412c6943a19,,,"D:\\Тетради новых терминов\\Выпуск 004 - Англо-Русские термины по сточным водам (cост. Смирнов И.П., Слепова Н.К., Шиллер М.Ф.) (Тетради новых терминов) - 1973.djvu",0,2000-01-01 01:00:00,2016-04-03 02:51:08,854000/0fb7fb819bc3a9113da73412c6943a19-g.jpg,,
22149551,Англо-русские термины по сточным водам.,,Тетради новых терминов Выпуск 004,,"Составители И.П.Смирнов, Н.К.Слепова, М.Ф.Шиллер. Ответственный редактор И.П.Смирнов.",1973,,Всероссийский центр переводов,М.,103,0,Russian,,,,,,,,,,,,,,"Scan: AAW, Formatting: Dmitry7, 2012",0,,1,,1,1,,1,8575290,pdf,f8f7871fa9ce67d75dfda8caeb596dda,,,"D:\\Тетради новых терминов\\Выпуск 004 - Англо-Русские термины по сточным водам (cост. Смирнов И.П., Слепова Н.К., Шиллер М.Ф.) (Тетради новых терминов) - 1973.pdf",0,2000-01-01 01:00:00,2016-04-03 02:51:08,854000/f8f7871fa9ce67d75dfda8caeb596dda-g.jpg,,
22149552,Англо-русские термины по статистике. Часть I (А-О).,,Тетради новых терминов Выпуск 008,,Составитель Э.Н.Островский. Под редакцией Б.Т.Рябушкина. Ответственный редактор И.П.Смирнов.,1975,,Всесоюзный центр переводов,М.,185,0,Russian,,,,,,,,,,,,,,"Scan, Formatting: niccolo, 2012",0,,1,,1,1,,1,14980911,pdf,a1094923bb51bd9a6addeaef9d9eb3ed,,,D:\\Тетради новых терминов\\Выпуск 008 - Англо-русские термины по статистике (в 2-х частях) (сост. Островский Э.Н.) (Тетради новых терминов) - 1975.pdf,0,2000-01-01 01:00:00,2016-04-03 02:51:08,854000/a1094923bb51bd9a6addeaef9d9eb3ed-g.jpg,,
22149553,"Французско-русские патентные термины (Издание второе, исправленное и дополненное).",,Тетради новых терминов Выпуск 009,,"Составители: Л.А.Горник, С.И.Симановский, Т.В.Донковская. Под редакцией Л.А.Горника.",1975,,Всесоюзный центр переводов,М.,95,0,Russian,,,,,,,,,,,,,,"Scan, Formatting: niccolo, 2012",0,,1,,1,1,,1,6311816,pdf,7f9678123f960d2f19020f1d2e307a93,,,D:\\Тетради новых терминов\\Выпуск 009 - Французско-русские патентные термины (сост. Горник Л.А. и др) (Тетради новых терминов) - 1975.pdf,0,2000-01-01 01:00:00,2016-04-03 02:51:08,854000/7f9678123f960d2f19020f1d2e307a93-g.jpg,,
22149554,Англо-русские термины по процессам и аппаратам химической технологии.,,Тетради новых терминов Выпуск 010,,"Составители Т.А.Сильванская, И.П.Барановская, И.Я.Сухарева-Шпетнер, И.Э.Базарова, Л.М.Осадчая, Р.В.Кантор. Под редакцией А.Г.Вишняка.",1976,,Всесоюзный центр переводов,М.,68,0,Russian,314,,,,,,,,,,,,,"Scan, Formatting: niccolo, 2012",0,,1,,1,1,,1,3744098,pdf,b04c162379a86fed203f2295e6f6c8d8,,,D:\\Тетради новых терминов\\Выпуск 010 - Англо-русские термины по процессам и аппаратам химической технологии (сост. Сильванская Т.А. и др) (Тетради новых терминов) - 1976.pdf,0,2000-01-01 01:00:00,2016-04-03 02:51:08,854000/b04c162379a86fed203f2295e6f6c8d8-g.jpg,,
22149555,Англо-русские теплины по подводному бурению.,,Тетради новых терминов Выпуск 011,,"Составители А.О.Курганов, Э.О.Курганов, Ю.А.Агагусейнов. Под редакцией А.А.Мовоумова, Д.Е.Столярова.",1976,,Всесоюзный центр переводов,М.,243,0,Russian,,,,,,,,,,,,,,"Scan, Formatting: niccolo, 2012",0,,1,,1,1,,1,695340,pdf,e750ca3c0da424570ad72645ef23ed8a,,,"D:\\Тетради новых терминов\\Выпуск 011 - Англо-русские термины по подводному бурению (сост. Курбанов А.О., Курбанов Э.О., Агагусейнов Ю.А.) (Тетради новых терминов) - 1976 (2).pdf",0,2000-01-01 01:00:00,2016-04-03 02:51:08,854000/e750ca3c0da424570ad72645ef23ed8a-g.jpg,,
22149556,Англо-русские теплины по подводному бурению.,,Тетради новых терминов Выпуск 011,,"Составители А.О.Курганов, Э.О.Курганов, Ю.А.Агагусейнов. Под редакцией А.А.Мовоумова, Д.Е.Столярова.",1976,,Всесоюзный центр переводов,М.,183,0,Russian,,,,,,,,,,,,,,"Scan, Formatting: niccolo, 2012",0,,1,,1,1,,1,6757039,pdf,2d4f70de310ef5c0cd1810df49e257a7,,,"D:\\Тетради новых терминов\\Выпуск 011 - Англо-русские термины по подводному бурению (сост. Курбанов А.О., Курбанов Э.О., Агагусейнов Ю.А.) (Тетради новых терминов) - 1976.pdf",0,2000-01-01 01:00:00,2016-04-03 02:51:08,854000/2d4f70de310ef5c0cd1810df49e257a7-g.jpg,,
22149557,Французско-русские термины по экономике.,,Тетради новых терминов Выпуск 015,,"Составители И.И.Литвина, Ф.Р.Окунева. Под редакцией П.В.Юркова.",1977,,Всесоюзный центр переводов,М.,224,0,Russian,305,,,,,,,,,,,,,"Scan, Formatting: niccolo, 2012",0,,1,,1,1,,1,10604827,pdf,f639a188e63b9e6cea2c405ffd17ca4d,,,"D:\\Тетради новых терминов\\Выпуск 015 - Французско-русские термины по экономике (сост. Литвина И.И., Окунева Ф.Р.) (Тетради новых терминов) - 1977.pdf",0,2000-01-01 01:00:00,2016-04-03 02:51:08,854000/f639a188e63b9e6cea2c405ffd17ca4d-g.jpg,,
22149558,Русско-английские термины по программе эпас.,,Тетради новых терминов Выпуск 020,,"Составители В.А.Яценко, Г.А.Рыков, Б.П.Артемов. Под редакцией Ю.А.Ярошевского, И.И.Убина. Ответственный редактор И.П.Смирнов.",1978,,Всесоюзный центр переводов,М.,245,0,Russian,316,,,,,,,,,,,,,"Scan, Formatting: niccolo, 2012",0,,1,,1,1,,1,12865104,pdf,6a816a38e8885de730d1b42f48e4e485,,,"D:\\Тетради новых терминов\\Выпуск 020 - Русско-английские термины по программе ЭПАС (сост. Яценко В.А., Рыков Г.А., Артемов Б.П.) (Тетради новых терминов) - 1978.pdf",0,2000-01-01 01:00:00,2016-04-03 02:51:08,854000/6a816a38e8885de730d1b42f48e4e485-g.jpg,,
22149559,Англо-русские термины по разработке морских нефтяных и газовых месторождений.,,Тетради новых терминов Выпуск 021,,"Составители А.А.Мовсумов, А.О.Курбанов, Э.О.Курбанов. Под редакцией Д.Е.Столярова. Ответственный редактор И.П.Смирнов.",1979,,Всесоюзный центр переводов,М.,74,0,Russian,225,,,,,,,,,,,,,"Scan, Formatting: niccolo, 2012",0,,1,,1,1,,1,4196554,pdf,330a1eff1cca9cbb8b8006133664308a,,,"D:\\Тетради новых терминов\\Выпуск 021 - Англо-русские термины по разработке морских нефтяных и газовых месторождений (сост. Мовсумов А.А., Курбанов А.О., Курбанов Э.О.) (Тетради новых терминов) - 1979.pdf",0,2000-01-01 01:00:00,2016-04-03 02:51:08,854000/330a1eff1cca9cbb8b8006133664308a-g.jpg,,
22149560,Англо-французско-русские термины по автоматизированным системам управлениям.,,Тетради новых терминов Выпуск 022,,"Составители А.А.Кривцова, А.Г.Потапова, М.С.Яроцкий. Под редакцией Г.Д.Рахманина.",1979,,Всесоюзный центр переводов,М.,309,0,Russian,,,,,,,,,,,,,,"Scan, Formatting: niccolo, 2012",0,,1,,1,1,,1,16301132,pdf,6071edd9382a3712f60b084e993284c0,,,"D:\\Тетради новых терминов\\Выпуск 022 - Англо-французско-русские термины по автоматизированным системам управления (сост. Кривцова А.А., Потапова А.Г., Яроцкий М.С.) (Тетради новых терминов) - 1979.pdf",0,2000-01-01 01:00:00,2016-04-03 02:51:08,854000/6071edd9382a3712f60b084e993284c0-g.jpg,,
22149561,Англо-русские термины по металлорежущим станкам и металлообработке.,,Тетради новых терминов Выпуск 026,,Составитель Б.С.Воскобойников. Под редакцией В.В.Шварца. Ответственный редактор И.П.Смирнов.,1980,,Всесоюзный центр переводов,М.,213,0,Russian,,,,,,,,,,,,,,"Scan, Formatting: niccolo, 2012",0,,1,,1,1,,1,11236268,pdf,2b1e69e4d9267235a14139942f67aab3,,,D:\\Тетради новых терминов\\Выпуск 026 - Англо-русские термины по металлорежущим станкам и металлообработке (сост. Воскобойников Б.С.) (Тетради новых терминов) - 1980.pdf,0,2000-01-01 01:00:00,2016-04-03 02:51:08,854000/2b1e69e4d9267235a14139942f67aab3-g.jpg,,
22149562,Англо-русские термины по получению искусственных горючих газов.,,Тетради новых терминов Выпуск 034,,"Составители: А.Д.Давыдов, М.М.Мельникова. Под редакцией В.В.Лосева. Ответственный редактор И.П.Смирнов.",1981,,Всесоюзный центр переводов,М.,177,0,Russian,,,,,,,,,,,,,,"Scan, Formatting: niccolo, 2012",0,,1,,1,1,,1,12211035,pdf,e8e593f7938422f6c98fc8d97e0ee063,,,"D:\\Тетради новых терминов\\Выпуск 034 - Англо-русские термины по электрохимической обработке металлов (сост. Давыдов А.Д., Мельникова М.М.) (Тетради новых терминов) - 1981.pdf",0,2000-01-01 01:00:00,2016-04-03 02:51:08,854000/e8e593f7938422f6c98fc8d97e0ee063-g.jpg,,
22149563,Англо-русские термины по получению искусственных горючих газов.,,Тетради новых терминов Выпуск 035,,Составитель Т.М.Пьянкова. Под редакцией К.Н.Звягинцева. Ответственный редактор И.П.Смирнов.,1981,,Всесоюзный центр переводов,М.,277,0,Russian,,,,,,,,,,,,,,"Scan, Formatting: niccolo, 2012",0,,1,,1,1,,1,16397395,pdf,301adf8af481dcb8a39684bed230abf4,,,D:\\Тетради новых терминов\\Выпуск 035 - Англо-русские термины по получению искусственных горючих газов (сост. Пьянкова Т.М.) (Тетради новых терминов) - 1981.pdf,0,2000-01-01 01:00:00,2016-04-03 02:51:08,854000/301adf8af481dcb8a39684bed230abf4-g.jpg,,
22149564,Англо-русские термины по лесной и деревообрабатывающей промышленности.,,Тетради новых терминов Выпуск 038,,Составитель Г.С.Ярёма. Под редакцией Н.К.Якунина. Ответственный редактор И.И.Убин.,1981,,Всесоюзный центр переводов,М.,216,0,Russian,,,,,,,,,,,,,,"Scan, Formatting: niccolo, 2012",0,,1,,1,1,,1,15387690,pdf,ab592ccfcce9d550132f8b95e5d26237,,,D:\\Тетради новых терминов\\Выпуск 038 - Англо-русские термины по лесной и деревообрабатывающей промышленности (сост. Ярема Г.С.) (Тетради новых терминов) - 1981.pdf,0,2000-01-01 01:00:00,2016-04-03 02:51:08,854000/ab592ccfcce9d550132f8b95e5d26237-g.jpg,,
22149565,Англо-русские термины по проводной и дальней связи.,,Тетради новых терминов Выпуск 045,,"Составители В.Н.Гритченко, Ю.Г.Розмахов. Под редакцией А.И.Куштуева. Ответственный редактор И.И.Убин.",1983,,Всесоюзный центр переводов,М.,363,0,Russian,,,,,,,,,,,,,,"Scan, Formatting: niccolo, 2012",0,,1,,1,1,,1,18879033,pdf,294ecb97565dd54ecdb5048903e5e489,,,"D:\\Тетради новых терминов\\Выпуск 045 - Англо-русские термины по проводной и дальней связи (сост. Гритченко В.Н., Розмахов Ю.Г.) (Тетради новых терминов) - 1983.pdf",0,2000-01-01 01:00:00,2016-04-03 02:51:08,854000/294ecb97565dd54ecdb5048903e5e489-g.jpg,,
22149566,Англо-русские термины по технологии производства радиоэлектронной аппаратуры.,,Тетради новых терминов Выпуск 047,,Составитель Н.М.Голуб. Под редакцией А.Б.Тартаковского. Ответственный редактор И.И.Убин.,1983,,Всесоюзный центр переводов,М.,201,0,Russian,250,,,,,,,,,,,,,"Scan, Formatting: niccolo, 2012",0,,1,,1,1,,1,12355017,pdf,14e2ab67cb6333111709dee666c813bb,,,D:\\Тетради новых терминов\\Выпуск 047 - Англо-русские термины по технологии производства радиоэлектронной аппаратуры (сост. Голуб Н.М.) (Тетради новых терминов) - 1983.pdf,0,2000-01-01 01:00:00,2016-04-03 02:51:08,854000/14e2ab67cb6333111709dee666c813bb-g.jpg,,
22149567,Англо-русские термины по сварке.,,Тетради новых терминов Выпуск 048,,Составитель А.Б.Парневский. Под редакцией П.Г.Кочеткова. Ответственный редактор И.И.Убин.,1983,,Всесоюзный центр переводов,М.,169,0,Russian,,,,,,,,,,,,,,"Scan, Formatting: niccolo, 2012",0,,1,,1,1,,1,11012767,pdf,aba86e05816355b53fe5185c299da109,,,D:\\Тетради новых терминов\\Выпуск 048 - Англо-русские термины по сварке (сост. Парцевский А.Б.) (Тетради новых терминов) - 1983.pdf,0,2000-01-01 01:00:00,2016-04-03 02:51:08,854000/aba86e05816355b53fe5185c299da109-g.jpg,,
22149568,Англо-русские термины по программному управлению металлорежущим оборудованием.,,Тетради новых терминов Выпуск 050,,Составитель B.C.Воскобойников. Под редакцией А.С.Чубукова. Ответственный редактор И.И.Убин.,1983,,Всесоюзный центр переводов,М.,125,0,Russian,,,,,,,,,,,,,,"Scan, Formatting: niccolo, 2012",0,,1,,1,1,,1,11440909,pdf,a02f8357b3178a901863620128333da8,,,D:\\Тетради новых терминов\\Выпуск 050 - Англо-русские термины по программному управлению металлорежущим оборудованием (сост. Воскобойников Б.С.) (Тетради новых терминов) - 1983.pdf,0,2000-01-01 01:00:00,2016-04-03 02:51:08,854000/a02f8357b3178a901863620128333da8-g.jpg,,
22149569,Англо-русские термины по механике разрушения.,,Тетради новых терминов Выпуск 051,,"Составитель Н.Д.Решетов. Под редакцией Н.А.Махутова, В.М.Тарасова. Ответственный редактор И.И.Убин.",1983,,Всесоюзный центр переводов,М.,132,0,Russian,,,,,,,,,,,,,,"Scan, Formatting: niccolo, 2012",0,,1,,1,1,,1,11608841,pdf,58772825b72382f75e04c7feef29f56f,,,D:\\Тетради новых терминов\\Выпуск 051 - Англо-русские термины по механике разрушения (сост. Решетов Н.Л.) (Тетради новых терминов) - 1983.pdf,0,2000-01-01 01:00:00,2016-04-03 02:51:08,854000/58772825b72382f75e04c7feef29f56f-g.jpg,,
22149570,Англо-русские термины по акустике.,,Тетради новых терминов Выпуск 052,,"Составители: Б.М.Лапинский, Л.М.Зозуля, С.Г.Кияк, А.М.Пеленская, А.Л.Шайкевич. Под редакцией Г.В.Пляцко. Ответственный редактор И.И.Убин.",1983,,Всесоюзный центр переводов,М.,97,0,Russian,,,,,,,,,,,,,,"Scan, Formatting: niccolo, 2012",0,,1,,1,1,,1,6818786,pdf,e52deaa9bd6bb58fc743336b3ac3f594,,,D:\\Тетради новых терминов\\Выпуск 052 - Англо-русские термины по акустике (сост. Лапинский Б.М. и др) (Тетради новых терминов) - 1983.pdf,0,2000-01-01 01:00:00,2016-04-03 02:51:08,854000/e52deaa9bd6bb58fc743336b3ac3f594-g.jpg,,
22149571,Русско-французские термины по ремонтно-эсплуатационной документации и технике безопасности.,,Тетради новых терминов Выпуск 053,,Составитель В.А.Цареградский. Под редакцией А.М.Крюкова. Ответственный редактор И.И.Убин.,1983,,Всесоюзный центр переводов,М.,45,0,Russian,,,,,,,,,,,,,,"Scan, Formatting: niccolo, 2012",0,,1,,1,1,,1,3243609,pdf,880bb1f68ffe1776be89633f4fbfed87,,,D:\\Тетради новых терминов\\Выпуск 053 - Русско-французские термины по ремонтно-эксплуатационной документации и технике безопасности (сост. Цареградский В.А.) (Тетради новых терминов) - 1983.pdf,0,2000-01-01 01:00:00,2016-04-03 02:51:08,854000/880bb1f68ffe1776be89633f4fbfed87-g.jpg,,
22149572,Англо-русские термины по гироскопическим приборам.,,Тетради новых терминов Выпуск 054,,Составитель С.Н.Карпенко. Под редакцией Ю.В.Ходырева. Ответственный редактор И.И.Убин.,1983,,Всесоюзный центр переводов,М.,114,0,Russian,,,,,,,,,,,,,,"Scan: AAW, Formatting: Dmitry7, niccolo, 2012",0,,1,,1,1,,1,6082764,djvu,dde811b6a77df62a13271cd84f7f95e3,,,D:\\Тетради новых терминов\\Выпуск 054 - Англо-русские термины по гироскопическим приборам (сост. Карпенко С.М.) (Тетради новых терминов) - 1983.djvu,0,2000-01-01 01:00:00,2016-04-03 02:51:08,854000/dde811b6a77df62a13271cd84f7f95e3-g.jpg,,
22149573,Англо-русские термины по гироскопическим приборам.,,Тетради новых терминов Выпуск 054,,Составитель С.Н.Карпенко. Под редакцией Ю.В.Ходырева. Ответственный редактор И.И.Убин.,1983,,Всесоюзный центр переводов,М.,114,0,Russian,,,,,,,,,,,,,,"Scan: AAW, Formatting: Dmitry7, niccolo, 2012",0,,1,,1,1,,1,6506821,pdf,915b5333d7d6a9182c6680c87c23c21b,,,D:\\Тетради новых терминов\\Выпуск 054 - Англо-русские термины по гироскопическим приборам (сост. Карпенко С.Н.) (Тетради новых терминов) - 1983.pdf,0,2000-01-01 01:00:00,2016-04-03 02:51:08,854000/915b5333d7d6a9182c6680c87c23c21b-g.jpg,,
22149574,Англо-русские термины по геологии.,,Тетради новых терминов Выпуск 059,,"Составители Г.И.Денисова, И.Е.Медведева. Под редакцией B.C.Лучко. Ответственный редактор И.И.Убин.",1984,,Всесоюзный центр переводов,М.,49,0,Russian,,,,,,,,,,,,,,"Scan, Formatting: niccolo, 2012",0,,1,,1,1,,1,4256901,pdf,19d573a284b42d35cb064a4d46b562cf,,,"D:\\Тетради новых терминов\\Выпуск 059 - Англо-русские термины по геологии (сост. Денисова Г.И., Медведева И.Е.) (Тетради новых терминов) - 1984.pdf",0,2000-01-01 01:00:00,2016-04-03 02:51:08,854000/19d573a284b42d35cb064a4d46b562cf-g.jpg,,
22149575,Англо-русские термины по аэрокосмической технике.,,Тетради новых терминов Выпуск 077,,"Составители: Т.П.Ампилова, А.Н.Чепак. Под редакцией Б.М.Абрамова. Ответственный редактор И.И.Убин.",1985,,Всесоюзный центр переводов,М.,85,0,Russian,,,,,,,,,,,,,,"Scan, Formatting: niccolo, 2012",0,,1,,1,1,,1,5164310,pdf,6f28929d88471d25557e7f3856b0f243,,,"D:\\Тетради новых терминов\\Выпуск 077 - Англо-русские термины по аэрокосмической технике (сост. Ампилова Т.П., Чепак А.Н.) (Тетради новых терминов) - 1985.pdf",0,2000-01-01 01:00:00,2016-04-03 02:51:08,854000/6f28929d88471d25557e7f3856b0f243-g.jpg,,
22149576,Англо-русские термины по общей энергетике.,,Тетради новых терминов Выпуск 078,,"Сос. А.М.Белостоцкий. Ред. Убин И.И., Овчинникова Г.И.",1985,,Всесоюзный центр переводов,М.,100,0,Russian,262,,,,,,,,,,,,,"Scan, Formatting: niccolo, 2012",0,,1,,1,1,,1,6496568,pdf,d0192e3bc802ccf1f308f548b68bc742,,,D:\\Тетради новых терминов\\Выпуск 078 - Англо-русские термины по общей энергетике (сост. Белостоцкий А.М.) (Тетради новых терминов) - 1985.pdf,0,2000-01-01 01:00:00,2016-04-03 02:51:08,854000/d0192e3bc802ccf1f308f548b68bc742-g.jpg,,
22149577,Англо-русские термины по устройствам ЧПУ и оборудованию гибких производственных систем.,,Тетради новых терминов Выпуск 081,,Составитель А.С.Чубуков. Под редакцией B.C.Воскобойникова. Ответственный редактор И.И.Убин.,1985,,Всесоюзный центр переводов,М.,125,0,Russian,,,,,,,,,,,,,,"Scan, Formatting: niccolo, 2012",0,,1,,1,1,,1,9245385,pdf,5f0617ac7a230d4642ab4e62c4b09f79,,,D:\\Тетради новых терминов\\Выпуск 081 - Англо-русские термины по устройству ЧПУ и оборудованию гибких производственных систем (сост. Чубуков А.С.) (Тетради новых терминов) - 1985.pdf,0,2000-01-01 01:00:00,2016-04-03 02:51:08,854000/5f0617ac7a230d4642ab4e62c4b09f79-g.jpg,,
22149578,Англо-русские термины по химии и технологии высокомолекулярных соединений.,,Тетради новых терминов Выпуск 082,,"Составители Т.Г.Мурзабекова, Г.М.Черкасова. Под редакцией В.М.Фролова. Ответственный редактор И.И.Убин.",1985,,Всесоюзный центр переводов,М.,101,0,Russian,314,,,,,,,,,,,,,"Scan, Formatting: niccolo, 2012",0,,1,,1,1,,1,6476831,pdf,dd1095be3b5363e9773cfcaa8a27fd3d,,,"D:\\Тетради новых терминов\\Выпуск 082 - Англо-русские термины по химии и технологии высокомолекулярных соединений (сост. Мурзабекова Т.Г., Черкасова Г.М.) (Тетради новых терминов) - 1985.pdf",0,2000-01-01 01:00:00,2016-04-03 02:51:08,854000/dd1095be3b5363e9773cfcaa8a27fd3d-g.jpg,,
22149579,Французско-русские термины по физике и технике реакторов.,,Тетради новых терминов Выпуск 086,,Составитель Н.Д.Волкова. Под редакцией Д.М.Петрушна. Ответственный редактор И.И.Убин.,1985,,Всесоюзный центр переводов,М.,53,0,Russian,,,,,,,,,,,,,,"Scan, Formatting: niccolo, 2012",0,,1,,1,1,,1,4313631,pdf,d7ace8d56472f959bb36d53cd9884267,,,D:\\Тетради новых терминов\\Выпуск 086 - Французско-русские термины по физике и технике реакторов (сост. Волкова Н.Л.) (Тетради новых терминов) - 1985.pdf,0,2000-01-01 01:00:00,2016-04-03 02:51:08,854000/d7ace8d56472f959bb36d53cd9884267-g.jpg,,
22149580,Англо-русские термины по организации и управлению производством.,,Тетради новых терминов Выпуск 088,,"Составители Л.Б.Ткачева, А.И.Ковалев, Е.А.Алексеева, В.А.Зубакин. Под редакцией А.Е.Копылова. Ответственный редактор И.И.Убин.",1986,,Всесоюзный центр переводов,М.,101,0,Russian,,,,,,,,,,,,,,"Scan, Formatting: niccolo, 2012",0,,1,,1,1,,1,7270695,pdf,b45a416d7875125b3b50b5b81b9002af,,,D:\\Тетради новых терминов\\Выпуск 088 - Англо-русские термины по организации и управлению производством (сост. Ткачева Л.Б. и др) (Тетради новых терминов) - 1986.pdf,0,2000-01-01 01:00:00,2016-04-03 02:51:08,854000/b45a416d7875125b3b50b5b81b9002af-g.jpg,,
22149581,Англо-русские термины по радиолокации.,,Тетради новых терминов Выпуск 096,,"Составители Е.В.Киселева, Ю.П.Коновалов. Под редакцией А.Р.Назарова. Ответственный редактор И.И.Убин.",1986,,Всесоюзный центр переводов,М.,57,0,Russian,250,,,,,,,,,,,,,"Scan, Formatting: niccolo, 2012",0,,1,,1,1,,1,3637492,pdf,9140989f0fa21e8d565b28143af9f552,,,"D:\\Тетради новых терминов\\Выпуск 096 - Англо-русские термины по радиолокации (сост. Киселева Е.В., Коновалов Ю.П.) (Тетради новых терминов) - 1986.pdf",0,2000-01-01 01:00:00,2016-04-03 02:51:08,854000/9140989f0fa21e8d565b28143af9f552-g.jpg,,
22149582,Французско-русские термины по металлургии.,,Тетради новых терминов Выпуск 097,,"Составители В.М.Лейчик, Л.Ф.Калиночкина, Г.М.Хартова. Под редакцией М.Н.Дорохиной. Ответственный редактор И.И.Убин.",1986,,Всесоюзный центр переводов,М.,81,0,Russian,,,,,,,,,,,,,,"Scan, Formatting: niccolo, 2012",0,,1,,1,1,,1,5414364,pdf,852ac40979ed5b981749cc94e6a05adb,,,"D:\\Тетради новых терминов\\Выпуск 097 - Французско-русские термины по металлургии (сост. Лейчик В.М., Калиночкина Л.Ф., Хартова Г.М.) (Тетради новых терминов) - 1986.pdf",0,2000-01-01 01:00:00,2016-04-03 02:51:08,854000/852ac40979ed5b981749cc94e6a05adb-g.jpg,,
22149583,Русско-англо-немецко-французские термины цветообозначения.,,Тетради новых терминов Выпуск 098,,Составитель А.П.Василевич. Под редакцией А.Д.Швейцера. Ответственный редактор И.И.Убин.,1986,,Всесоюзный центр переводов,М.,110,0,Russian,322,,,,,,,,,,,,,"Scan: AAW, Formatting: Dmitry7, niccolo, 2012",0,,1,,1,1,,1,2975775,djvu,a6f8907f8dae216c5344ef01a99282a6,,,D:\\Тетради новых терминов\\Выпуск 098 - Русско-англо-немецко-французские термины цветообозначения (сост. Василевич А.П.) (Тетради новых терминов) - 1986.djvu,0,2000-01-01 01:00:00,2016-04-03 02:51:08,854000/a6f8907f8dae216c5344ef01a99282a6-g.jpg,,
22149584,Русско-англо-немецко-французские термины цветообозначения.,,Тетради новых терминов Выпуск 098,,Составитель А.П.Василевич. Под редакцией А.Д.Швейцера. Ответственный редактор И.И.Убин.,1986,,Всесоюзный центр переводов,М.,110,0,Russian,322,,,,,,,,,,,,,"Scan: AAW, Formatting: Dmitry7, niccolo, 2012",0,,1,,1,1,,1,8190986,pdf,76e25a19e89362dc1da3c86b278f5912,,,D:\\Тетради новых терминов\\Выпуск 098 - Русско-англо-немецко-французские термины цветообозначения (сост. Василевич А.П.) (Тетради новых терминов) - 1986.pdf,0,2000-01-01 01:00:00,2016-04-03 02:51:08,854000/76e25a19e89362dc1da3c86b278f5912-g.jpg,,
22149585,Англо-русские термины по лазерной технологии.,,Тетради новых терминов Выпуск 103,,"Составители Б.М.Лапинский, Е.М.Биргер, С.Г.Кияк, А.М.Лапинский, Л.М.Зозуляк, Г.П.Завадка. Под редакцией Г.В.Пляцко. Ответственный редактор И.И.Убин.",1987,,Всесоюзный центр переводов,М.,101,0,Russian,,,,,,,,,,,,,,"Scan, Formatting: niccolo, 2012",0,,1,,1,1,,1,7295533,pdf,b0b4e0f1b8ce32cfead4d559b83bf2ee,,,D:\\Тетради новых терминов\\Выпуск 103 - Англо-русские термины по лазерной технологии (сост. Лапинский Б.М. и др) (Тетради новых терминов) - 1987.pdf,0,2000-01-01 01:00:00,2016-04-03 02:51:08,854000/b0b4e0f1b8ce32cfead4d559b83bf2ee-g.jpg,,
22149586,Англо-русские термины по системам распознавания образов.,,Тетради новых терминов Выпуск 109,,Составитель Р.Н.Зуев. Под редакцией Г.В.Толкачева. Ответственный редактор И.И.Убин.,1987,,Всесоюзный центр переводов,М.,84,0,Russian,,,,,,,,,,,,,,"Scan, Formatting: niccolo, 2012",0,,1,,1,1,,1,6061150,pdf,e2c8cc7fa6627cc9e241218ac4f38d9f,,,D:\\Тетради новых терминов\\Выпуск 109 - Англо-русские термины по репрографии (сост. Зуев Р.Н.) (Тетради новых терминов) - 1987.pdf,0,2000-01-01 01:00:00,2016-04-03 02:51:08,854000/e2c8cc7fa6627cc9e241218ac4f38d9f-g.jpg,,
22149587,Англо-русские общетехнические термины.,,Тетради новых терминов Выпуск 116,,Составитель А.Л.Семенов. Под редакцией А.Я.Шайкевича. Ответственный редактор И.И.Убин.,1987,,Всесоюзный центр переводов,М.,45,0,Russian,,,,,,,,,,,,,,"Scan, Formatting: niccolo, 2012",0,,1,,1,1,,1,3028140,pdf,e0b30ececa4088ffe11d79276430c925,,,D:\\Тетради новых терминов\\Выпуск 116 - Англо-русские общетехнические термины (сост. Семенов А.Л.) (Тетради новых терминов) - 1987.pdf,0,2000-01-01 01:00:00,2016-04-03 02:51:08,854000/e0b30ececa4088ffe11d79276430c925-g.jpg,,
22149588,Англо-русские термины по системам распознавания образов.,,Тетради новых терминов Выпуск 117,,Составитель Н.Г.Гуревич. Под редакцией И.Б.Гуревкча. Ответственный редактор И.И.Убин.,1987,,Всесоюзный центр переводов,М.,80,0,Russian,,,,,,,,,,,,,,"Scan, Formatting: niccolo, 2012",0,,1,,1,1,,1,5548655,pdf,da13f4183877a52d257c9213a42ae91f,,,D:\\Тетради новых терминов\\Выпуск 117 - Англо-русские термины по системам распознавания образов (сост. Гуревич Н.Г.) (Тетради новых терминов) - 1987.pdf,0,2000-01-01 01:00:00,2016-04-03 02:51:08,854000/da13f4183877a52d257c9213a42ae91f-g.jpg,,
22149589,Англо-русские термины по методам добычи ископаемых.,,Тетради новых терминов Выпуск 119,,Составитель А.Н.Марченко. Под редакцией О.В.Михеева. Ответственный редактор И.И.Убин.,1988,,Всесоюзный центр переводов,М.,67,0,Russian,,,,,,,,,,,,,,"Scan, Formatting: niccolo, 2012",0,,1,,1,1,,1,4496867,pdf,8b2d118c80af1744ced2b6e55ef9978b,,,D:\\Тетради новых терминов\\Выпуск 119 - Англо-русские термины по методам добычи ископаемых (сост. Марченко А.Н.) (Тетради новых терминов) - 1988.pdf,0,2000-01-01 01:00:00,2016-04-03 02:51:08,854000/8b2d118c80af1744ced2b6e55ef9978b-g.jpg,,
22149590,"Англо-русские,термины по микроволновой системе посадки самолетов.",,Тетради новых терминов Выпуск 121,,Составитель В.М.Шуманов. Под редакцией В.С.Мужева. Ответственный редактор И.И.Убин.,1988,,Всесоюзный центр переводов,М.,33,0,Russian,245,,,,,,,,,,,,,"Scan, Formatting: niccolo, 2012",0,,1,,1,1,,1,2073457,pdf,13f5c4e2e6d85b4d6cc127074cc0e94a,,,D:\\Тетради новых терминов\\Выпуск 121 - Англо-русские термины по микроволновой системе посадки самолетов (сост. Шуманов В.М.) (Тетради новых терминов) - 1988.pdf,0,2000-01-01 01:00:00,2016-04-03 02:51:08,854000/13f5c4e2e6d85b4d6cc127074cc0e94a-g.jpg,,
22149591,Англо-русские термины по оборудованию ГПС.,,Тетради новых терминов Выпуск 123,,Составитель А.С.Чубуков. Под редакцией B.C.Полуянова. Ответственный редактор И.И.Убин.,1988,,Всесоюзный центр переводов,М.,97,0,Russian,,,,,,,,,,,,,,"Scan, Formatting: niccolo, 2012",0,,1,,1,1,,1,7123773,pdf,c6b4ecd63676e2da0a986418c9e24d80,,,D:\\Тетради новых терминов\\Выпуск 123 - Англо-русские термины по оборудованию ГПС (сост. Чубуков А.С.) (Тетради новых терминов) - 1988.pdf,0,2000-01-01 01:00:00,2016-04-03 02:51:08,854000/c6b4ecd63676e2da0a986418c9e24d80-g.jpg,,
22149592,Англо-русские термины по авиационной гидравлике.,,Тетради новых терминов Выпуск 135,,"Составители А.П.Захаров, A.M.Плунгян. Под редакцией A.M.Матвеенко. Ответственный редактор И.И.Убин.",1988,,Всесоюзный центр переводов,М.,93,0,Russian,,,,,,,,,,,,,,"Scan, Formatting: niccolo, 2012",0,,1,,1,1,,1,6707980,pdf,384a866958ec4efd7766074e0ac0db0b,,,"D:\\Тетради новых терминов\\Выпуск 135 - Англо-русские термины по авиационной гидравлике (сост. Захаров А.П., Плунгян А.М.) (Тетради новых терминов) - 1988.pdf",0,2000-01-01 01:00:00,2016-04-03 02:51:08,854000/384a866958ec4efd7766074e0ac0db0b-g.jpg,,
22149593,Англо-русские термины по сельскохозяйственной авиации.,,Тетради новых терминов Выпуск 142,,"Составители Г.Г.Литвинова, Л.А.Калиниченко, Л.Н.Прытков, В.Н.Филиппова, В.П.Реутов. Под редакцией Е.С.Будрика. Ответственный редактор И.И.Убин.",1989,,Всесоюзный центр переводов,М.,100,0,Russian,,,,,,,,,,,,,,"Scan, Formatting: niccolo, 2012",0,,1,,1,1,,1,7354448,pdf,3edbcff8149c899290be50a2e625d2b8,,,D:\\Тетради новых терминов\\Выпуск 142 - Англо-русские термины по сельскохозяйственной авиации (сост. Литвинова Г.Г. и др) (Тетради новых терминов) - 1989.pdf,0,2000-01-01 01:00:00,2016-04-03 02:51:08,854000/3edbcff8149c899290be50a2e625d2b8-g.jpg,,
22149594,Англо-русские термины по гидромеханике и гидромашинам.,,Тетради новых терминов Выпуск 145,,Составитель Б.Н.Чумаченко. Под редакцией В.И.Лаврова. Ответственный редактор И.И.Убин.,1989,,Всесоюзный центр переводов,М.,71,0,Russian,,,,,,,,,,,,,,"Scan, Formatting: niccolo, 2012",0,,1,,1,1,,1,4925845,pdf,d8245c772082ee5b3f77440a150f207d,,,D:\\Тетради новых терминов\\Выпуск 145 - Англо-русские термины по гидромеханике и гидромашинам (сост. Чумаченко Б.Н.) (Тетради новых терминов) - 1989.pdf,0,2000-01-01 01:00:00,2016-04-03 02:51:08,854000/d8245c772082ee5b3f77440a150f207d-g.jpg,,
22149595,Англо-русские термины по сталеплавильному производству.,,Тетради новых терминов Выпуск 148,,Составитель А.Б.Парцевский. Под редакцией В.И.Шора. Ответственный редактор И.И.Убин.,1989,,Всесоюзный центр переводов,М.,118,0,Russian,,,,,,,,,,,,,,"Scan, Djvuing: ???, предоставил: Dmitry7, 2012; Scan, Formatting Pdf: niccolo, 2012",0,,1,,1,1,,0,34459153,djvu,cbefca5f88be7ad2c28370af59547823,,,D:\\Тетради новых терминов\\Выпуск 148 - Англо-русские термины по сталеплавильному производству (сост. Парцевский А.Б.) (Тетради новых терминов) - 1989.djvu,0,2000-01-01 01:00:00,2016-04-03 02:51:08,854000/cbefca5f88be7ad2c28370af59547823-g.jpg,,
22149596,Англо-русские термины по сталеплавильному производству.,,Тетради новых терминов Выпуск 148,,Составитель А.Б.Парцевский. Под редакцией В.И.Шора. Ответственный редактор И.И.Убин.,1989,,Всесоюзный центр переводов,М.,116,0,Russian,,,,,,,,,,,,,,"Scan, Djvuing: ???, предоставил: Dmitry7, 2012; Scan, Formatting Pdf: niccolo, 2012",0,,1,,1,1,,1,7732302,pdf,b316aebc4e2825aad4f49db182b93862,,,D:\\Тетради новых терминов\\Выпуск 148 - Англо-русские термины по сталеплавильному производству (сост. Парцевский А.Б.) (Тетради новых терминов) - 1989.pdf,0,2000-01-01 01:00:00,2016-04-03 02:51:08,854000/b316aebc4e2825aad4f49db182b93862-g.jpg,,
22149597,"Англо-русские термины по технологии производства радиоэлектронной аппаратуры. Части 1,2.",,Тетради новых терминов Выпуск 154,,Составитель Н.М.Голуб. Под редакцией Л.Л. Горинштейна. Ответственный редактор И.И.Убин.,1990,,Всесоюзный центр переводов,М.,215,0,Russian,250,,,,,,,,,,,,,"Scan, Formatting: niccolo, 2012",0,,1,,1,1,,1,15300291,pdf,056090067efdc113cfc3ebefb21e117e,,,D:\\Тетради новых терминов\\Выпуск 154 - Англо-русские термины по технологии производства радиоэлектронной аппаратуры (сост. Голуб Н.М.) (Тетради новых терминов) - 1990.pdf,0,2000-01-01 01:00:00,2016-04-03 02:51:08,854000/056090067efdc113cfc3ebefb21e117e-g.jpg,,
22149598,Англо-русские термины по поверхностно-активным веществам.,,Тетради новых терминов Выпуск 156,,Составитель Н.А.Алтухова. Ответственный редактор И.И.Убин.,1990,,Всесоюзный центр переводов,М.,24,0,Russian,,,,,,,,,,,,,,"Scan, Formatting: niccolo, 2012",0,,1,,1,1,,1,708777,pdf,0b4969c67af52b3de76b20af54083aec,,,D:\\Тетради новых терминов\\Выпуск 156 - Англо-русские термины по поверхностно-активным веществам (сост. Алтухова Н.А.) (Тетради новых терминов) - 1990.pdf,0,2000-01-01 01:00:00,2016-04-03 02:51:08,854000/0b4969c67af52b3de76b20af54083aec-g.jpg,,
22149599,Англо-русские термины по спутниковой связи.,,Тетради новых терминов Выпуск 157,,"Составители М.Д.Венедиктов, Л.М.Невдяев.",1990,,Всесоюзный центр переводов,М.,80,0,Russian,,,,,,,,,,,,,,"Scan, Formatting: niccolo, 2012",0,,1,,1,1,,1,4117167,pdf,98f065ac523b7f602de5b00ebff282aa,,,"D:\\Тетради новых терминов\\Выпуск 157 - Англо-русские термины по спутниковой связи (сост. Венедиктов М.Д., Невдяев Л.М.) (Тетради новых терминов) - 1990.pdf",0,2000-01-01 01:00:00,2016-04-03 02:51:08,854000/98f065ac523b7f602de5b00ebff282aa-g.jpg,,
22149600,Англо-русские термины по геодезии.,,Тетради новых терминов Выпуск 158,,"Составители А.Д.Краев, А.Г.Новицкая. Под редакцией А.Д.Краева. Ответственный редактор И.И.Убин.",1990,,Всесоюзный центр переводов,М.,64,0,Russian,,,,,,,,,,,,,,"Scan, Formatting: niccolo, 2012",0,,1,,1,1,,1,2997506,pdf,15740ef20ede331ecfd02af579251915,,,"D:\\Тетради новых терминов\\Выпуск 158 - Англо-русские термины по геодезии (сост. Краев А.Д., Новицкая А.Г.) (Тетради новых терминов) - 1990.pdf",0,2000-01-01 01:00:00,2016-04-03 02:51:08,854000/15740ef20ede331ecfd02af579251915-g.jpg,,
22149601,Англо-русские термины по маркетингу.,,Тетради новых терминов Выпуск 159,,Составитель И.В.Новаш. Ответственный редактор И.И.Убин.,1990,,Всесоюзный центр переводов,М.,90,0,Russian,,,,,,,,,,,,,,"Scan, Formatting: niccolo, 2012",0,,1,,1,1,,1,6551300,pdf,1de0547efc3c8b33ce02f3c9bb5bd2af,,,D:\\Тетради новых терминов\\Выпуск 159 - Англо-русские термины по маркетингу (сост. Новаш И.В.) (Тетради новых терминов) - 1990.pdf,0,2000-01-01 01:00:00,2016-04-03 02:51:08,854000/1de0547efc3c8b33ce02f3c9bb5bd2af-g.jpg,,
22149602,Немецко-русские термины по тароупаковочной промышленности.,,Тетради новых терминов Выпуск 163,,"Составители Н.И.Алленова, Г.И.Щербакова.",1990,,Всесоюзный центр переводов,М.,89,0,Russian,,,,,,,,,,,,,,"Scan, Formatting: niccolo, 2012",0,,1,,1,1,,1,4563856,pdf,0fa46e3cd116f2396c7608f22809471d,,,"D:\\Тетради новых терминов\\Выпуск 163 - Немецко-русские термины по тароупаковочной промышленности (сост. Алленова Н.И., Щербакова Г.И.) (Тетради новых терминов) - 1990.pdf",0,2000-01-01 01:00:00,2016-04-03 02:51:08,854000/0fa46e3cd116f2396c7608f22809471d-g.jpg,,
22149603,Французско-русские термины по созданию совместных предприятий.,,Тетради новых терминов Выпуск 164,,Составитель Л.Ф.Калиночкина.,1990,,Всесоюзный центр переводов,М.,58,0,Russian,,,,,,,,,,,,,,"Scan, Formatting: niccolo, 2012",0,,1,,1,1,,1,2645143,pdf,3d594b935e0fa5f6dea4edbc84818cd2,,,D:\\Тетради новых терминов\\Выпуск 164 - Французско-русские по созданию совместных предприятий (сост. Калиночкина Л.Ф.) (Тетради новых терминов) - 1990.pdf,0,2000-01-01 01:00:00,2016-04-03 02:51:08,854000/3d594b935e0fa5f6dea4edbc84818cd2-g.jpg,,
22149604,Англо-русские термины по геологоразведочным работам.,,Тетради новых терминов Выпуск 166,,Составитель Г.И.Тотюкин. Под редакцией А.В.Панкова. Ответственный редактор И.И.Убин.,1990,,Всесоюзный центр переводов,М.,65,0,Russian,,,,,,,,,,,,,,"Scan, Formatting: niccolo, 2012",0,,1,,1,1,,1,3526376,pdf,ffd6e3c760372cad0a0ee396f11b988f,,,D:\\Тетради новых терминов\\Выпуск 166 - Англо-русские термины по геологоразведочным работам (сост. Тютюкин Г.И.) (Тетради новых терминов) - 1990.pdf,0,2000-01-01 01:00:00,2016-04-03 02:51:08,854000/ffd6e3c760372cad0a0ee396f11b988f-g.jpg,,
22149605,Англо-русские термины по оптическому приборостроению.,,Тетради новых терминов Выпуск 169,,Составитель Р.Н.Зуев. Ответственный редактор И.И.Убин.,1990,,Всесоюзный центр переводов,М.,50,0,Russian,,,,,,,,,,,,,,"Scan: AAW, Formatting: Dmitry7, 2012",0,,1,,1,1,,1,1010236,djvu,6011fd710dc365b0772e700ff54535ac,,,D:\\Тетради новых терминов\\Выпуск 169 - Англо-Русские термины по оптическому приборостроению (сост. Зуев Р.Н.) (Тетради новых терминов) - 1990.djvu,0,2000-01-01 01:00:00,2016-04-03 02:51:08,854000/6011fd710dc365b0772e700ff54535ac-g.jpg,,
22149606,Англо-русские термины по оптическому приборостроению.,,Тетради новых терминов Выпуск 169,,Составитель Р.Н.Зуев. Ответственный редактор И.И.Убин.,1990,,Всесоюзный центр переводов,М.,50,0,Russian,,,,,,,,,,,,,,"Scan: AAW, Formatting: Dmitry7, 2012",0,,1,,1,1,,1,2978451,pdf,10a48b9fd6e6d21f9625d052f372d9d3,,,D:\\Тетради новых терминов\\Выпуск 169 - Англо-Русские термины по оптическому приборостроению (сост. Зуев Р.Н.) (Тетради новых терминов) - 1990.pdf,0,2000-01-01 01:00:00,2016-04-03 02:51:08,854000/10a48b9fd6e6d21f9625d052f372d9d3-g.jpg,,
22149607,Англо-русские термины по теоретической радиотехнике.,,Тетради новых терминов Выпуск 170,,Составитель В.В.Горшков.,1990,,Всесоюзный центр переводов,М.,158,0,Russian,250,,,,,,,,,,,,,"Scan, Formatting: niccolo, 2012",0,,1,,1,1,,1,9893052,pdf,179a539177dab2755f92b436a3d84044,,,D:\\Тетради новых терминов\\Выпуск 170 - Англо-русские термины по теоретической радиотехнике (сост. Горшков В.В.) (Тетради новых терминов) - 1990.pdf,0,2000-01-01 01:00:00,2016-04-03 02:51:08,854000/179a539177dab2755f92b436a3d84044-g.jpg,,
22149608,Англо-русские термины по искусственному интеллекту.,,Тетради новых терминов Выпуск 171,,Составитель Л.А.Теплицкий.,1990,,Всесоюзный центр переводов,М.,128,0,Russian,81,,,,,,,,,,,,,"Scan, Formatting: niccolo, 2012",0,,1,,1,1,,1,10344254,pdf,271021128b7dc5f91d553fa6d51e99e5,,,D:\\Тетради новых терминов\\Выпуск 171 - Англо-русские термины по искусственному интеллекту (сост. Теплицкий Л.А.) (Тетради новых терминов) - 1990.pdf,0,2000-01-01 01:00:00,2016-04-03 02:51:08,854000/271021128b7dc5f91d553fa6d51e99e5-g.jpg,,
22149609,Англо-русские термины по проектированию летательных аппаратов.,,Тетради новых терминов Выпуск 172,,"Составители А.П.Захаров, Б.Б.Рыбак. Ответственный редактор И.И.Убин.",1990,,Всесоюзный центр переводов,М.,96,0,Russian,,,,,,,,,,,,,,"Scan, Formatting: niccolo, 2012",0,,1,,1,1,,1,5562309,pdf,52c219cbf2065111a62d5c76b061ab95,,,"D:\\Тетради новых терминов\\Выпуск 172 - Англо-русские термины по проектированию летательных аппаратов (сост. Захаров А.П., Рыбак Б.Б.) (Тетради новых терминов) - 1990.pdf",0,2000-01-01 01:00:00,2016-04-03 02:51:08,854000/52c219cbf2065111a62d5c76b061ab95-g.jpg,,
22149610,Французско-русские термины по таре и упаковке.,,Тетради новых терминов Выпуск 180,,Составитель Г.С.Поспехова. Ответственный редактор И.И.Убин.,1991,,Всесоюзный центр переводов,М.,57,0,Russian,,,,,,,,,,,,,,"Scan, Formatting: niccolo, 2012",0,,1,,1,1,,1,3554997,pdf,4640738c7c104df15a4a1633fdbea126,,,D:\\Тетради новых терминов\\Выпуск 180 - Французско-русские по таре и упаковке (сост. Убин И.И.) (Тетради новых терминов) - 1991.pdf,0,2000-01-01 01:00:00,2016-04-03 02:51:08,854000/4640738c7c104df15a4a1633fdbea126-g.jpg,,
22149611,Англо-русские термины по технологии электрохимических производств.,,Тетради новых терминов Выпуск 182,,"Составители М.М.Мельникова, И.П.Смирнов, А.Д.Давыдов.",1991,,Всесоюзный центр переводов,М.,89,0,Russian,314,,,,,,,,,,,,,"Scan, Formatting: niccolo, 2012",0,,1,,1,1,,1,7530915,pdf,8938f8d73537bb270aa2427566456499,,,"D:\\Тетради новых терминов\\Выпуск 182 - Англо-русские термины по технологии электрохимических производств (сост. Мельникова М.М., Смирнов И.П., Давыдов А.Д.) (Тетради новых терминов) - 1991.pdf",0,2000-01-01 01:00:00,2016-04-03 02:51:08,854000/8938f8d73537bb270aa2427566456499-g.jpg,,
22149612,Англо-русские термины по сертификации гражданских воздушных судов.,,Тетради новых терминов Выпуск 187,,Составитель В.М.Шуманов. Ответственный редактор И.И.Убин.,1991,,Всесоюзный центр переводов,М.,121,0,Russian,,,,,,,,,,,,,,"Scan, Formatting: niccolo, 2012",0,,1,,1,1,,1,8644323,pdf,31bfb9a7b8aca1a6660e6fd85f12a56a,,,D:\\Тетради новых терминов\\Выпуск 187 - Англо-русские термины по сертификации гражданских воздушных судов (сост. Шуманов В.М.) (Тетради новых терминов) - 1991.pdf,0,2000-01-01 01:00:00,2016-04-03 02:51:08,854000/31bfb9a7b8aca1a6660e6fd85f12a56a-g.jpg,,
22149613,Итальянско-русские термины по электрооборудованию и электроэнергетическим системам.,,Тетради новых терминов Выпуск 192,,Сос. А.М.Белостоцкий. Ред. Убин И.И.,1993,,Всероссийский центр переводов,М.,114,0,Russian,262,,,,,,,,,,,,,"Scan: AAW, Formatting: Dmitry7, niccolo, 2012",0,,1,,1,1,,1,4010066,djvu,df7fbaba68dcfe75ecbdc250c57bca56,,,D:\\Тетради новых терминов\\Выпуск 192 - Итальянско-русские термины по электрооборудованию и электроэнергетическим системам (сост. Гершенгорн А.И.) (Тетради новых терминов) - 1993.djvu,0,2000-01-01 01:00:00,2016-04-03 02:51:08,854000/df7fbaba68dcfe75ecbdc250c57bca56-g.jpg,,
22149614,Итальянско-русские термины по электрооборудованию и электроэнергетическим системам.,,Тетради новых терминов Выпуск 192,,Сос. А.М.Белостоцкий. Ред. Убин И.И.,1993,,Всероссийский центр переводов,М.,114,0,Russian,262,,,,,,,,,,,,,"Scan: AAW, Formatting: Dmitry7, niccolo, 2012",0,,1,,1,1,,1,10081055,pdf,30e2150b0dbd4403e348f024b3ec23f9,,,D:\\Тетради новых терминов\\Выпуск 192 - Итальянско-русские термины по электрооборудованию и электроэнергетическим системам (сост. Гершенгорн А.И.) (Тетради новых терминов) - 1993.pdf,0,2000-01-01 01:00:00,2016-04-03 02:51:08,854000/30e2150b0dbd4403e348f024b3ec23f9-g.jpg,,
22149615,Лингвистические проблемы терминологии и научно-технический перевод - Часть 2,,Тетради новых терминов,,"Лейчик В.М., Шелов С.Д.",1990,,Всесоюзный центр переводов,М.,44,0,Russian,,,0,,,,,,,,,,,,0,,1,,1,1,,0,80779709,pdf,83ed5a572cba3a8bf593943f22cf9e8a,,,"D:/Тетради новых терминов/Лингвистические проблемы терминологии и научно-технический перевод - Часть 2 (Лейчик В.М., Шелов С.Д.) - 1990.pdf",0,2000-01-01 01:00:00,2016-04-03 02:51:08,854000/83ed5a572cba3a8bf593943f22cf9e8a-g.jpg,,
22149616,Ложные друзья' переводчика научно-технической литературы (методическое пособие) - Часть 2,,Тетради новых терминов,,Борисова Л.И.,1990,,Всероссийский центр переводов,М.,55,0,Russian,,,,,,,,,,,,,,,0,,1,,1,1,,0,1542867,djvu,0ea7e346746426fc1fbd4ccba10dc668,54ac17ec3069219abb932efd2c9c25a0,no,D:\\Тетради новых терминов\\'Ложные друзья' переводчика научно-технической литературы (методическое пособие) - Часть 2 (Борисова Л.И.) - 1990.djvu,0,2000-01-01 01:00:00,2016-04-03 02:51:08,854000/0ea7e346746426fc1fbd4ccba10dc668-g.jpg,,
22149617,Методическиерекомендации для переводчиков и редакторов научно-технической литературы,,Тетради новых терминов,,Смирнов И.П.,1988,,Всесоюзный центр переводов,М.,85,0,Russian,,,,,,,,,,,,,,,0,,1,,1,1,,1,36913146,pdf,42bc2c86bb741f3e53245fa9bf85ce2f,,,D:\\Тетради новых терминов\\Методические рекомендации для переводчиков и редакторов научно-технической литературы (Смирнов И.П.) - 1988.pdf,0,2000-01-01 01:00:00,2016-04-03 02:51:08,854000/42bc2c86bb741f3e53245fa9bf85ce2f-g.jpg,,
22149618,Leonard Bernstein: The Political Life of an American Musician,,,,Barry Seldes,2009,,University of California Press,,296,0,English,,,0,0520257642,,,,,,,,,,,0,,,,,1,,1,4527227,pdf,7ba0457745a32c18c696c2e182992079,,,Leonard Bernstein - Seldes_ Barry.original_pdf,0,2000-01-01 01:00:00,2016-04-03 02:51:08,854000/7ba0457745a32c18c696c2e182992079-g.jpg,,
22149619,"The Creative Director: Conductor, Teacher, Leader",,,,Edward S. Lisk,,,Meredith Music,,136,0,English,,,0,1-57463-079-2,,,,,,,,,,,0,,,,,1,,1,15691169,pdf,04fcdfe0da51c1a6daa4bd518cb77c4e,,,The Creative Director - Edward S. Lisk,0,2000-01-01 01:00:00,2016-04-03 02:51:08,854000/04fcdfe0da51c1a6daa4bd518cb77c4e-g.jpg,,
22149620,Биосимметрика,,,,Н. А. Заренков,2009,,"Либроком, URSS",,318,0,Russian,,,0,978-5-397-00081-9,,,573,,,,,,,,0,,,,,1,,0,3817070,djvu,ac357be21fe6d0fe1978e39c8984d109,cd3469dd3d5eddddaa2bbbbb815f1fc3,no,zarenkov2009_biosimmetrika,0,2000-01-01 01:00:00,2016-04-03 02:51:08,854000/ac357be21fe6d0fe1978e39c8984d109-d.jpg,,
22149621,Акарология - наука о клещах. История развития. Современное состояние. Систематика,,,,Ю. А. Захваткин,2012,,Либроком,,188,0,Russian,,,0,978-5-397-02126-5,,,,,,,,,,,0,,,,,1,,0,1944958,djvu,f501eaa4de8eed76050366ec9aa83dfa,dfec644bf5df825c9d7131a88c577db6,no,zakhvatkin2012_akarologija,0,2000-01-01 01:00:00,2016-04-03 02:51:08,854000/f501eaa4de8eed76050366ec9aa83dfa-d.jpg,,
22149622,Лес на северном пределе в Азии,,,,А.П.Тыртиков.,1995,,КМК,М.,144,0,Russian,,,0,5-87317-006-1,,,,,,,,,,,0,,,,,1,,1,7794162,pdf,da156263703e76475ddee56d1cefd7d4,,,tyrtikov1995_les_na_sev_predele_v_azii,0,2000-01-01 01:00:00,2016-04-03 02:51:08,854000/da156263703e76475ddee56d1cefd7d4-g.jpg,,
22149623,Динамика растительного покрова и развитие мерзлотных форм рельефа,,,,Тыртиков А.П.,1979,,Наука,М.,61,0,Russian,,,0,,,,,,,,,,,,0,,,,,1,,1,6451668,pdf,2afa607f37c2421f5bc697af15e03e54,,,tyrtikov1979_dinamika_rast_pokr_razv_merzl,0,2000-01-01 01:00:00,2016-04-03 02:51:08,854000/2afa607f37c2421f5bc697af15e03e54-g.jpg,,
22149624,Debating the Past - Modern Bulgarian History: From Stambolov to Zhivkov,,,,Roumen Daskalov,2011,,Central European University Press,Budapest - New York,376,0,English,64,,0,"6155053006,9786155053009",,,,,,,,,,,0,0,1,0,0,1,0,0,18794193,pdf,c30ab1eb1c951fec05d6f213cf521f87,,,Daskalov Roumen Debating the Past,0,2000-01-01 01:00:00,2016-04-03 02:51:08,854000/c30ab1eb1c951fec05d6f213cf521f87-d.jpg,,
22149625,Biochemia Harpera ilustrowana,,,,"Murray Robert K., Granner Daryl K., Rodwell Victor W.",2008,,PZWL,,800,0,Polish,,,0,9788320035735,,,,,,,,,,,800,1,,,1,1,1,0,43263066,pdf,6cb39bee1e257d26d9962776ca78c238,,,6cb39bee1e257d26d9962776ca78c238.pdf,0,2000-01-01 01:00:00,2016-04-03 02:51:08,854000/6cb39bee1e257d26d9962776ca78c238-g.jpg,,
22149626,"Séminaire de Théorie des Nombres, Paris 1983-84: Séminaire Delange-Pisot Poitou",,Progress in Mathematics 59,,"Catherine Goldstein,  editor",1985,,Birkhäuser Boston,,290,0,"English,French",,,0,"0817633154,9780817633158",,,,,,,,,,,300,,,,,1,,1,2187169,djvu,4df6d888691214709c3252eb079feecf,,,PIM 59 - STN,0,2000-01-01 01:00:00,2016-04-03 02:51:08,854000/4df6d888691214709c3252eb079feecf-g.jpg,,
22149627,Lietuvių kalbos kolokacijos,,,,Marcinkevičienė R.,2010,,Vytauto Didžiojo universitetas,Kaunas,212,0,Lithuanian,319,,0,978-9955-12-656-0,,,,,,,,,,,0,,,,,0,0,1,1674674,pdf,b2f4c10cfb1f14e4775404820f1a161c,,,Marcinkeviciene R. - Lietuviu kalbos kolokacijos,0,2000-01-01 01:00:00,2016-04-03 02:51:08,854000/b2f4c10cfb1f14e4775404820f1a161c-g.jpg,,
22149628,Lietuvių pravardžių atvirkštinis žodynas,,,,Butkus A.,2009,,Aesti,Kaunas,121,0,Lithuanian,322,,0,978-9986-884-25-5,,,392(=882)(038),,,,,,,,0,,,1,,0,0,1,726759,pdf,3bbba9be37ef1d91cd4efd9fd270d29b,,,Butkus A.-Lietuviu pravardziu atvirkstinis zodynas,0,2000-01-01 01:00:00,2016-04-03 02:51:08,854000/3bbba9be37ef1d91cd4efd9fd270d29b-g.jpg,,
22149629,Dažninis lietuvių kalbos morfemikos žodynas,1,,,"Rimkutė E., Kazlauskienė A., Raškinis G.",2011,,Vytauto Didžiojo universitetas,,801,0,Lithuanian,322,,0,978-9955-12-694-2,,,,,,,,,,,0,,,,,0,0,1,2404144,pdf,1e938fc011a67da192abc1b73788caa6,,,"Rimkute E. ir kt. - Dazninis lietuviu kalbos morfemikos zodynas, I dalis",0,2000-01-01 01:00:00,2016-04-03 02:51:08,854000/1e938fc011a67da192abc1b73788caa6-g.jpg,,
22149630,Dažninis lietuvių kalbos morfemikos žodynas,2,,,"Rimkutė E., Kazlauskienė A., Raškinis G.",2011,,Vytauto Didžiojo universitetas,,357,0,Lithuanian,322,,0,978-9955-12-736-9,,,,,,,,,,,0,,,,,0,0,1,1100529,pdf,61e0acc34856e196555dd591e3b82a0a,,,"Rimkute E. ir kt. - Dazninis lietuviu kalbos morfemikos zodynas, II dalis",0,2000-01-01 01:00:00,2016-04-03 02:51:08,854000/61e0acc34856e196555dd591e3b82a0a-g.jpg,,
22149631,Dažninis lietuvių kalbos morfemikos žodynas,3,,,"Rimkutė E., Kazlauskienė A., Raškinis G.",2011,,Vytauto Didžiojo universitetas,,961,0,Lithuanian,322,,0,978-9955-12-737-6,,,,,,,,,,,0,,,,,0,0,1,2767596,pdf,7b5928dbb3d1e2fc571f2e5f47265bf3,,,"Rimkute E. ir kt. - Dazninis lietuviu kalbos morfemikos zodynas, III dalis",0,2000-01-01 01:00:00,2016-04-03 02:51:08,854000/7b5928dbb3d1e2fc571f2e5f47265bf3-g.jpg,,
22149632,Advanced Telescope Making Techniques Volume I,,,,Allan Mackintosh,1986,Volume 1,"Willmann-Bell, Inc.",,320,0,English,,,0,"0943396115,9780943396118",,,,,,,,,,,0,,,,0,1,,0,28837173,pdf,c78d574e490f6b25e0ca73f0166631fc,,,ATMT-Optics,0,2000-01-01 01:00:00,2016-04-03 02:51:08,854000/c78d574e490f6b25e0ca73f0166631fc-d.jpg,,
22149633,Advanced Telescope Making Techniques Volume 2,,,,"G. Kenneth Hawkings, Allan Mackintosh",1986,Volume 2,"Willmann-Bell, Inc.",,320,0,English,,,0,"0943396123,9780943396125",,,,,,,,,,,0,,,,0,1,0,0,28549928,pdf,934e7a119bed330aa26c7c736e01a6ad,,,ATMT-Mechanical,0,2000-01-01 01:00:00,2016-04-03 02:51:08,854000/934e7a119bed330aa26c7c736e01a6ad-d.jpg,,
22149634,Abėcėlinis lietuvių kalbos morfemikos žodynas,1,,,"Rimkutė E., Kazlauskienė A., Raškinis G.",2011,,Vytauto Didžiojo universitetas,,802,0,Lithuanian,322,,0,978-9955-12-693-5,,,,,,,,,,,0,,,,,0,0,1,2265327,pdf,46447404fdd093c63a62fed271977499,,,"Rimkute E. ir kt. - Abecelinis lietuviu kalbos morfemikos zodynas, I dalis",0,2000-01-01 01:00:00,2016-04-03 02:51:08,855000/46447404fdd093c63a62fed271977499-g.jpg,,
22149635,Abėcėlinis lietuvių kalbos morfemikos žodynas,2,,,"Rimkutė E., Kazlauskienė A., Raškinis G.",2011,,Vytauto Didžiojo universitetas,,357,0,Lithuanian,322,,0,978-9955-12-733-8,,,,,,,,,,,0,,,,,0,0,1,1039679,pdf,bb7adf202e62634c954b321c69f56b23,,,"Rimkute E. ir kt. - Abecelinis lietuviu kalbos morfemikos zodynas, II dalis",0,2000-01-01 01:00:00,2016-04-03 02:51:08,855000/bb7adf202e62634c954b321c69f56b23-g.jpg,,
22149636,Abėcėlinis lietuvių kalbos morfemikos žodynas,3,,,"Rimkutė E., Kazlauskienė A., Raškinis G.",2011,,Vytauto Didžiojo universitetas,,960,0,Lithuanian,322,,0,978-9955-12-734-5,,,,,,,,,,,0,,,,,0,0,1,2676432,pdf,88b972aced8c8663f1aec07831483624,,,"Rimkute E. ir kt. - Abecelinis lietuviu kalbos morfemikos zodynas, III dalis",0,2000-01-01 01:00:00,2016-04-03 02:51:08,855000/88b972aced8c8663f1aec07831483624-g.jpg,,
22149637,Atgalinis lietuvių kalbos morfemikos žodynas,1,,,"Rimkutė E., Kazlauskienė A., Raškinis G.",2011,,Vytauto Didžiojo universitetas,,782,0,Lithuanian,322,,0,978-9955-12-692-8,,,,,,,,,,,0,,,,,0,0,1,2196208,pdf,7b7fa836038627024625b23ab978f1f9,,,"Rimkute E. ir kt. - Atgalinis lietuviu kalbos morfemikos zodynas, I dalis",0,2000-01-01 01:00:00,2016-04-03 02:51:08,855000/7b7fa836038627024625b23ab978f1f9-g.jpg,,
22149638,Atgalinis lietuvių kalbos morfemikos žodynas,2,,,"Rimkutė E., Kazlauskienė A., Raškinis G.",2011,,Vytauto Didžiojo universitetas,,356,0,Lithuanian,322,,0,978-9955-12-729-1,,,,,,,,,,,0,,,,,0,0,1,1018306,pdf,2c5bc5997b822352c1d5346d0491f844,,,"Rimkute E. ir kt. - Atgalinis lietuviu kalbos morfemikos zodynas, II dalis",0,2000-01-01 01:00:00,2016-04-03 02:51:08,855000/2c5bc5997b822352c1d5346d0491f844-g.jpg,,
22149639,Atgalinis lietuvių kalbos morfemikos žodynas,3,,,"Rimkutė E., Kazlauskienė A., Raškinis G.",2011,,Vytauto Didžiojo universitetas,,958,0,Lithuanian,322,,0,978-9955-12-730-7,,,,,,,,,,,0,,,,,0,0,1,2489295,pdf,23b0b59a8a66a9bd5abf58cc9fc23747,,,"Rimkute E. ir kt. - Atgalinis lietuviu kalbos morfemikos zodynas, III dalis",0,2000-01-01 01:00:00,2016-04-03 02:51:08,855000/23b0b59a8a66a9bd5abf58cc9fc23747-g.jpg,,
22149640,Leiskit į tėvynę: tremtinių atsiminimai,,,,Pukelis K.,1989,,Šviesa,Kaunas,395,0,Lithuanian,68,,0,5-430-00809-5,,,821.172-94,,,,,,,,0,,,1,,1,0,1,6540282,pdf,5ffdbb46ca888a80531f21f1994d9a19,,,Leiskit.i.tevyne,0,2000-01-01 01:00:00,2016-04-03 02:51:08,855000/5ffdbb46ca888a80531f21f1994d9a19-g.jpg,,
22149641,Nieko bendra neturinčiųjų bendrija,,Atviros Lietuvos knyga,,Lingis A.,1997,,Baltos lankos,Vilnius,156,0,Lithuanian,195,,0,9986-813-48-4,1392-1673,,,,,,,,,,0,1,,0,,1,1,1,7069840,pdf,832b917540920468d928cb77e76ae1c2,,,Lingis.A.-.Nieko.bendra.neturinciuju.bendrija.1997.LT,0,2000-01-01 01:00:00,2016-04-03 02:51:08,855000/832b917540920468d928cb77e76ae1c2-g.jpg,,
22149642,Fenomenologinė filosofija,,Pažintis,,"Mickūnas A., Stewart D.",1994,,Baltos lankos,Vilnius,189,0,Lithuanian,195,,0,9986-403-05-7,,,165.62,,,,,,,,0,,,0,,1,1,1,9070326,pdf,0273e289c2920c71892c2b9b2273b327,,,"Mickunas.A.,Stewart.D.-.Fenomenologine.filosofija.1994.LT",0,2000-01-01 01:00:00,2016-04-03 02:51:08,855000/0273e289c2920c71892c2b9b2273b327-g.jpg,,
22149643,Элементарная теория музыки,,,,"Мясоедов А.Н., Алексеев Б.К.",1986,,Музыка,,246,0,Russian,,,0,,,,,,,,,,,,600,0,0,0,,0,0,1,12471505,pdf,3a742581fe8632e4dfcdeb6880ef4087,,,Алексеев Б. Мясоедов А. Элементарная теория музыки,0,2000-01-01 01:00:00,2016-04-03 02:51:08,855000/3a742581fe8632e4dfcdeb6880ef4087-d.jpg,,
22149644,Masculine Domination,,,,Pierre Bourdieu,2001,,Polity Press,,144,0,English,,,0,"0745622658,9780745622651",,,,,,,,,,,0,,,,,1,,1,7748645,pdf,ea65ad72255d6003e23a7c6f996f6d7e,,,! Masculine Domination_cropped,0,2000-01-01 01:00:00,2016-04-03 02:51:08,855000/ea65ad72255d6003e23a7c6f996f6d7e-d.jpg,,
22149645,Social Relations and Social Exclusion: Rethinking Political Economy,,Routledge Studies in Governance and Public Policy,,Peter Somerville,2001,1,Routledge,,224,0,English,,,0,"0415240409,9780415240406",,,,,,,,,,,0,,,,,1,,1,1307555,pdf,c3e9ec7a3df8e3e635c423e0b8bab19a,,,0415240409,0,2000-01-01 01:00:00,2016-04-03 02:51:08,855000/c3e9ec7a3df8e3e635c423e0b8bab19a-d.jpg,,
22149646,PostgreSQL: Up and Running,,,,"Regina Obe, Leo Hsu",2012,,O'Reilly Media,,166,0,English,76,,0,"1449326331,9781449326333",,,,,,,,,,,0,,,,,1,,1,6228425,pdf,ea46c9e4c82b8fd2230a12075cc3e29f,,,Oreilly.PostgreSQL.Up.and.Running.Jul.2012,0,2000-01-01 01:00:00,2016-04-03 02:51:08,855000/ea46c9e4c82b8fd2230a12075cc3e29f-d.jpg,,
22149647,PostgreSQL: Up and Running,,,,"Regina Obe, Leo Hsu",2012,,O'Reilly Media,,166,0,English,76,,0,"1449326331,9781449326333",,,,,,,,,,,0,,,,,1,,,2943003,epub,e6cc9f683f37a5dc570146cacd218923,,,Oreilly.PostgreSQL.Up.and.Running.Jul.2012,0,2000-01-01 01:00:00,2016-04-03 02:51:08,855000/e6cc9f683f37a5dc570146cacd218923-d.jpg,,
22149648,Deserts: A Very Short Introduction,,Very Short Introductions,,Nick Middleton,2009,1,"Oxford University Press, USA",,144,0,English,,,0,"0199564302,9780199564309",,,,,,,,,,,0,,,,,1,,,3056989,mobi,2fb00c8d6acc67e78f3c4c636b0d2a44,,,0199564302Deserts,0,2000-01-01 01:00:00,2016-04-03 02:51:08,855000/2fb00c8d6acc67e78f3c4c636b0d2a44-d.jpg,,
22149649,Team Geek: A Software Developer's Guide to Working Well with Others,,,,"Brian W. Fitzpatrick, Ben Collins-Sussman",2012,,O'Reilly Media,,194,0,English,,,0,"1449302440,9781449302443",,,,,,,,,,,0,,,,,1,,,5334284,epub,e2026b512de77ecc8db1a5957bcc0fda,,,Oreilly.Team.Geek.Jul.2012,0,2000-01-01 01:00:00,2016-04-03 02:51:08,855000/e2026b512de77ecc8db1a5957bcc0fda-d.jpg,,
22149650,Team Geek: A Software Developer's Guide to Working Well with Others,,,,"Brian W. Fitzpatrick, Ben Collins-Sussman",2012,,O'Reilly Media,,194,0,English,,,0,"1449302440,9781449302443",,,,,,,,,,,0,,,,,1,,1,31594102,pdf,aa146d1b64e2d44f04e59be90216455a,,,Oreilly.Team.Geek.Jul.2012,0,2000-01-01 01:00:00,2016-04-03 02:51:08,855000/aa146d1b64e2d44f04e59be90216455a-d.jpg,,
22149651,The Social Styles Handbook: Adapt Your Style to Win Trust,,Wilson Learning Library,,"Tom Kramlinger, Larry Wilson",2011,Second,Nova Vista Publishing,,192,0,English,,,0,"9077256334,9789077256336",,,,,,,,,,,0,,,,,1,,1,4842118,pdf,138162ddb16b7b52e0ae0e0b83d7b03c,,,Nova.Vista.The.Social.Styles.Handbook.Revised.Edition.Jun.2012,0,2000-01-01 01:00:00,2016-04-03 02:51:08,855000/138162ddb16b7b52e0ae0e0b83d7b03c-d.jpg,,
22149652,The Social Styles Handbook: Adapt Your Style to Win Trust,,Wilson Learning Library,,"Tom Kramlinger, Larry Wilson",2011,Second,Nova Vista Publishing,,192,0,English,,,0,"9077256334,9789077256336",,,,,,,,,,,0,,,,,1,,,2665573,epub,04169fe812130b83065ed0e305a99896,,,Nova.Vista.The.Social.Styles.Handbook.Revised.Edition.Jun.2012,0,2000-01-01 01:00:00,2016-04-03 02:51:08,855000/04169fe812130b83065ed0e305a99896-d.jpg,,
22149653,Meno kūrinio ištaka,,,,"Heidegger M.,Gadamer H.-G.",2003,,Aidai,,117,0,Lithuanian,195,,0,9955-445-76-9,,,,,,,,,,,0,1,,0,,1,1,1,2761126,pdf,a4953bdef68e01646bbc2c66e0e97d73,,,"Heidegger M.,Gadamer H.-G.-.Meno.kurinio.istaka.2003.",0,2000-01-01 01:00:00,2016-04-03 02:51:08,855000/a4953bdef68e01646bbc2c66e0e97d73-g.jpg,,
22149654,"Полевой определитель ключевых биотопов и объектов, сохраняемых при освоении лесосек на территории Иркутской области",,,,"Алейников, А. А.;Семенцова, М. В.; Яницкая, Т. О.",2011,,Всемирный фонд дикой природы,Москва,86 с.,0,Russian,,,0,978-5-87317-768-4,,,,,,,,,,,0,,,,,1,,1,4735093,pdf,1d504d2432b18a2ac292f07f168b7311,,,alejnikov2011_polevoj_opred_okhr_obj_irkutsk_obl,0,2000-01-01 01:00:00,2016-04-03 02:51:08,855000/1d504d2432b18a2ac292f07f168b7311-g.jpg,,
22149655,"Geometry Today  Giornate di Geometria, Roma 1984  International Conference, Rome, June 4-11, 1984",,Progress in Mathematics 60,,E. Arbarello  C. Procesi  E. Strickland  editors,1985,,Birkhäuser Boston,,334,0,English,,,0,"0817632905,9780817632908",,,,,,,,,,,300,,,,,1,,1,3229644,djvu,3483a7fa8b8830b118ea1055dc6bc4b4,,,PIM 60 - Geometry,0,2000-01-01 01:00:00,2016-04-03 02:51:08,855000/3483a7fa8b8830b118ea1055dc6bc4b4-d.jpg,,
22149656,Įvadas į analitinę filosofiją,,Atviros Lietuvos knyga,,"Newen A., von Savigny E.",1999,,Baltos lankos,Vilnius,197,0,Lithuanian,195,,0,9986-861-72-1,1392-1673,,,,,,,,,,0,1,,0,,1,1,0,7547973,djvu,5b118c80a9cacc649a5b3ada1947c691,,,"Newen.A.,von.Savigny.E.-.Ivadas.i.analitine.filosofija.1999.LT",0,2000-01-01 01:00:00,2016-04-03 02:51:08,,,
22149657,Modern Physics for Scientists and Engineers,,,,"Stephen T. Thornton, Andrew Rex",2012,4,Brooks Cole,,688,0,English,,,0,"1133103723,9781133103721",,,,,,,,,,,0,,,,,1,,1,13933005,pdf,a014282b63fe52e8510ac53a7ed0d0c8,,,"Modern Physics for Scientists and Engineers 4th ed. - S. Thornton, A. Rex (Cengage, 2013) WW",0,2000-01-01 01:00:00,2016-04-03 02:51:08,855000/a014282b63fe52e8510ac53a7ed0d0c8-d.jpg,,
22149658,Maintainable JavaScript,,,,Nicholas C. Zakas,2012,,O'Reilly Media,,242,0,English,92,,0,"1449327680,9781449327682",,,,,,,,,,,0,,,,,1,,1,10193767,pdf,c2e17e1687ff96a815ab307131d397a3,,,OReilly Maintainable JavaScript May 2012,0,2000-01-01 01:00:00,2016-04-03 02:51:08,855000/c2e17e1687ff96a815ab307131d397a3-d.jpg,,
22149659,Orchard CMS: Up and Running,,,,John Zablocki,2012,,O'Reilly Media,,132,0,English,,,0,"144932021X,9781449320218",,,,,,,,,,,0,,,,,1,,1,9222778,pdf,bb440bf1e180af3bbbe5f3d95902e949,,,OReilly Orchard CMS Up and Running May 2012,0,2000-01-01 01:00:00,2016-04-03 02:51:08,855000/bb440bf1e180af3bbbe5f3d95902e949-d.jpg,,
22149660,The Art of Community: Building the New Age of Participation,,,,Jono Bacon,2012,Second Edition,O'Reilly Media,,576,0,English,,,0,"1449312063,9781449312060",,,,,,,,,,,0,,,,,1,,1,22668375,pdf,d9811bb83917e934dfe7c72d2fcb557e,,,OReilly The Art of Community 2nd Edition May 2012,0,2000-01-01 01:00:00,2016-04-03 02:51:08,855000/d9811bb83917e934dfe7c72d2fcb557e-d.jpg,,
22149661,Soil-Subsurface Change: Chemical Pollutant Impacts,,,,"Bruno Yaron, Ishai Dror, Brian Berkowitz (auth.)",2012,1,Springer-Verlag Berlin Heidelberg,,366,0,English,,,0,"364224386X,9783642243868,978-3-642-24387-5",,,,,,,10.1007/978-3-642-24387-5,,,,0,,,,,1,,1,16228979,pdf,a1e5c0f2289ca24d9079ac023b56f4f3,,,Springer - Soil-Subsurface Change 2012,0,2000-01-01 01:00:00,2016-04-03 02:51:08,855000/a1e5c0f2289ca24d9079ac023b56f4f3-d.jpg,,
22149662,Progress in Botany 73,,Progress in Botany 73,,"Michel Thellier (auth.), Prof. Dr. Ulrich Lüttge, Prof. Dr. Wolfram Beyschlag, Prof. Dr. Burkhard Büdel, Dr. Dennis Francis (eds.)",2012,1,Springer-Verlag Berlin Heidelberg,,312,0,English,,,0,"3642227457,9783642227455,978-3-642-22746-2",,,,,,,10.1007/978-3-642-22746-2,,,,0,,,,,1,,1,2813573,pdf,6d998359c63e7e49513684fcc8fae43f,,,Springer - Progress in Botany 73,0,2000-01-01 01:00:00,2016-04-03 02:51:08,855000/6d998359c63e7e49513684fcc8fae43f-d.jpg,,
22149663,Polymers in Nanomedicine,,Advances in Polymer Science 247,,"Ernst Wagner (auth.), Shigeru Kunugi, Tetsuji Yamaoka (eds.)",2012,1,Springer-Verlag Berlin Heidelberg,,284,0,English,,,0,"3642278558,9783642278556,978-3-642-27856-3",,,,,,,10.1007/978-3-642-27856-3,,,,0,,,,,1,,1,8694333,pdf,9f280d52411d3d4074fb57270ec4e2f9,,,Springer - Polymers in Nanomedicine 2012,0,2000-01-01 01:00:00,2016-04-03 02:51:08,855000/9f280d52411d3d4074fb57270ec4e2f9-d.jpg,,
22149664,Computational Modeling of Biological Systems: From Molecules to Pathways,,"Biological and Medical Physics, Biomedical Engineering",,"Yi Wang, J. Andrew McCammon (auth.), Nikolay V Dokholyan (eds.)",2012,1,Springer-Verlag New York,,366,0,English,,,0,"1461421454 , 978-1461421450",,,,,571,,10.1007/978-1-4614-2146-7,,,"Incorrect bookmarks, no cover, no pagination",0,,,,0,1,1,1,8730266,pdf,26c719f5b962e7b2b53ac54f3204aa28,69fb376a85982203d0799e8a874c4961,no,Computational Modeling of Biological Systems,0,2000-01-01 01:00:00,2016-04-03 02:51:08,855000/26c719f5b962e7b2b53ac54f3204aa28-d.jpg,,
22149665,Братья Старостины,,Жизнь замечательных людей 1553,,"Духон, Борис Леонидович;Морозов, Георгий Николаевич",2012,,Молодая гвардия,Москва,"273, [3] с., [16] л. фотографий",0,Russian,,,0,978-5-235-03504-1,,,,,,,,,,,0,,,,,1,,1,45332088,djvu,fb4d0a0c24b54cd1b1413c8670b0e12a,,,"Братья Старостины (Борис Духон, Георгий Морозов) - 2012",0,2000-01-01 01:00:00,2016-04-03 02:51:08,855000/fb4d0a0c24b54cd1b1413c8670b0e12a-g.jpg,,
22149666,Physics MCQs for the Part 1 FRCR,,,,"Shahzad Ilyas, Tomasz Matys, Nasim Sheikh-Bahaei, Adam K. Yamamoto, Martin John Graves",2011,1,Cambridge University Press,,160,0,English,,,0,"1107400996,9781107400993",,,,,,,,,,,0,,,,,1,,1,1145968,pdf,e93b71e24d4c697eb387d1417469cfc1,,,e93b71e24d4c697eb387d1417469cfc1,0,2000-01-01 01:00:00,2016-04-03 02:51:08,855000/e93b71e24d4c697eb387d1417469cfc1-d.jpg,,
22149667,Electrochemical Detection in HPLC: Analysis of Drugs and Poisons,,RSC Chromatography Monographs,,"R. J. Flanagan, D Perrett, R Whelpton",2005,1,Royal Society of Chemistry,,258,0,English,,,0,"0854045325,9780854045327",,,,,,,,,,,0,,,,,1,,1,24848968,pdf,ce27df491df3d1a76c056191cb9ac6fc,,,ce27df491df3d1a76c056191cb9ac6fc,0,2000-01-01 01:00:00,2016-04-03 02:51:08,855000/ce27df491df3d1a76c056191cb9ac6fc-d.jpg,,
22149668,Филогенетические основы тканевой организации животных,,,,"Борисов, И.Н. and Дунаев, П.В. and Бажанов, А.Н. and Донских, Н.В.",1986,,Наука,,121,0,Russian,,,0,,,,,,,87123978,,GJIaAAAAIAAJ,,,0,,,,,1,,0,2586166,djvu,eef364232c05242fc6264ec99594c65b,d8c71d1de426dbbfc725dd0ab4a4b453,no,eef364232c05242fc6264ec99594c65b,0,2000-01-01 01:00:00,2016-04-03 02:51:08,855000/eef364232c05242fc6264ec99594c65b-g.jpg,,
22149669,Орхидные Северо-Запада Европейской России,,,,"Ефимов, Петр Геннадьевич",2011,,Товарищество науч. изд. КМК,Москва,211 с.,0,Russian,,,0,978-5-87317-696-0,,,,,,,,,,,0,,,,,1,,0,20770950,djvu,8b609de332033afacdf35ad5bd20e6ed,b30e22f75dddb1f5b0878d789165a90a,no,efimov2011_orch_sev-zap_evr_ross,0,2000-01-01 01:00:00,2016-04-03 02:51:08,855000/8b609de332033afacdf35ad5bd20e6ed-g.jpg,,
22149670,"Организмы, виды и эволюция",,,,"Иорданский, Николай Николаевич",2011,,URSS,Москва,174 с.,0,Russian,,,0,978-5-397-01870-8,,,"573, 575.8",,,,,,,,0,,,,,1,,0,2204419,djvu,558ec02f538664c7951a794e714431ba,59749b81c2f16280bb1a408d130eaf65,no,iordanskij2011_organizmy_vidy_evol,0,2000-01-01 01:00:00,2016-04-03 02:51:08,855000/558ec02f538664c7951a794e714431ba-g.jpg,,
22149671,Приматы моря,,,,Игорь Иванович Акумушкин,1963,,Государственное издательство географической литературы,М.,192,0,Russian,,,0,,,,,,,,,,,,0,,,,,1,,0,2563507,djvu,3e894f9317c77bb6a969828ec6d7f223,9d55c3adb9bad91a01e978123a6fb946,no,akimushkin1963_primaty_morja,0,2000-01-01 01:00:00,2016-04-03 02:51:08,855000/3e894f9317c77bb6a969828ec6d7f223-g.jpg,,
22149672,Атлас пресноводных рыб России = Atlas of Russian freshwater fises : [В 2 т.],1,,,"Рос. акад. наук. Ин-т пробл. экологии и эволюции им. А.Н. Северцова [и др.] ; Ю.С. Решетников [и др.] ; Под ред. Ю.С. Решетникова;Решетников, Юрий Степанович;сост.",2003,2. изд.,Наука,М.,192,0,Russian,,,0,5-02-002873-8,,,59,,,,,,,,0,,,,,1,,0,16929928,djvu,868e88f0c821e2c23f47b2027e1f9e2b,fdef584bd14ca1b8bc0068ec24de8974,no,atlas_presn_ryb_rossii_2003_1,0,2000-01-01 01:00:00,2016-04-03 02:51:08,855000/868e88f0c821e2c23f47b2027e1f9e2b-g.jpg,,
22149673,Атлас пресноводных рыб России = Atlas of Russian freshwater fises : [В 2 т.],2,,,"Рос. акад. наук. Ин-т пробл. экологии и эволюции им. А.Н. Северцова [и др.] ; Ю.С. Решетников [и др.] ; Под ред. Ю.С. Решетникова;Решетников, Юрий Степанович;сост.",2003,2. изд.,Наука,М.,129,0,Russian,,,0,5-02-002873-8,,,59,,,,,,,,0,,,,,1,,0,7864503,djvu,32e52013a8c03f65ea24676079d1ddff,dc737619d0e95ecc07e0dab27471ced1,no,atlas_presn_ryb_rossii_2003_2,0,2000-01-01 01:00:00,2016-04-03 02:51:08,855000/32e52013a8c03f65ea24676079d1ddff-g.jpg,,
22149674,Цифровой политомический ключ для определения растений,,,,Б.Е. Балковский,1964,,Наукова думка,,37,0,Russian,,,0,,,,,,,,,,,,0,,,,,1,,0,284991,djvu,9191a868848d6f53e64ec581c86d19c4,b39d20e7172877aeae776260ba09f8f2,no,balkovskij1964_tsifrovoj_politomicheskij_kljuch,0,2000-01-01 01:00:00,2016-04-03 02:51:08,855000/9191a868848d6f53e64ec581c86d19c4-g.jpg,,
22149675,Живорождение у растений и животных: беспозвоночных и низших хордовых: Учебное пособие,,,,Батыгина Т.Б. и др.,2006,,Изд-во С.-Петербургского ун-та,Санкт-Петербург,134,0,Russian,,,0,5-288-03803-1,,,581.3+591.3,,,,,,,,0,,,,,1,,0,3446262,djvu,b9db884f3ec430b5c7366e54a533ea69,97998d90421bf6949c4b1a96a074d3f1,no,batygina2006_zhivorozhd_u_rast_i_zhiv,0,2000-01-01 01:00:00,2016-04-03 02:51:08,855000/b9db884f3ec430b5c7366e54a533ea69-g.jpg,,
22149676,"Switching Power Converters: Medium and High Power, Second Edition",,,,Dorin O. Neacsu,2013,2nd,CRC Press,,xxii+568,0,English,261,,0,"1466591927, 9781466591929",,,,,,,,EYD6AQAAQBAJ,,,0,1,1,0,1,0,1,,14082246,pdf,47a739ecfb7a42b3163ad235993e699c,,,"Neascu_Switching Power Converters - Medium and High Power, Second Edition.pdf",0,2000-01-01 01:00:00,2016-04-03 02:51:08,1169000/47a739ecfb7a42b3163ad235993e699c-d.jpg,,
22149677,"Кошки и гены [структура и функции генетического материала, методы селекции, механизмы эволюции]",,,,Бородин Павел Михайлович,2011,Изд. 3-е,URSS,Москва,132 с.,0,Russian,,,0,978-5-397-01866-1,,,636.8.082.12,,,,,,,,0,,,,,1,,0,1138512,djvu,19c12fe107175012a73e1350b0197e01,213f807298e35d938ab70a52efad8047,no,borodin2011_koshki_i_geny,0,2000-01-01 01:00:00,2016-04-03 02:51:08,855000/19c12fe107175012a73e1350b0197e01-g.jpg,,
22149678,Трематоды птиц фауны СССР: эколого-географический обзор,,,,"Быховская-Павловская, И.Е.",1962,,Изд-во Академии наук СССР,,409,0,Russian,31,,0,,,,,,,62065608,,dRZDAAAAYAAJ,,,0,,,,,1,,0,5182874,djvu,1db8246cdf5d8a25f9ccccdffa8a3982,,,bykhovskaja-pavlovskaja1962_trematody_ptits_fauny_sssr,0,2000-01-01 01:00:00,2016-04-03 02:51:08,855000/1db8246cdf5d8a25f9ccccdffa8a3982-g.jpg,,
22149679,Современное состояние эволюционного учения на Западе,,,,Лео Шйович Давиташвили,1966,,Наука,,242,0,Russian,,,0,,,,,,,,,9k9IAAAAMAAJ,,,0,,,,,1,,0,2018538,djvu,d24886a9c682ed7c5208a8890929c029,3a7339e2e1085f8edcfcf1b584bfc9ee,no,davitashvili1966_sovr_sost_evol_zap,0,2000-01-01 01:00:00,2016-04-03 02:51:08,855000/d24886a9c682ed7c5208a8890929c029-g.jpg,,
22149680,Badania dotyczące rozumu ludzkiego,,,,David Hume,2001,,Altaya,Warszawa,195,0,Polish,,,0,,,,,,,,,,,"tłum. J. Łukasiewicz, K. Twardowski",0,,,,,1,,0,1715509,djvu,199be0e9755c4db26ba25895cf29977f,1d0fb45afcb9261208bbbf22440eb9ca,no,HUME-Badania dotyczące rozumu ludzkiego,0,2000-01-01 01:00:00,2016-04-03 02:51:08,855000/199be0e9755c4db26ba25895cf29977f-g.jpg,,
22149681,Генетика кошки,,,,"О'Брайен С., Робинсон Р., Графодатский А.С. и др.",1993,,"Наука, Сиб. изд. фирма",Новосибирск,"210,[2] с.",0,Russian,22,,0,5-02-030567-7,,,636.8.082.12,,,,,,,,0,,,,,1,,0,4304130,djvu,0e4dc9abe7850c07e702766cd701457e,f63b6a3f227292f5ae2ef26eb8de94e1,no,genetika_koshki_1993,0,2000-01-01 01:00:00,2016-04-03 02:51:08,855000/0e4dc9abe7850c07e702766cd701457e-g.jpg,,
22149682,Taking Your OS X Lion to the Max,,,,"Michael Grothaus, Steve Sande, Dave Caolo",2011,1,Apress,,256,0,English,,,0,"143023668X,9781430236689",,,,,,,,,,,0,,,,,,,1,42223963,pdf,5abc04b3cb706c564ca8803571931e4f,,,Taking.Your.OS.X.Lion.to.the.Max,0,2000-01-01 01:00:00,2016-04-03 02:51:08,871000/5abc04b3cb706c564ca8803571931e4f-d.jpg,,
22149683,"Краткий определитель мохообразных Подмосковья к 100-летию Звенигородской биостанции МГУ : учебное пособие для студентов высших учебных заведений, обучающихся по направлению 020200 \Биология\"" и специальности 020201 \""Биология\""""",,,,"Е. А. Игнатова [и др.] ; с цв. фот. О. В. Иванова ; Московский гос. ун-т им. М. В. Ломоносова, Биологический фак.",2011,,Товарищество науч. изд. КМК,Москва,320 с.,0,Russian,,,0,978-5-87317-746-2,0131-1379,,,,,,,,,,0,,,,,1,,0,21078046,djvu,8589c3933ae005ed809748d6f4ddf6f0,ad2d6e066da5e2c02982f7b2fe025ae5,no,ignatova2011_kratk_opred_mokh_podmosk,0,2000-01-01 01:00:00,2016-04-03 02:51:08,855000/8589c3933ae005ed809748d6f4ddf6f0-g.jpg,,
22149684,Каталог гельминтов позвоночных Украины. Трематоды наземных позвоночных,,,,Искова Н.И. и др.,1995,,АО Золотые ворота,Киев,94,0,Russian,,,0,,,,,,,,,,,,0,,,,,1,,0,2032467,djvu,b11d0c1cdb7c15ef07c291fbfee110dd,cc96ecd370df1f3e38eab68005ea00e9,no,iskova1995_katalog_geljm_pozv_ukrainy_trematody_nazemn_pozv,0,2000-01-01 01:00:00,2016-04-03 02:51:08,855000/b11d0c1cdb7c15ef07c291fbfee110dd-g.jpg,,
22149685,Палеонтология и теория эволюции,,Труды Института Геологии и Геофизики 331,,"Ивановский, А.Б.",1976,,Издат. Сибирского Отд. АН СССР,,77,0,Russian,,,0,,,,,,,,,vcw9NAAACAAJ,,,0,,,,,1,,0,1846348,djvu,ff88eb1bfdc66258db7ce4bc4912b984,88ac10a6f1f75e16e971f003c64703e1,no,ivanovskij1976_paleont_i_teor_evol,0,2000-01-01 01:00:00,2016-04-03 02:51:08,855000/ff88eb1bfdc66258db7ce4bc4912b984-g.jpg,,
22149686,Diskurso tvarka,,Atviros Lietuvos knyga,,Foucault M.,1998,,Baltos lankos,Vilnius,53,0,Lithuanian,195,,0,9986-861-71-3,1392-1673,,167/168(042.5),,,,,,,,0,1,,,,1,0,1,1566161,pdf,534521f3c6b41a53bf308a560e684b67,,,Foucault.M.-.Diskurso.tvarka.1998.LT,0,2000-01-01 01:00:00,2016-04-03 02:51:08,855000/534521f3c6b41a53bf308a560e684b67-g.jpg,,
22149687,Диоктофимидеи животных и человека и вызываемые ими заболевания:,,Основый нематодологии,,"Карманова, Е.М.",1968,,Наука,,262,0,Russian,,,0,,,,,,,,,evxcQwAACAAJ,,,0,,,,,1,,0,5577958,djvu,74243850e8f687c312309efbbf3839c8,600e523cf6f6c80ecc8161fa2505371b,no,karmanova1968_diktiofimidei_osn_nemat_20,0,2000-01-01 01:00:00,2016-04-03 02:51:08,855000/74243850e8f687c312309efbbf3839c8-g.jpg,,
22149688,Эрнст Майр и современный эволюционный синтез = Ernst Mayr and modern evolutionary synthesis,,"Выдающиеся биологи-эволюционисты / Российская акад. наук, Зоологический ин-т, Санкт-Петербургский фил. Ин-та истории естествознания и техники им. С. И. Вавилова",,"Колчинский, Эдуард Израилевич",2006,,Товарищество науч. изд. КМК,Москва,"147, [2] с., [4] л. ил., портр.",0,Russian,,,0,5-87317-245-5,,,575.8,,,,,,,,0,,,,,1,,0,1432283,djvu,4aabb2005b50170c375e654661271591,15b525cf1cf9ff233545e9aa9c84e15f,no,kolchinskij2006_mayr,0,2000-01-01 01:00:00,2016-04-03 02:51:08,855000/4aabb2005b50170c375e654661271591-g.jpg,,
22149689,Diskurso tvarka,,Atviros Lietuvos knyga,,Foucault M.,1998,,Baltos lankos,Vilnius,53,0,Lithuanian,195,,0,9986-861-71-3,1392-1673,,167/168(042.5),,,,,,,,0,,,,,0,,,120279,epub,731a06c6df891cf2bf9f55da7aeb4336,,,Foucault.M.-.Diskurso.tvarka.1998.LT,0,2000-01-01 01:00:00,2016-04-03 02:51:08,855000/731a06c6df891cf2bf9f55da7aeb4336-g.jpg,,
22149690,Суер-Выер Самая легкая лодка в мире ; Листобой,,Библиотека всемирной литературы,,"Коваль, Юрий Иосифович",2009,,Эксмо,Москва,"733, [1] с., [8] л. цв. ил.",0,Russian,,,0,978-5-699-38167-8,,,821.161.1-93,,,,,,,,0,,,,,1,,0,3911429,djvu,6820fc26ab2e9640ce014692e8d9e8cd,5ad5038139370f9e97b59b2d12f06ef1,no,kovalj2010_suer-vyer,0,2000-01-01 01:00:00,2016-04-03 02:51:08,855000/6820fc26ab2e9640ce014692e8d9e8cd-g.jpg,,
22149691,Краткий зоологический словарь,,,,"Александр Павлович Крапивный, Всеволод Анатольевич Радкевич, Нина Ивановна Тихонова",1982,,Вышэйшая школа,,131,0,Russian,322,,0,,,,,,,,,,,,0,,,,,1,,0,15001700,djvu,47036c1b58994f75d3053e14f43f9606,717653f1a4db8e5c1ba34d026370e465,no,krapivnyj1972_kratk_zool_sl,0,2000-01-01 01:00:00,2016-04-03 02:51:08,855000/47036c1b58994f75d3053e14f43f9606-g.jpg,,
22149692,Memories of the Ancient Mediterranean,I,,,Maria Regina Candido (org),2010,,NEA/UERJ,R,161,0,Portuguese,,,0,978-85060538-05-8,,,,,,,,,,,0,,,,,1,,1,15378703,pdf,0ce3c0041d6185fa1cc627c3d2d3da85,,,Memories of the Ancient Mediterranean,0,2000-01-01 01:00:00,2016-04-03 02:51:08,855000/0ce3c0041d6185fa1cc627c3d2d3da85-g.jpg,,
22149693,Qualitative Data Analysis: An Expanded Sourcebook,,,,"Matthew B. Miles, A. Michael Huberman",1994,2nd,"Sage Publications, Inc",,352,0,English,,,0,"0803946538,9780803946538",,,,,,,,,,,0,,,,,1,,0,26660887,pdf,6e75fdfd82f4264b6b51e3b6897c8fb1,,,"Qualitative Data Analysis 2nd ed - M. Miles, A. Huberman (Sage, 1994) WW",0,2000-01-01 01:00:00,2016-04-03 02:51:08,855000/6e75fdfd82f4264b6b51e3b6897c8fb1-g.jpg,,
22149694,Special Edition Using Microsoft Office 2007,,,,"Ed Bott, Woody Leonhard",2006,1,QUE,,1056,0,English,,,0,,,B000OZ0NEO,,,,,,,,,0,,,,,1,,1,36302983,pdf,72c31db58b6740905b3ba8bdcc37be08,,,"Special Edition Using Microsoft Office 2007_ Ed Bott, Woody Leonhard (Que, 2007)",0,2000-01-01 01:00:00,2016-04-03 02:51:08,855000/72c31db58b6740905b3ba8bdcc37be08-d.jpg,,
22149695,SQL for Microsoft Access,,Wordware Applications Library,,Cecelia L. Allison,2005,,"Wordware Publishing, Inc.",,368,0,English,76,,0,"1556220928,9781556220920",,,,,,,,,,,0,,,,,1,,1,7744056,pdf,55d81288a78af460249dcd2dc9a9dd27,,,"SQL for Microsoft Access_ Cecelia L. Allison, Neal A. Berkowitz (Wordware, 2005)",0,2000-01-01 01:00:00,2016-04-03 02:51:08,855000/55d81288a78af460249dcd2dc9a9dd27-d.jpg,,
22149696,SQL Pocket Guide,,Pocket Guides,,Jonathan Gennick,2010,Third Edition,O'Reilly Media,,206,0,English,76,,0,"1449394094,9781449394097",,,,,,,,,,,0,,,,,1,,1,1613757,pdf,ecdfc293d67a2f5a38e0df75394ea993,,,"SQL Pocket Guide 3rd ed - J. Gennick (O__039;Reilly, 2011) WW",0,2000-01-01 01:00:00,2016-04-03 02:51:08,855000/ecdfc293d67a2f5a38e0df75394ea993-d.jpg,,
22149697,SQL Server Tacklebox - Essential tools and scripts for the day-to-day DBA,,,,"Rodney Landrum, Davis Tony",2009,,Red gate books,,250,0,English,76,,0,"1906434255,9781906434250,978-1-906434-24-3",,,,,,,,,,,0,,,,,1,,1,7961388,pdf,62d8dd6f204b92bb66add7e2ceaa9288,,,"SQL Server Tacklebox - Essential Tools, Scripts for the Day-to-Day DBA - R. Landrum (2009) WW",0,2000-01-01 01:00:00,2016-04-03 02:51:08,855000/62d8dd6f204b92bb66add7e2ceaa9288-d.jpg,,
22149698,Sams Teach Yourself Microsoft Office 2007 All in One,,,,Greg Perry,2007,1,QUE,,672,0,English,,,0,,,,,,,,,,,,0,,,,,1,,1,37464209,pdf,573ddbe0a92605a2f11d1951714138d0,,,"Teach Yourself Microsoft Office 2007 All In One_ Greg Perry (Sams, 2007)",0,2000-01-01 01:00:00,2016-04-03 02:51:08,855000/573ddbe0a92605a2f11d1951714138d0-d.jpg,,
22149699,The Army Command Post and Defense Reshaping 1987-1997,,,,"Sherry, M.D. and Bernan and Center of Military History (U.S. Army)",2008,,United States Department of Defense,,243,0,English,,,0,9780160799358,,,,,,,,DXI64Q4ZohAC,,,0,,,,,1,,1,2347430,pdf,94f897ebaf017f2e6981e95dea21b971,,,"The Army Cmd Post and Def. Reshaping 1987-1997 - M. Sherry (US Army Ctr of Mil Hist, 2008) WW",0,2000-01-01 01:00:00,2016-04-03 02:51:08,855000/94f897ebaf017f2e6981e95dea21b971-g.jpg,,
22149700,The Lorraine Campaign,,,,H. M. Cole,1950,,US Army Ctr of Mil Hist,,734,0,English,,,0,,,,,,,,,,,,0,,,,,1,,1,34896957,pdf,beabe491b6bd3673a0edcac151c9f518,,,"The Lorraine Campaign - H. Cole (US Army Ctr of Mil Hist, 1950) WW",0,2000-01-01 01:00:00,2016-04-03 02:51:08,855000/beabe491b6bd3673a0edcac151c9f518-g.jpg,,
22149701,The medical department: medical service in the European theater of operations,,United States Army in World War II,,"Cosmas, G.A. and Cowdrey, A.E. and Center of Military History",1991,,"Center of Military History, United States Army",,675,0,English,,,0,,,,,,,90002452,,rJmmnRCr2TsC,,,0,,,,,1,,1,32240012,pdf,0d7f7580223d66d8577eca8bcb7841aa,,,"The Med Dept - Med Svc in the European Theater - G. Cosmas, et al., (US Army Ctr of Mil Hist, 1991) WW",0,2000-01-01 01:00:00,2016-04-03 02:51:08,855000/0d7f7580223d66d8577eca8bcb7841aa-g.jpg,,
22149702,The medical department: Medical service in the war against Japan,,,,Mary Ellen Condon-Rall,1998,,University of Michigan Library,,520,0,English,,,0,,,B002YGSJLU,,,,,,,,,0,,,,,1,,1,6589439,pdf,32bfb50e2166c61bf1e5e73fac5c9959,,,"The Med Dept - Med Svc in the War Against Japan - M. Condon-Rall, et al., (US Army Ctr of Mil Hist, 1998) WW",0,2000-01-01 01:00:00,2016-04-03 02:51:08,855000/32bfb50e2166c61bf1e5e73fac5c9959-d.jpg,,
22149703,"Cruising Attitude: Tales of Crashpads, Crew Drama, and Crazy Passengers at 35,000 Feet",,,,Heather Poole,2012,Original,William Morrow Paperbacks,,272,0,English,,,0,"0061986461,9780061986468",,,,,,,,,,,0,,,,,1,,,839961,epub,ef9c63c49c8fefa432fc5473edbdad49,,,0061986461CruisingAttitude,0,2000-01-01 01:00:00,2016-04-03 02:51:08,855000/ef9c63c49c8fefa432fc5473edbdad49-d.jpg,,
22149704,"Cruising Attitude: Tales of Crashpads, Crew Drama, and Crazy Passengers at 35,000 Feet",,,,Heather Poole,2012,Original,William Morrow Paperbacks,,272,0,English,,,0,"0061986461,9780061986468",,,,,,,,,,,0,,,,,1,,,989966,mobi,a1be241e6673d8e2ccde019ea5fa331d,,,0061986461CruisingAttitude,0,2000-01-01 01:00:00,2016-04-03 02:51:08,855000/a1be241e6673d8e2ccde019ea5fa331d-d.jpg,,
22149705,Duden - Das Kindergarten-Wörterbuch,,,,Holthausen Luise,2011,1,Duden,Mannheim,197,0,German,315,,0,9783411730223,,,,,,,,,,,600,1,1,0,,1,0,1,17329112,djvu,1b31483c94ac6482dd6b6b782d6fd5e6,,,"Holthausen L, et al. Duden - Das Kindergarten-Wörterbuch (Duden, 2011)(ISBN 9783411730223)(de)(600dpi)(K)(T)(197s)_LGe_",0,2000-01-01 01:00:00,2016-04-03 02:51:08,855000/1b31483c94ac6482dd6b6b782d6fd5e6-g.jpg,,
22149706,MacRuby in Action,,,,"Brendan G. Lim, Jerry Cheung, Jeremy McAnally",2012,1,Manning Publications,,272,0,English,92,,0,"1935182498,9781935182498",,,,,,,,,,,0,,,,,1,,1,19643746,pdf,56955b6604ab7df36065e716e84cd998,,,1935182498MacRu,0,2000-01-01 01:00:00,2016-04-03 02:51:08,855000/56955b6604ab7df36065e716e84cd998-d.jpg,,
22149707,MacRuby in Action,,,,"Brendan G. Lim, Jerry Cheung, Jeremy McAnally",2012,1,Manning Publications,,272,0,English,92,,0,"1935182498,9781935182498",,,,,,,,,,,0,,,,,1,,,7286924,epub,da60ace9adcb83d6533baad3d5ab8fc1,,,1935182498MacRu,0,2000-01-01 01:00:00,2016-04-03 02:51:08,855000/da60ace9adcb83d6533baad3d5ab8fc1-d.jpg,,
22149708,"Sex with Kings: 500 Years of Adultery, Power, Rivalry, and Revenge",,,,Eleanor Herman,2004,,William Morrow,,304,0,English,,,0,"0060585439,9780060585433",,,,,,,,,,,0,,,,,1,,,733558,mobi,620a93fc9819655168eb9a2804efda07,,,0060585439SexKings,0,2000-01-01 01:00:00,2016-04-03 02:51:08,855000/620a93fc9819655168eb9a2804efda07-d.jpg,,
22149709,"Sex with Kings: 500 Years of Adultery, Power, Rivalry, and Revenge",,,,Eleanor Herman,2004,,William Morrow,,304,0,English,,,0,"0060585439,9780060585433",,,,,,,,,,,0,,,,,1,,,660997,epub,1595c56f8215815b26baa029c674aaa3,,,0060585439SexKings,0,2000-01-01 01:00:00,2016-04-03 02:51:08,855000/1595c56f8215815b26baa029c674aaa3-d.jpg,,
22149710,Stuffed and Starved,,,,Raj Patel,2008,,HarperCollins,,438,0,English,,,0,"0002008114,9780002008112",,,,,,,,,,,0,,,,,1,,,1858674,epub,2d3325634d9d058e916d0add5643d34b,,,Stuffed and Starved,0,2000-01-01 01:00:00,2016-04-03 02:51:08,855000/2d3325634d9d058e916d0add5643d34b-d.jpg,,
22149711,It Worked for Me: In Life and Leadership,,,,"Colin Powell, Tony Koltz",2012,1,Harper,,304,0,English,,,0,"0062135120,9780062135124",,,,,,,,,,,0,,,,,1,,,429339,mobi,30d82bfcc63421dd4171f6421baecd9a,,,0062135120ItWorkedForMe,0,2000-01-01 01:00:00,2016-04-03 02:51:08,855000/30d82bfcc63421dd4171f6421baecd9a-d.jpg,,
22149712,"Perdurabo, Revised and Expanded Edition: The Life of Aleister Crowley",,,,Richard Kaczynski,2010,Rev Exp,North Atlantic Books,,720,0,English,,,0,"1556438990,9781556438998",,,,,,,,,,,0,,,,,1,,,10381479,epub,c041965e059d77a5383cf8bf76a1e92a,,,Perdurabo,0,2000-01-01 01:00:00,2016-04-03 02:51:08,855000/c041965e059d77a5383cf8bf76a1e92a-d.jpg,,
22149713,"Perdurabo, Revised and Expanded Edition: The Life of Aleister Crowley",,,,Richard Kaczynski,2010,Rev Exp,North Atlantic Books,,720,0,English,,,0,"1556438990,9781556438998",,,,,,,,,,,0,,,,,1,,,10680096,mobi,47489ad8bb2442b5a21562ec801d0ce0,,,Perdurabo,0,2000-01-01 01:00:00,2016-04-03 02:51:08,855000/47489ad8bb2442b5a21562ec801d0ce0-d.jpg,,
22149714,"Kasher in the Rye: The True Tale of a White Boy from Oakland Who Became a Drug Addict, Criminal, Mental Patient, and Then Turned 16",,,,Moshe Kasher,2012,1,Grand Central Publishing,,320,0,English,,,0,"0446584266,9780446584265",,,,,,,,,,,0,,,,,1,,,2050177,epub,e2dce1d4d36e54f240f358803a2d12fd,,,0446584266kASHERrYE,0,2000-01-01 01:00:00,2016-04-03 02:51:08,855000/e2dce1d4d36e54f240f358803a2d12fd-d.jpg,,
22149715,"Kasher in the Rye: The True Tale of a White Boy from Oakland Who Became a Drug Addict, Criminal, Mental Patient, and Then Turned 16",,,,Moshe Kasher,2012,1,Grand Central Publishing,,320,0,English,,,0,"0446584266,9780446584265",,,,,,,,,,,0,,,,,1,,,2447924,mobi,5678df78063a3cd7b1524557f313378d,,,0446584266kASHERrYE,0,2000-01-01 01:00:00,2016-04-03 02:51:08,855000/5678df78063a3cd7b1524557f313378d-d.jpg,,
22149716,When God Talks Back: Understanding the American Evangelical Relationship with God,,,,T.M. Luhrmann,2012,,Knopf,,464,0,English,,,0,"0307264793,9780307264794",,,,,,,,,,,0,,,,,1,,,2371618,epub,257bfe8848da1944d22ae53b445c0119,,,0307264793WhenGodTalksBack,0,2000-01-01 01:00:00,2016-04-03 02:51:08,855000/257bfe8848da1944d22ae53b445c0119-d.jpg,,
22149717,When God Talks Back: Understanding the American Evangelical Relationship with God,,,,T.M. Luhrmann,2012,,Knopf,,464,0,English,,,0,"0307264793,9780307264794",,,,,,,,,,,0,,,,,1,,,1386222,mobi,be5389ff2509d912b6237e491190ceae,,,0307264793WhenGodTalksBack,0,2000-01-01 01:00:00,2016-04-03 02:51:08,855000/be5389ff2509d912b6237e491190ceae-d.jpg,,
22149718,A Brief History of Britain 1485-1660: The Tudor and Stuart Dynasties,,Brief Histories,,Ronald Hutton,2011,,Robinson,,352,0,English,,,0,"1845297040,9781845297046",,,,,,,,,,,0,,,,,1,,,447727,epub,e88ee86f77a7f5af1c0483101cd5c48f,,,1845297040BriefHistoryBritain1485-1660,0,2000-01-01 01:00:00,2016-04-03 02:51:08,855000/e88ee86f77a7f5af1c0483101cd5c48f-d.jpg,,
22149719,A Brief History of Britain 1485-1660: The Tudor and Stuart Dynasties,,Brief Histories,,Ronald Hutton,2011,,Robinson,,352,0,English,,,0,"1845297040,9781845297046",,,,,,,,,,,0,,,,,1,,,714008,mobi,713e4f925400c4070581c6d2b155d630,,,1845297040BriefHistoryBritain1485-1660,0,2000-01-01 01:00:00,2016-04-03 02:51:08,855000/713e4f925400c4070581c6d2b155d630-d.jpg,,
22149720,Microwave Engineering,,,,Pozar David M.,2012,4th,"John Wiley & Sons, Inc",,756,0,English,,,0,978-0-470-63155-3,,,,,,,,,,"Pozar's new edition ofMicrowave Engineeringincludes more material on active circuits, noise, nonlinear effects, and wireless systems. Chapters on noise and nonlinear distortion, and active devices have been added along with the coverage of noise and more material on intermodulation distortion and related nonlinear effects. On active devices, there's more updated material on bipolar junction and field effect transistors.",0,0,,,1,0,1,1,15914862,pdf,53b65fb687d04417aa2d723da607b411,,,"Pozar - Microwave Engineering (4ed,Wiley,2012)",0,2000-01-01 01:00:00,2016-04-03 02:51:08,855000/53b65fb687d04417aa2d723da607b411-g.jpg,,
22149721,"Жизнь Петра Ильича Чайковского, В 3 т.",Том 1,"Жизнь Петра Ильича Чайковского, , В 3 т., Гений в искусстве",,"Чайковский, Модест Ильич",,,"ТОО \Алгоритм\"""," АО \""Арт-бизнес-центр\"""," Гений в искусстве""",М.,"593,[23] с.",0,Russian,61,,0,5-88878-007-3,,,"78.071.1, 929Чайковский",,,,,,,,0,,,,,1,,0,33661229,pdf,1fe67d4e402d7a8b04c8ae3fcb589806,,,Чайковский М. Жизнь П. И. Чайковского. Том 1,0,2000-01-01 01:00:00,2016-04-03 02:51:08,855000/1fe67d4e402d7a8b04c8ae3fcb589806-g.jpg
22149722,"Жизнь Петра Ильича Чайковского, В 3 т.",Том 2,Гений в искусстве,,"Чайковский, Модест Ильич",1997,,"ТОО \Алгоритм\"""," АО \""Арт-бизнес-центр\"""," Гений в искусстве""",М.,608,0,Russian,61,,0,5-88878-007-3,,,"78.071.1, 929Чайковский",,,,,,,,0,,,,,1,,0,25729981,pdf,d7a1d5c14908468083d985b3ad613887,,,Чайковский М. Жизнь П. И. Чайковского. Том 2,0,2000-01-01 01:00:00,2016-04-03 02:51:08,855000/d7a1d5c14908468083d985b3ad613887-g.jpg
22149723,Mr Briggs' Hat: The True Story of a Victorian Railway Murder,,,,Kate Colquhoun,2011,First Edition,Little Brown and Company,,339,0,English,,,0,"1847443699,9781847443694",,,,,,,,,,,0,,,,,1,,,2554605,epub,2981b8330ff45b7078a55cf77a77f98f,,,1847443699MrBriggsHat,0,2000-01-01 01:00:00,2016-04-03 02:51:08,855000/2981b8330ff45b7078a55cf77a77f98f-d.jpg,,
22149724,"Жизнь Петра Ильича Чайковского, В 3 т.",Том 3,Гений в искусстве,,"Чайковский, Модест Ильич",1997,,"ТОО \Алгоритм\"""," АО \""Арт-бизнес-центр\"""," Гений в искусстве""",М.,617,0,Russian,61,,0,5-88878-007-3,,,"78.071.1, 929Чайковский",,,,,,,,0,,,,,1,,0,19531170,pdf,254a30c475f90baf4308a44862c9aff0,,,Чайковский М. Жизнь П. И. Чайковского. Том 3,0,2000-01-01 01:00:00,2016-04-03 02:51:08,855000/254a30c475f90baf4308a44862c9aff0-g.jpg
22149725,A la Recherche de la Topologie Perdue: I. Du côté de chez Rohlin. II. Le côté de Casson,,Progress in Mathematics 62,,"Lucien Guillou,  Alexis Marin",1985,,Birkhäuser Boston,,274,0,"French,English",,,0,"0817633294,9780817633295",,,,,,,,,,,300,,,,,1,,1,2814774,djvu,b47f722f31c47501c298fed10c6ef3d5,,,PIM 62 - Topologie Perdue,0,2000-01-01 01:00:00,2016-04-03 02:51:08,855000/b47f722f31c47501c298fed10c6ef3d5-g.jpg,,
22149726,"Integrative Musikwahrnehmung nach Gregor Peters-Rey®: Durch Vorstellungs- und Wahrnehmungsübungen zu Ihrem ganz individuellen, neuen Zugang zur Musik",,,,Gregor Peters,2007,1,Books on Demand,,112,0,German,61,,0,"3837006115,9783837006117",,,,,,,,,,,0,,,,,1,,1,355414,pdf,7e53bc0ea1ca1d5b896c351613939168,,,Peters G. Интегральное восприятие музыки,0,2000-01-01 01:00:00,2016-04-03 02:51:08,855000/7e53bc0ea1ca1d5b896c351613939168-d.jpg,,
22149727,Music Notation in the Twentieth Century: A Practical Guidebook,,,,Kurt Stone,1980,1st,W. W. Norton & Company,,384,0,English,61,,0,"0393950530,9780393950533",,,,,,,,,,,0,,,,,1,,0,9914914,pdf,b867e5d786e5544874d40f7e1007fc56,,,Stone K. Music Notation in the Twentieth Century,0,2000-01-01 01:00:00,2016-04-03 02:51:08,855000/b867e5d786e5544874d40f7e1007fc56-d.jpg,,
22149728,MR Briggs' Hat: The True Story of a Victorian Railway Murder,,,,Kate Colquhoun,2011,First Edition,Little Brown and Company,,339,0,English,,,0,"1847443699,9781847443694",,,,,,,,,,,0,,,,,1,,,2801314,mobi,a341461251e1887605dae6234481aa91,,,1847443699MrBriggsHat,0,2000-01-01 01:00:00,2016-04-03 02:51:08,855000/a341461251e1887605dae6234481aa91-d.jpg,,
22149729,Теодор В. Адорно. Избранное: социология музыки,,,,Теодор В. Адорно,1999,,Университетская книга,Москва,378,0,Russian,61,,0,5-7914-0041-1,,,,,,,,,,,0,,,,,1,,1,2930215,pdf,d81c2d84eaa9912222179ece70fa7a80,,,Адорно. Социология музыки,0,2000-01-01 01:00:00,2016-04-03 02:51:08,855000/d81c2d84eaa9912222179ece70fa7a80-d.jpg,,
22149730,Традиционные музыкальные инструменты и музыкальное мышление,,,,Альбьева А.Г.,2011,,,Краснодар,22,0,Russian,61,,0,978-5-94825-064-9,,,,,,,,,,,0,,,,,1,,0,24200375,pdf,4ba9274f0fa774f8462e67a567114991,,,Альбьева А. Традиционные музыкальные инструменты и музыкальное мышление,0,2000-01-01 01:00:00,2016-04-03 02:51:08,855000/4ba9274f0fa774f8462e67a567114991-g.jpg,,
22149731,История кастратов,,,,"Барбиер, П.",2006,,Издательство Ивана Лимбаха,,176,0,Russian,61,,0,9785890590763,,,,,,,,XhxUMQAACAAJ,,,0,,,,,1,,0,27384894,pdf,5d9c368f5dfa5cbaba06af736eda1ff4,,,Барбье П. История кастратов,0,2000-01-01 01:00:00,2016-04-03 02:51:08,855000/5d9c368f5dfa5cbaba06af736eda1ff4-g.jpg,,
22149732,The Man Versus the State,,,,Herbert Spencer,1964,,Caxton Printers,"Caldwell, Id.",229,0,English,,,0,,,,,,,,,,,,0,,,,,1,,1,15012575,pdf,c8c7e21fb7ada062dd764a14d1cfff18,,,The Man versus the State,0,2000-01-01 01:00:00,2016-04-03 02:51:08,855000/c8c7e21fb7ada062dd764a14d1cfff18-d.jpg,,
22149733,"The Psychedelic Explorer's Guide: Safe, Therapeutic, and Sacred Journeys",,,,James Fadiman,2011,,Park Street Press,,352,0,English,,,0,1594774021,,,,,,,,,,,0,,,,,,,,1616451,epub,ade20bab0080b40ada8413f2d12bdda2,,,"The Psychedelic Explorer__039;s Guide - Safe, Therapeutic, and Sacred Journeys",0,2000-01-01 01:00:00,2016-04-03 02:51:08,934000/ade20bab0080b40ada8413f2d12bdda2-d.jpeg,,
22149734,Обучение  студентов технике музыкально-педагогического общения,,,,Байбикова Г.В.,2006,,,Белгород,226,0,Russian,61,,0,,,,,,,,,,,,0,,,,,1,,1,1993095,pdf,e22756e7deb811684d87ac9fb163a60d,,,Байбикова. Обучение музыкантов технике музыкально-педагогического общения,0,2000-01-01 01:00:00,2016-04-03 02:51:08,855000/e22756e7deb811684d87ac9fb163a60d-g.jpg,,
22149735,The Man Versus the State,,,,Herbert Spencer,2009,,Liberty Fund Inc.,,550,0,English,,,0,"0913966983,9780913966983",,,,,,,,,,,0,,,,,1,,,547011,epub,c3d30ff97192b3c0a3990645bcd2b733,,,The Man versus the State,0,2000-01-01 01:00:00,2016-04-03 02:51:08,855000/c3d30ff97192b3c0a3990645bcd2b733-d.jpg,,
22149736,A Brief History of Britain 1066 - 1485,,Brief Histories,,Nicholas Vincent,2011,,Robinson,,352,0,English,,,0,"1845293967,9781845293963",,,,,,,,,,,0,,,,,1,,,1039140,epub,9a6bf070b08dee82fdc210ce3e8e7f4c,,,1845293967BriefHistoryBritain1066-1845,0,2000-01-01 01:00:00,2016-04-03 02:51:08,855000/9a6bf070b08dee82fdc210ce3e8e7f4c-d.jpg,,
22149737,Музыка языком звуков,,,,Арконкур Николаус.,,,,,100,0,Russian,61,,0,,,,,,,,,,,,0,,,,,1,,1,2250899,pdf,22da003e3432d901050bd1f7bbeb0df4,,,Арнонкус Николаус. Музыка языком звуков,0,2000-01-01 01:00:00,2016-04-03 02:51:08,855000/22da003e3432d901050bd1f7bbeb0df4-g.jpg,,
22149738,A Brief History of Britain 1066 - 1485,,Brief Histories,,Nicholas Vincent,2011,,Robinson,,352,0,English,,,0,"1845293967,9781845293963",,,,,,,,,,,0,,,,,1,,,1605372,mobi,d8d5a73cae530cd01b7fccc3cda87cff,,,1845293967BriefHistoryBritain1066-1845,0,2000-01-01 01:00:00,2016-04-03 02:51:08,855000/d8d5a73cae530cd01b7fccc3cda87cff-d.jpg,,
22149739,A Brief History of Britain 1851-2010,,Brief Histories,,Jeremy Black,2011,,Robinson,,368,0,English,,,0,"1845297008,9781845297008",,,,,,,,,,,0,,,,,1,,,450881,epub,a91583cb2e4d41ecda6c78042df62700,,,1845297008BrifHistoryBritain,0,2000-01-01 01:00:00,2016-04-03 02:51:08,855000/a91583cb2e4d41ecda6c78042df62700-d.jpg,,
22149740,A Brief History of Britain 1851-2010,,Brief Histories,,Jeremy Black,2011,,Robinson,,368,0,English,,,0,"1845297008,9781845297008",,,,,,,,,,,0,,,,,1,,,668040,mobi,8aa6275bdce3a38d4865a4c07db96d90,,,1845297008BrifHistoryBritain,0,2000-01-01 01:00:00,2016-04-03 02:51:08,855000/8aa6275bdce3a38d4865a4c07db96d90-d.jpg,,
22149741,The Art of Coercion: The Primitive Accumulation and Management of Coercive Power,,Columbia/Hurst,,Antonio Giustozzi,2011,,Columbia University Press,,256,0,English,,,0,"023170240X,9780231702409",,,,,,,,,,,0,,,,,1,,1,3240430,pdf,dcdc99b4e41ddb1ea1130d4968672143,,,Giustozzi-Antonio-Art-Coercion-Primitive-Accumulation-and-Management-Coercive-Power,0,2000-01-01 01:00:00,2016-04-03 02:51:08,855000/dcdc99b4e41ddb1ea1130d4968672143-d.jpg,,
22149742,The darker nations: a people's history of the third world,,A New Press People's history,,Vijay Prashad,2008,,The New Press,,364,0,English,,,0,"1595583424,9781595583420,9781595585639",,,,,909'.09724-dc22,D883.P74 2007,,m0PTWyWBc30C,,,0,,,,,0,0,1,3798069,pdf,9b40b96e830128a7fe0e0e887c06829f,,,Prashad-Vijay-Darker-Nations-Peoples-History-Third-World,0,2000-01-01 01:00:00,2016-04-03 02:51:08,855000/9b40b96e830128a7fe0e0e887c06829f-d.jpg,,
22149743,A Brief History of Roman Britain,,Brief Histories,,J.P. Alcock,2011,,Robinson,,320,0,English,,,0,"1845297288,9781845297282",,,,,,,,,,,0,,,,,1,,,1302820,epub,55a27cc7ed7b65995a95a1f8eabef29d,,,1845297288BriefHistoryRomanBritain,0,2000-01-01 01:00:00,2016-04-03 02:51:08,855000/55a27cc7ed7b65995a95a1f8eabef29d-d.jpg,,
22149744,A Brief History of Roman Britain,,Brief Histories,,J.P. Alcock,2011,,Robinson,,320,0,English,,,0,"1845297288,9781845297282",,,,,,,,,,,0,,,,,1,,,2197136,mobi,5f56b2ca4a900957bd3cae79b81a6484,,,1845297288BriefHistoryRomanBritain,0,2000-01-01 01:00:00,2016-04-03 02:51:08,855000/5f56b2ca4a900957bd3cae79b81a6484-d.jpg,,
22149745,A Brief History of Britain 1660 - 1851,,Brief Histories,,William Gibson,2011,,Robinson,,368,0,English,,,0,"1845297156,9781845297152,1849018159",,,,,,,,,,,0,,,,,1,,,642003,mobi,ce8d49128128e9667c5422c5060e83b8,,,1849018159BriefHistoryBritain,0,2000-01-01 01:00:00,2016-04-03 02:51:08,855000/ce8d49128128e9667c5422c5060e83b8-d.jpg,,
22149746,A Brief History of Britain 1660 - 1851,,Brief Histories,,William Gibson,2011,,Robinson,,368,0,English,,,0,"1845297156,9781845297152",,,,,,,,,,,0,,,,,1,,,455144,epub,44a4fe38ace8446fb8cea35ecb7ddbaa,,,1849018159BriefHistoryBritain,0,2000-01-01 01:00:00,2016-04-03 02:51:08,855000/44a4fe38ace8446fb8cea35ecb7ddbaa-d.jpg,,
22149747,"Séminaire de Théorie des Nombres,  Paris 1984-85",,Progress in Mathematics 63,,"Catherine Goldstein,  editor",1986,,Birkhauser Verlag AG,,264,0,"French,English",,,0,"3764333472,9783764333478",,,,,,,,,,,300,,,,,1,,1,2092735,djvu,45d1b3fbdf819578160a8f7bceb00a74,,,PIM 63 - STN,0,2000-01-01 01:00:00,2016-04-03 02:51:08,855000/45d1b3fbdf819578160a8f7bceb00a74-g.jpg,,
22149748,From the Universe to the Elementary Particles: A First Introduction to Cosmology and the Fundamental Interactions,,Undergraduate Lecture Notes in Physics,,Ulrich Ellwanger (auth.),2012,1,Springer-Verlag Berlin Heidelberg,,192,0,English,,,0,"3642243746,9783642243745,978-3-642-24375-2",,,,,,,10.1007/978-3-642-24375-2,,,,0,,,,,1,,1,2991725,pdf,f243cd8162812c14581248a5caeae175,,,"From the Universe to the Elementary Particles - U. Ellwanger (Springer, 2012) WW",0,2000-01-01 01:00:00,2016-04-03 02:51:08,855000/f243cd8162812c14581248a5caeae175-d.jpg,,
22149749,Теория алгорифмов,,,,"Марков А.А., Нагорный Н.М.",1984,,Наука,Москва,432,0,Russian,,,0,,,,517,22.12,,,,,,,300,,1,0,,1,,1,4107663,djvu,beaa8ef7e0a049d5dbfc71449a8bf94c,,,"Марков А. А., Нагорный Н. М. - Теория алгорифмов",0,2000-01-01 01:00:00,2016-04-03 02:51:08,855000/beaa8ef7e0a049d5dbfc71449a8bf94c-g.jpg,,
22149750,Expected Returns: An Investor's Guide to Harvesting Market Rewards,,The Wiley Finance Series,,Antti Ilmanen,2011,1,Wiley,,592,0,English,306,,0,"1119990726,9781119990727",,,,,,,,,,,0,,,,,1,,,5014894,epub,4c0cb234a03b0edde20fa3c64596861a,,,"Expected Returns_ An Investor__039;s Guide to - Ilmanen, Antti",0,2000-01-01 01:00:00,2016-04-03 02:51:08,855000/4c0cb234a03b0edde20fa3c64596861a-d.jpg,,
22149751,Ką visa tai reiškia? Labai trumpas įvadas į filosofiją,,Atviros Lietuvos knyga,,Nagel T.,2001,,Baltos lankos,Vilnius,87,0,Lithuanian,195,,0,9955-429-34-8,1392-1673,,1(091),,,,,,,,0,1,,0,,1,1,1,2849162,pdf,926a3227fb82ed9f22b7f312685d6654,,,Nagel.T.-.Ka.visa.tai.reiskia.2001.LT,0,2000-01-01 01:00:00,2016-04-03 02:51:08,855000/926a3227fb82ed9f22b7f312685d6654-g.jpg,,
22149752,Das Controllability-Prinzip im Spannungsfeld von Theorie und Praxis : eine empirischce Untersuchung zur Verantwortung von Managern,,"Gabler Edition Wissenschaft., Research in management accounting & control",,Clemens Pelster,2007,,Deutscher Universitäts-Verlag,Wiesbaden,375,0,German,,usenet,to 2012-06,"9783835092358,3835092359",,,,,,,,,,,0,,,,,,,1,19642400,pdf,c71b19032a977bc4308943620131f023,,,I:\\usenet_ger\\Das.Controllability-Prinzip.im.Spannungsfeld.von.Theorie.und.Praxis.[Springer].[2007].[h76824].pdf,0,2000-01-01 01:00:00,2016-04-03 02:51:08,882000/c71b19032a977bc4308943620131f023-g.jpg,,
22149753,War: The Lethal Custom,,,,Gwynne Dyer,2006,,Basic Books,,496,0,English,,,0,"0786717718,9780786717712",,,,,,,,,,,0,,,,,1,,,11608674,epub,d3fcc67242e6b3de3e170ebb77a70043,,,0786717718War,0,2000-01-01 01:00:00,2016-04-03 02:51:08,855000/d3fcc67242e6b3de3e170ebb77a70043-d.jpg,,
22149754,Advanced Polymer Processing Operations,,,,Nicholas P. Cheremisinoff,1998,1,Noyes Publication,,298,0,English,,,0,"0815514263,9780815514268",,,,,,,,,,,0,,,,,1,,1,12482408,pdf,a1942e8724e66bd76e728181761e88a7,,,"Advanced Polymer Processing Operations - N. Cheremisinoff (Noyes, 1998) WW",0,2000-01-01 01:00:00,2016-04-03 02:51:08,855000/a1942e8724e66bd76e728181761e88a7-d.jpg,,
22149755,Tubes,,Progress in Mathematics 221,,"Gray, A.",2004,second,Birkhauser,"Basel, Switzerland",13+280,0,English,,,0,978-3-7643-6907-1,,3764369078,,,,,,kDNLR_a51jMC,,,400,0,,0,1,1,1,0,14065933,pdf,3e4ba6b366071cb846ce9b12a2379439,,,Gray 2004 - Tubes,0,2000-01-01 01:00:00,2016-04-03 02:51:08,855000/3e4ba6b366071cb846ce9b12a2379439-g.jpg,,
22149756,Angelhead: My Brother's Descent into Madness,,,,Greg Bottoms,2005,,University Of Chicago Press,,227,0,English,,,0,"0226067645,9780226067643",,,,,,,,,,,0,,,,,1,,,180732,epub,66a2c74c11c0fe572af5f1b20f9d811a,,,0226067645Angelhead,0,2000-01-01 01:00:00,2016-04-03 02:51:08,855000/66a2c74c11c0fe572af5f1b20f9d811a-d.jpg,,
22149757,Angelhead: My Brother's Descent into Madness,,,,Greg Bottoms,2005,,University Of Chicago Press,,227,0,English,,,0,"0226067645,9780226067643",,,,,,,,,,,0,,,,,1,,,258548,mobi,1600814b8f7c76d6f4468f537728f0b8,,,0226067645Angelhead,0,2000-01-01 01:00:00,2016-04-03 02:51:08,855000/1600814b8f7c76d6f4468f537728f0b8-d.jpg,,
22149758,The Family: The Real Story of the Bush Dynasty,,,,Kitty Kelley,2004,,Doubleday,,736,0,English,,,0,"0385503245,9780385503242",,,,,,,,,,,0,,,,,1,,,5667708,epub,85ec0f889d6f68db3ebe2a44d7db94ac,,,0385503245Family,0,2000-01-01 01:00:00,2016-04-03 02:51:08,855000/85ec0f889d6f68db3ebe2a44d7db94ac-d.jpg,,
22149759,Upgrading and Repairing PCs,,,,Scott Mueller,2002,14th Edition,Que,,1605,0,English,,,0,"0789727455,9780789727459",,,,,,,,,,,0,,,,,1,,1,62878918,pdf,7e89cfbdb9cc54d5a036fae5e3fd157b,,,"Upgrading and Repairing PCs, Fourteenth Edition_ Scott Mueller (Que, 2003)",0,2000-01-01 01:00:00,2016-04-03 02:51:08,855000/7e89cfbdb9cc54d5a036fae5e3fd157b-d.jpg,,
22149760,Malcev-Admissible Algebras,,Progress in Mathematics 64,,Hyo Chul Myung,1986,,Birkhäuser Boston,,376,0,English,,,0,"0817633456,9780817633455",,,,,,,,,,,300,,,,,1,,1,2698774,djvu,62568b0fcd96d7ebd275e203567bb983,,,PIM 64 - Malcev algebras,0,2000-01-01 01:00:00,2016-04-03 02:51:08,855000/62568b0fcd96d7ebd275e203567bb983-g.jpg,,
22149761,Powerplant Technology,,,,"El Wakil M M, M. M. El-Wakil",1984,,McGraw-Hill Companies,,544,0,English,210,,0,"007019288X,9780070192881",,,,,,,,,,,0,,,,,1,,0,25221679,pdf,709b579ac83dfe2b9300a36f8ca03e4a,,,Power Plant Technology,0,2000-01-01 01:00:00,2016-04-03 02:51:08,855000/709b579ac83dfe2b9300a36f8ca03e4a-d.jpg,,
22149762,Design of Electrical Services for Buildings,,,,F. Porges,1998,3,Routledge,,352,0,English,210,,0,"0419145907,9780419145905",,,,,,,,,,,0,,,,,1,,0,9543768,pdf,d3e1b6fc7053eac49329341725a0b7be,,,The Design of Electrical services in Buildings,0,2000-01-01 01:00:00,2016-04-03 02:51:08,855000/d3e1b6fc7053eac49329341725a0b7be-d.jpg,,
22149763,"Station Planning and Design, Volume Volume A, Third Edition",,British Electricity International,,"P.C. Martin, I.W. Hannah",1992,3,Pergamon,,331,0,English,210,,0,"0080405118,9780080405117",,,,,,,,,,,0,,,,,1,,0,15020203,pdf,0ffb3ff9b5d320638a789409c43b6790,,,Vol-A,0,2000-01-01 01:00:00,2016-04-03 02:51:08,855000/0ffb3ff9b5d320638a789409c43b6790-d.jpg,,
22149764,L'architecture du divin. Mathematique et philosophie chez Plotin et Proclus,,,,Annick Charles-Saget,1982,,Les Belles Lettres,Paris,345,0,French,195,,0,,,,,,,,,,,,0,,,,,1,,1,7496824,pdf,89a0ae4a4cd5e446ca7b4ee47f729f2f,,,CHARLES-SAGET-L__039;architecture du divin-Paris 1982,0,2000-01-01 01:00:00,2016-04-03 02:51:08,855000/89a0ae4a4cd5e446ca7b4ee47f729f2f-g.jpg,,
22149765,Not Fade Away: The Life and Music of Buddy Holly,,,,John R. Gribbin,2012,2nd Revised edition,Icon Books,,240,0,English,,,0,"1848313837,9781848313835",,,,,,,,,,,0,,,,,1,,,530161,mobi,2899484207eb26f4ffbbf5f1b53eb0b9,,,1848313837_BuddyHolly,0,2000-01-01 01:00:00,2016-04-03 02:51:08,855000/2899484207eb26f4ffbbf5f1b53eb0b9-d.jpg,,
22149766,Not Fade Away: The Life and Music of Buddy Holly,,,,John R. Gribbin,2012,2nd Revised edition,Icon Books,,240,0,English,,,0,"1848313837,9781848313835",,,,,,,,,,,0,,,,,1,,,442021,epub,0b10e5c5bf83398e275f63bb7cad084d,,,1848313837_BuddyHolly,0,2000-01-01 01:00:00,2016-04-03 02:51:08,855000/0b10e5c5bf83398e275f63bb7cad084d-d.jpg,,
22149767,Building Web Applications with SVG,,,,"David Dailey, Jon Frost, Domenico Strazzullo",2012,,Microsoft Press,,294,0,English,,,0,"0735660123,9780735660120",,,,,,,,,,,0,,,,,1,,1,26729050,pdf,cbe147d2a97e53562f46de066c299ac1,,,Building.Web.Applications.with.SVG,0,2000-01-01 01:00:00,2016-04-03 02:51:08,855000/cbe147d2a97e53562f46de066c299ac1-d.jpg,,
22149768,Building Web Applications with SVG,,,,"David Dailey, Jon Frost, Domenico Strazzullo",2012,,Microsoft Press,,294,0,English,,,0,"0735660123,9780735660120",,,,,,,,,,,0,,,,,1,,,12608582,epub,9e2e2c3e3f12213beaafe38439b3db24,,,Building.Web.Applications.with.SVG,0,2000-01-01 01:00:00,2016-04-03 02:51:08,855000/9e2e2c3e3f12213beaafe38439b3db24-d.jpg,,
22149769,The New Machiavelli: How to Wield Power in the Modern World,,,,Jonathan Powell,2011,Reprint,Random House UK,,320,0,English,,,0,"0099546094,9780099546092",,,,,,,,,,,0,,,,,1,,,365677,epub,909fc4599313c7d4bbaa3430148960fe,,,0099546094_1847921221_Machiavelli,0,2000-01-01 01:00:00,2016-04-03 02:51:08,855000/909fc4599313c7d4bbaa3430148960fe-d.jpg,,
22149770,The New Machiavelli: How to Wield Power in the Modern World,,,,Jonathan Powell,2011,Reprint,Random House UK,,320,0,English,,,0,"0099546094,9780099546092",,,,,,,,,,,0,,,,,1,,,549228,mobi,3e6a51260818a898d73291967ac427f0,,,0099546094_1847921221_Machiavelli,0,2000-01-01 01:00:00,2016-04-03 02:51:08,855000/3e6a51260818a898d73291967ac427f0-d.jpg,,
22149771,Organize Now!: A Week-by-Week Guide to Simplify Your Space and Your Life,,,,"Jennifer Ford Berry, Jacqueline Musser",2010,2,F & W Media,,256,0,English,,,0,"1440308632,9781440308635",,,,,,,,,,,0,,,,,1,,,422716,mobi,5d681d3797b5f3cdb73538aadf55a88e,,,1440308632OrganizeNow,0,2000-01-01 01:00:00,2016-04-03 02:51:08,855000/5d681d3797b5f3cdb73538aadf55a88e-d.jpg,,
22149772,The Human Zoo: A Zoologist's Study of the Urban Animal,,Kodansha Globe,,Desmond Morris,1996,,Kodansha Globe,,272,0,English,,,0,"1568361041,9781568361048",,,,,,,,,,,0,,,,,1,,,2371573,epub,1ef13a27e6da85a0054cc0bef687ca3b,,,1568361041HumanZoo,0,2000-01-01 01:00:00,2016-04-03 02:51:08,855000/1ef13a27e6da85a0054cc0bef687ca3b-d.jpg,,
22149773,The Human Zoo: A Zoologist's Study of the Urban Animal,,Kodansha Globe,,Desmond Morris,1996,,Kodansha Globe,,272,0,English,,,0,"1568361041,9781568361048",,,,,,,,,,,0,,,,,1,,,888295,mobi,0fb731a3a69cdd8a392ce0ee661d9b62,,,1568361041HumanZoo,0,2000-01-01 01:00:00,2016-04-03 02:51:08,855000/0fb731a3a69cdd8a392ce0ee661d9b62-d.jpg,,
22149774,Elixir: A History of Water and Humankind,,,,Brian Fagan,2011,First US Edition,Bloomsbury Press,,416,0,English,,,0,"160819003X,9781608190034",,,,,,,,,,,0,,,,,1,,,3778182,epub,96ba7f441a67cc672cd903c67e24f968,,,Elixir,0,2000-01-01 01:00:00,2016-04-03 02:51:08,855000/96ba7f441a67cc672cd903c67e24f968-d.jpg,,
22149775,Elixir: A History of Water and Humankind,,,,Brian Fagan,2011,First US Edition,Bloomsbury Press,,416,0,English,,,0,"160819003X,9781608190034",,,,,,,,,,,0,,,,,1,,,2439848,mobi,fbfd845c6499e1151a9f60b248b07fa3,,,Elixir,0,2000-01-01 01:00:00,2016-04-03 02:51:08,855000/fbfd845c6499e1151a9f60b248b07fa3-d.jpg,,
22149776,The Naughty Bits: The Steamiest and Most Scandalous Sex Scenes from the World's Great Books,,,,Jack Murnighan,2001,1st,Three Rivers Press,,256,0,English,,,0,"0609806602,9780609806609",,,,,,,,,,,0,,,,,1,,,409199,mobi,c15ca40d40170f45efa7129fd2ba192d,,,The Naughty Bits,0,2000-01-01 01:00:00,2016-04-03 02:51:08,855000/c15ca40d40170f45efa7129fd2ba192d-d.jpg,,
22149777,Winning the War on War: The Decline of Armed Conflict Worldwide,,,,Joshua S. Goldstein,2011,,Dutton Adult,,400,0,English,,,0,"0525952535,9780525952534",,,,,,,,,,,0,,,,,1,,,788613,epub,3c19be0a6c36952c25d6a4f837bd8f62,,,0525952535WinningWarWar,0,2000-01-01 01:00:00,2016-04-03 02:51:08,855000/3c19be0a6c36952c25d6a4f837bd8f62-d.jpg,,
22149778,Winning the War on War: The Decline of Armed Conflict Worldwide,,,,Joshua S. Goldstein,2011,,Dutton Adult,,400,0,English,,,0,"0525952535,9780525952534",,,,,,,,,,,0,,,,,1,,,964667,mobi,5ff50cd27e308aee6357ac65f5ca246e,,,0525952535WinningWarWar,0,2000-01-01 01:00:00,2016-04-03 02:51:08,855000/5ff50cd27e308aee6357ac65f5ca246e-d.jpg,,
22149779,The Lives They Left Behind: Suitcases from a State Hospital Attic,,,,"Darby Penney, Peter Stastny, Lisa Rinzler, Robert Whitaker",2009,Reprint,Bellevue Literary Press,,205,0,English,,,0,"1934137146,9781934137147",,,,,,,,,,,0,,,,,1,,,5240155,epub,139e00750c851ce2e966c628ac5c5ad1,,,1934137146LivesTheyLeftBehind,0,2000-01-01 01:00:00,2016-04-03 02:51:08,855000/139e00750c851ce2e966c628ac5c5ad1-d.jpg,,
22149780,The Lives They Left Behind: Suitcases from a State Hospital Attic,,,,"Darby Penney, Peter Stastny, Lisa Rinzler, Robert Whitaker",2009,Reprint,Bellevue Literary Press,,205,0,English,,,0,"1934137146,9781934137147",,,,,,,,,,,0,,,,,1,,,4590210,mobi,bc6cd73bc2845dab613db748c11a363f,,,1934137146LivesTheyLeftBehind,0,2000-01-01 01:00:00,2016-04-03 02:51:08,855000/bc6cd73bc2845dab613db748c11a363f-d.jpg,,
22149781,ACCP Critical Care Medicine Board Review: 21st Edition  2012,,,,American College of Chest Physicians,2012,21 st,American College of Chest Physicians,,491,0,English,,,0,978-0-916609-97-9,,,,,,,10.5555/978-0-916609-76-4,,,,300,1,1,0,1,1,0,1,7285513,pdf,c37c12e04560504dff7a942ac8a24a66,,,ACCP Critical Care Medicine Board Review 2012,0,2000-01-01 01:00:00,2016-04-03 02:51:08,855000/c37c12e04560504dff7a942ac8a24a66-d.png,,
22149782,Electrical Wiring Handbook,,,,Edward L. Safford,1980,,McGraw-Hill/TAB Electronics,,432,0,English,,,0,"0830612459,9780830612451,0-8306-9932-5",,,,,,,,,,,0,,,,,1,,1,127247831,pdf,c30be146425d576933c6d7a11b128913,,,"Electrical Wiring Handbook, Edward L. Safford, TAB Books, 1980",0,2000-01-01 01:00:00,2016-04-03 02:51:08,855000/c30be146425d576933c6d7a11b128913-g.jpg,,
22149783,ENTROPY: INTO THE GREENHOUSE WORLD,,New Age Book,,Jeremy Rifkin,1989,Rev Rei,Bantam,,354,0,English,,,0,"0553347179,9780553347173",,,,,,,,,,,0,,,,,1,,1,135880469,pdf,4610b84a883beeee0e6139446bbf1b8f,,,"Entropy, Jeremy Rifkin, 1989",0,2000-01-01 01:00:00,2016-04-03 02:51:08,855000/4610b84a883beeee0e6139446bbf1b8f-g.jpg,,
22149784,How to Be Your Own Home Electrician,,Popular Science Skill Book,,George Emery Daniels,1976,2nd Revised,"Book Division, Times Mirror Magazines : [distributed by] Harper & Row",,144,0,English,,,0,"0060109548,9780060109547",,,,,,,,,,,0,,,,,1,,1,56302377,pdf,c6570487df39ff63ca74d28cd7d45d96,,,"How to Be Your Own Home Electrician, George Daniels, Popular Science Books, 1976",0,2000-01-01 01:00:00,2016-04-03 02:51:08,855000/c6570487df39ff63ca74d28cd7d45d96-d.jpg,,
22149785,"Low-Cost, Energy-Efficient Shelter for the Owner and Builder",,,,Eugene (editor) Eccli,1977,1St Edition,Rodale Press,,416,0,English,,,0,"0878571140,9780878571147",,,,,,,,,,,0,,,,,1,,1,136633084,pdf,1952780187c7e20816174a2af5a1c170,,,"Low-Cost, Energy-Efficient Shelter for the Owner and Builder, Eugene Eccli, 1976",0,2000-01-01 01:00:00,2016-04-03 02:51:08,855000/1952780187c7e20816174a2af5a1c170-g.jpg,,
22149786,Эволюция полового размножения мшанок отряда Cheilostomata (Bryozoa: Gymnolaemata),,,,А. Н. Островский,2009,,изд-во СпБГУ,,404,0,Russian,,,0,978-5-288-04992-7,,,,,,,,,,,0,,,,,1,,0,9625725,djvu,3294a1933907f199c58ee21952add4d3,16454ba41743546623ad1b720e247324,no,ostrovskij2009_evol_pol_razmn_mshanok.djvu,0,2000-01-01 01:00:00,2016-04-03 02:51:08,855000/3294a1933907f199c58ee21952add4d3-d.jpg,,
22149787,"Boilers and Ancillary Plant, Volume Volume B, Third Edition",,British Electricity International,,"R. M. Clapp, British Electricity Internatio",1991,3,Pergamon,,197,0,English,210,,0,"0080405126,9780080405124",,,,,,,,,,,0,,,,,1,,0,9065348,pdf,fc56a7d23ab7cbf5ebb0ccbbd88ea7b3,,,Vol-B,0,2000-01-01 01:00:00,2016-04-03 02:51:08,855000/fc56a7d23ab7cbf5ebb0ccbbd88ea7b3-d.jpg,,
22149788,"Modern Power Station Practice : Turbines, Generators and Associated Plant",,,,"P. Hambling, British Electricity International",1992,3,Pergamon,,594,0,English,,,0,"0080405134,9780080405131",,,,,,,,,,,0,,,,,1,,0,24238215,pdf,665af40a8d5ee71f9874c4aafff90708,,,Vol-C,0,2000-01-01 01:00:00,2016-04-03 02:51:08,855000/665af40a8d5ee71f9874c4aafff90708-d.jpg,,
22149789,Modern Power Station Practice : Electrical Systems and Equipment,,,,F. Beach,1992,3,Pergamon,,1033,0,English,215,,0,"0080405142,9780080405148",,,,,,,,,,,0,,,,,1,,0,44520231,pdf,de73e3236e38dd01b21be03ef3b56eed,,,Vol-D,0,2000-01-01 01:00:00,2016-04-03 02:51:08,855000/de73e3236e38dd01b21be03ef3b56eed-g.jpg,,
22149790,"Chemistry and Metallurgy, Volume Volume E, Third Edition",,British Electricity International,,"J. Brown, N.J. Ray, M.G. Gemmill",1992,3,Pergamon,,589,0,English,210,,0,"0080405150,9780080405155",,,,,,,,,,,0,,,,,1,,0,28768859,pdf,b3c220013170bc5f89f59a690a838d03,,,Vol-E,0,2000-01-01 01:00:00,2016-04-03 02:51:08,855000/b3c220013170bc5f89f59a690a838d03-d.jpg,,
22149791,"Control and Instrumentation, Volume Volume F, Third Edition",,British Electricity International,,M.W. Jervis,1992,3,Pergamon,,520,0,English,210,,0,"0080405169,9780080405162",,,,,,,,,,,0,,,,,1,,0,22894272,pdf,2d64cecf1323339ed79a6f7d686e8825,,,Vol-F,0,2000-01-01 01:00:00,2016-04-03 02:51:08,855000/2d64cecf1323339ed79a6f7d686e8825-g.jpg,,
22149792,"Station Operation and Maintenance, Volume Volume G, Third Edition",,British Electricity International,,L.C. White,1991,3,Pergamon,,659,0,English,210,,0,"0080405177,9780080405179",,,,,,,,,,,0,,,,,1,,0,28346288,pdf,07b193ce2da4c749319da5ce780d480d,,,Vol-G,0,2000-01-01 01:00:00,2016-04-03 02:51:08,855000/07b193ce2da4c749319da5ce780d480d-d.jpg,,
22149793,"Index, Volume Volume M, Third Edition",,British Electricity International,,British Electricity Internatio,1993,3,Pergamon,,280,0,English,210,,0,"0080407358,9780080407357",,,,,,,,,,,0,,,,,1,,0,10091974,pdf,cd8cb3b7a9f85c372bafc055ca738e84,,,Vol-M,0,2000-01-01 01:00:00,2016-04-03 02:51:08,855000/cd8cb3b7a9f85c372bafc055ca738e84-d.jpg,,
22149794,"System Operation, Volume Volume L, Third Edition",,British Electricity International,,E.A. Wallis,1991,3,Pergamon,,466,0,English,210,,0,"0080405215,9780080405216",,,,,,,,,,,0,,,,,1,,0,21367051,pdf,a04e9e85c906f816507441cef5a162d0,,,Vol-L,0,2000-01-01 01:00:00,2016-04-03 02:51:08,855000/a04e9e85c906f816507441cef5a162d0-d.jpg,,
22149795,"EHV Transmission, Volume Volume K, Third Edition",,British Electricity International,,M.G. Dwek,1992,3,Pergamon,,586,0,English,210,,0,"0080405207,9780080405209",,,,,,,,,,,0,,,,,1,,0,27619317,pdf,a8e77722f276afd828a0b5573790ff7b,,,Vol-K,0,2000-01-01 01:00:00,2016-04-03 02:51:08,855000/a8e77722f276afd828a0b5573790ff7b-g.jpg,,
22149796,"Nuclear Power Generation, Volume Volume J, Third Edition",,British Electricity International,,P.B. Myerscough,1992,3,Pergamon,,606,0,English,210,,0,"0080405193,9780080405193",,,,,,,,,,,0,,,,,1,,0,26500490,pdf,09096d08c7e876ee46a5974fe9e79e1f,,,Vol-J,0,2000-01-01 01:00:00,2016-04-03 02:51:08,855000/09096d08c7e876ee46a5974fe9e79e1f-d.jpg,,
22149797,"Station Commissioning, Volume Volume H, Third Edition: Incorporating Modern Power System Practice",,British Electricity International,,"F. Kirkby, British Electricity Internatio",1990,3,Pergamon,,693,0,English,210,,0,"0080405185,9780080405186",,,,,,,,,,,0,,,,,1,,0,34325551,pdf,38176285ae036108cdf43930abec2a87,,,Vol-H,0,2000-01-01 01:00:00,2016-04-03 02:51:08,855000/38176285ae036108cdf43930abec2a87-g.jpg,,
22149798,Symmetrical Components for Power Systems Engineering,,Electrical and Computer Engineering,,J. Lewis Blackburn,1993,1,CRC Press,,448,0,English,210,,0,"0824787676,9780824787677",,,,,,,,,,,0,,,,,1,,0,17350181,pdf,74053242b912f0e4a2c58f6960e880b2,,,Symmetrical Comp by JL Blackburn,0,2000-01-01 01:00:00,2016-04-03 02:51:08,855000/74053242b912f0e4a2c58f6960e880b2-d.jpg,,
22149799,AEG Manual,,,,AEG Energy Control (Pty) Ltd,1966,,AEG Energy Control (Pty)Limited,,798,0,English,,,0,,,,,,,,,cEDdGwAACAAJ,,,0,,,,,1,,0,25129749,pdf,3db29538cc45a65198bf75defb3ab3c3,,,AEG Manual,0,2000-01-01 01:00:00,2016-04-03 02:51:08,855000/3db29538cc45a65198bf75defb3ab3c3-g.jpg,,
22149800,"Combustion, fossil power systems: a reference book on fuel burning and steam generation",,,,"Singer, J.G.",1981,,Combustion Engineering,,1086,0,English,210,,0,0-960-5974,,,,,,81066247,,VeFSAAAAMAAJ,,,0,,,,,1,,0,34714818,pdf,99cd9edd10cc863c84802e45d0a0961a,,,Combustion Fossil Power Plant,0,2000-01-01 01:00:00,2016-04-03 02:51:08,855000/99cd9edd10cc863c84802e45d0a0961a-g.jpg,,
22149801,Effective Management Techniques for Getting Things Done,,,,"Whiteside, L.W.",1971,,Vikas Publications,,226,0,English,,,0,,,,,,,,,J58xPwAACAAJ,,,0,,,,,1,,0,5379147,pdf,855a25f14d75da414f0d7d5d3c8d4230,,,Effective Management Techniques for getting things done,0,2000-01-01 01:00:00,2016-04-03 02:51:08,855000/855a25f14d75da414f0d7d5d3c8d4230-g.jpg,,
22149802,Gas Turbine Combustion,,,,Arthur Lefebvre,1983,New edition,Taylor & Francis,,531,0,English,262,,0,"0891168966,9780891168966",,,,,,,,,,,0,,,,,1,,0,14338638,pdf,b0fefe3dc30054efb5b473008d54f7a5,,,Gas Turbine Combustion,0,2000-01-01 01:00:00,2016-04-03 02:51:08,855000/b0fefe3dc30054efb5b473008d54f7a5-g.jpg,,
22149803,Stacks Project,,,,Johan de Jong,2012,,,,3313,0,English,,,0,,,,,,,,,,,,0,,,,,1,,1,15964125,pdf,87f0d72f89df7a53f31797ce9c752fdd,,,Stacks,0,2000-01-01 01:00:00,2016-04-03 02:51:08,855000/87f0d72f89df7a53f31797ce9c752fdd-g.jpg,,
22149804,Guidelines for project evaluation,,Document (United Nations),,"Dasgupta, P. and Sen, A.K. and Marglin, S.A.",1972,,United Nations,,338,0,English,,,0,,,,,,,72195258,,KPXOAAAAIAAJ,,,0,,,,,1,,0,11851486,pdf,17673e4af5d73d66dc4c5d357f724ebf,,,GuideLines For Project Evaluation,0,2000-01-01 01:00:00,2016-04-03 02:51:08,855000/17673e4af5d73d66dc4c5d357f724ebf-g.jpg,,
22149805,positivity,,,,Barbara Fredrickson,2009,,,,,0,English,,,0,978-0-307-45219-1,,,,,,,,,,,0,,,,,1,,,2647370,epub,328c7905f617fc13284c87da9420171f,,,Positivity,0,2000-01-01 01:00:00,2016-04-03 02:51:08,855000/328c7905f617fc13284c87da9420171f-g.jpg,,
22149806,positivity,,,,Barbara Fredrickson,2009,,Random House,,739,0,English,198,Library of Congress,0,978-0-307-45219-1,,,,,,,,,,,0,,,,,1,,1,3215106,pdf,eab5564095b5ddb76d6a4f94c862d34d,,,Positivity,0,2000-01-01 01:00:00,2016-04-03 02:51:08,855000/eab5564095b5ddb76d6a4f94c862d34d-g.jpg,,
22149807,IESNA Lighting Handbook,,,,"Illuminating Engineering Society of North America, Mark Stanley Rea",2000,9,Illuminating Engineering,,1000,0,English,210,,0,"0879951508,9780879951504",,,,,,,,,,,0,,,,,1,,1,71538841,pdf,248094085bb512fd5dd774ce323d8273,,,IESNA Hand Book,0,2000-01-01 01:00:00,2016-04-03 02:51:08,855000/248094085bb512fd5dd774ce323d8273-d.jpg,,
22149808,Electrical Engineer's Reference Book,,,,"M.A. Laughton, M.G. Say",1985,14th,Butterworth-Heinemann,,1024,0,English,210,,0,"0408004320,9780408004329",,,,,,,,,,,0,,,,,1,,0,42395488,pdf,3261f6b428fb6e912e9b383f04f0472c,,,Electrical Engineers Reference Book,0,2000-01-01 01:00:00,2016-04-03 02:51:08,855000/3261f6b428fb6e912e9b383f04f0472c-g.jpg,,
22149809,A Guide to Transformer Maintenance,,,,"S. D. Myers, J. J. Kelly, R. H. Parrish, E. L. Raab",1981,,S  D  Myers Inc,,836,0,English,210,,0,"0939320002,9780939320004",,,,,,,,,,,0,,,,,1,,0,21691832,pdf,351fe2025b0fc88df152900ef7bb4e09,,,A Giude to Transformer Maintenance,0,2000-01-01 01:00:00,2016-04-03 02:51:08,855000/351fe2025b0fc88df152900ef7bb4e09-g.jpg,,
22149810,Substation Automation Handbook,,,,"Klaus P Brand, Volker Lohmann, Wolfgang Wimmer, Klaus P Brand, Klaus P Brand, Volker Lohmann, Volker Lohmann, Wolfgang Wimmer, Wolfgang Wimmer",2003,"1., Aufl.",Bucher Publikationen,,357,0,German,210,,0,"3857589515,9783857589515",,,,,,,,,,,0,,,,,1,,1,21739573,pdf,01a8bc55ab109c509b3c3e1618807777,,,56302225-Substation-Automation-Handbook,0,2000-01-01 01:00:00,2016-04-03 02:51:08,855000/01a8bc55ab109c509b3c3e1618807777-g.jpg,,
22149811,Cut Elimination in Categories,,"Trends in Logic, 6",,Kosta Došen,1999,1,"Kluwer, Dordrecht",,276,0,English,113,,0,0792357205,,,,,,,,,,,0,,,,,1,,1,1401622,pdf,efc24d1ea25ee437a9d0d1bfcd7a77c1,,,Dosen - Cut Elimination in Categories,0,2000-01-01 01:00:00,2016-04-03 02:51:08,855000/efc24d1ea25ee437a9d0d1bfcd7a77c1-g.jpg,,
22149812,Hamilton's Blessing: The Extraordinary Life and Times of Our National Debt: Revised Edition,,,,John Steele Gordon,2010,Rev Upd,Walker & Company,,240,0,English,,,0,"0802717993,9780802717993",,,,,,,,,,,0,,,,,1,,,1274243,epub,e4b4a91afcbba813bd05c14a8bac34e4,,,0802717993HamiltonBlessing,0,2000-01-01 01:00:00,2016-04-03 02:51:08,855000/e4b4a91afcbba813bd05c14a8bac34e4-d.jpg,,
22149813,Hamilton's Blessing: The Extraordinary Life and Times of Our National Debt: Revised Edition,,,,John Steele Gordon,2010,Rev Upd,Walker & Company,,240,0,English,,,0,"0802717993,9780802717993",,,,,,,,,,,0,,,,,1,,,1461710,mobi,eae2f36b3a620b65bf6cb360a6dfc652,,,0802717993HamiltonBlessing,0,2000-01-01 01:00:00,2016-04-03 02:51:08,855000/eae2f36b3a620b65bf6cb360a6dfc652-d.jpg,,
22149814,Cut Elimination in Categories,,"Trends in Logic, 6",,Kosta Došen,1999,1,"Kluwer, Dordrecht",,244,0,English,113,,0,0792357205,,,,,,,,,,,0,,1,0,0,1,0,0,865378,djvu,38eb07c55d7c2f9c78c429cd32608583,3e7666e9f430bef2a7a6f040bc429fab,no,Dosen - Cut Elimination in Categories,0,2000-01-01 01:00:00,2016-04-03 02:51:08,855000/38eb07c55d7c2f9c78c429cd32608583-g.jpg,,
22149815,Santa Claus: A Biography,,,,Gerry Bowler,2007,Reprint,McClelland & Stewart,,288,0,English,,,0,"0771016689,9780771016684",,,,,,,,,,,0,,,,,1,,,5306771,epub,86498ea7520bcfe32457bbe5cda0f107,,,0771016689SantaBiography,0,2000-01-01 01:00:00,2016-04-03 02:51:08,855000/86498ea7520bcfe32457bbe5cda0f107-d.jpg,,
22149816,The Forest for the Trees: An Editor's Advice to Writers,,,,Betsy Lerner,2001,First Edition,Riverhead Trade,,304,0,English,,,0,"1573228575,9781573228572",,,,,,,,,,,0,,,,,1,,,405201,mobi,403afdac2a9e2f4aa1a6529add27d0ce,,,1573228575ForestTrees,0,2000-01-01 01:00:00,2016-04-03 02:51:08,855000/403afdac2a9e2f4aa1a6529add27d0ce-d.jpg,,
22149817,Discrete Groups in Geometry and Analysis: Papers in Honor of G.D.Mostow on his Sixtieth Birthday,,Progress in Mathematics 67,,"Roger Howe, editor",1986,,Birkhäuser Boston,,226,0,English,,,0,"0817633014,9780817633011",,,,,,,,,,,300,,,,,1,,1,2113899,djvu,987ca4e7efead70f00b1eaec505bfd31,,,PIM 67 - Discrete Groups,0,2000-01-01 01:00:00,2016-04-03 02:51:08,855000/987ca4e7efead70f00b1eaec505bfd31-g.jpg,,
22149818,Нелокальные взаимодействия квантованных полей,,,,Ефимов Г.В.,1977,,Наука,Москва,367,0,Russian,,,0,,,,530.145,,,,,,,,600,,1,0,,1,,1,3883703,djvu,cdebcd35ec6cc2f94f352a97738ed6bc,,,Ефимов Г. В. - Нелокальные взаимодействия квантованных полей,0,2000-01-01 01:00:00,2016-04-03 02:51:08,855000/cdebcd35ec6cc2f94f352a97738ed6bc-g.jpg,,
22149819,The Data Journalism Handbook,,,,"Jonathan Gray, Lucy Chambers, Liliana Bounegru",2012,,O'Reilly Media,,242,0,English,,,0,"1449330061,9781449330064",,,,,,,,,,,0,,,,,1,,1,54991482,pdf,ed94f13fb290f01ba6883e0ebe619b7f,,,The.Data.Journalism.Handbook,0,2000-01-01 01:00:00,2016-04-03 02:51:08,855000/ed94f13fb290f01ba6883e0ebe619b7f-d.jpg,,
22149820,The Data Journalism Handbook,,,,"Jonathan Gray, Lucy Chambers, Liliana Bounegru",2012,,O'Reilly Media,,242,0,English,,,0,"1449330061,9781449330064",,,,,,,,,,,0,,,,,1,,,19880633,epub,2fc618b829675733fca257b3085296c8,,,The.Data.Journalism.Handbook,0,2000-01-01 01:00:00,2016-04-03 02:51:08,855000/2fc618b829675733fca257b3085296c8-d.jpg,,
22149821,Chiral Separation Techniques: A Practical Approach,,,,Ganapathy Subramanian,2000,"2nd, Completely Revised and Updated Edition",Wiley-VCH,,365,0,English,296,,0,"3527298754,9783527298754",,,,,,,,,,,0,,,,,1,,1,7605973,pdf,f68fc61d1b91eefb1d88c1ea7cb6f13c,,,Chiral separation tecniques 2ed - Subramanian,0,2000-01-01 01:00:00,2016-04-03 02:51:08,855000/f68fc61d1b91eefb1d88c1ea7cb6f13c-d.jpg,,
22149822,LED Lighting: A Primer to Lighting the Future,,,,Sal Cangeloso,2012,,Make,,70,0,English,,,0,"1449334768,9781449334765",,,,,,,,,,,0,,,,,1,,,3258802,epub,836e0fd8ce7a39c212268379017d9a79,,,LED.Lighting,0,2000-01-01 01:00:00,2016-04-03 02:51:08,855000/836e0fd8ce7a39c212268379017d9a79-d.jpg,,
22149823,LED Lighting: A Primer to Lighting the Future,,,,Sal Cangeloso,2012,,Make,,70,0,English,,,0,"1449334768,9781449334765",,,,,,,,,,,0,,,,,1,,1,35933796,pdf,c8676f334afd9c48c19bfabfd931f061,,,LED.Lighting,0,2000-01-01 01:00:00,2016-04-03 02:51:08,855000/c8676f334afd9c48c19bfabfd931f061-d.jpg,,
22149824,О природе вещей,,,,Брегг У.,1932,,Гос.изд. технико-теор. литературы,Москва,77,0,Russian,,,0,,,,,,,,,,,,0,,,,,1,,0,2738713,pdf,90162f77a1b3779e69c287512f8d419b,,,Брегг О природе весчей 1932,0,2000-01-01 01:00:00,2016-04-03 02:51:08,855000/90162f77a1b3779e69c287512f8d419b-g.jpg,,
22149825,Анализ размерностей,,,,Бриджмен П.В.,1934,,ОНТИ,,62,0,Russian,264,,0,,,,,,,,,,,,0,,,,,1,,0,1785374,pdf,4a4612d230af8dd276e6be0b9f7f9712,,,Бридймен Анализ размерностеы 1934,0,2000-01-01 01:00:00,2016-04-03 02:51:08,855000/4a4612d230af8dd276e6be0b9f7f9712-g.jpg,,
22149826,Основной курс теоретической механики,Ч.1,,,Бухголц Н.Н.,1933,,Гос.изд. технико-теор. литературы,Москва,169,0,Russian,2,,0,,,,,,,,,,,,0,,,,,1,,0,9590852,pdf,e242b9c83e62fccfe998e1d084a2001e,,,Бухголц Основной курс теоретической механики 1933,0,2000-01-01 01:00:00,2016-04-03 02:51:08,855000/e242b9c83e62fccfe998e1d084a2001e-g.jpg,,
22149827,Метод симметричныих составляющих и его применение к расчету аварийных токов,,,,"Вагнер К.Ф., Эванс Р.Д.",1933,,ОНТИ,Москва,186,0,Russian,264,,0,,,,,,,,,,,,0,,,,,1,,0,3831130,pdf,9c892a95d861edf05fd955bafc3c6d69,,,Вагнер Метод симметричныих составляюших 1933,0,2000-01-01 01:00:00,2016-04-03 02:51:08,855000/9c892a95d861edf05fd955bafc3c6d69-g.jpg,,
22149828,Анатомическое исследование о движении сердца и крови у животных,кн. 16,Классики естествознания,,Гарвей В.,1927,,ГИЗ,Москва,124,0,Russian,,,0,,,,,,,,,,,,0,,,,,1,,0,2680087,pdf,f6b4194bc77d6962784b8baade54183e,,,Гарвей Анатомическое исследование о движении сердца и крови у животных 1927,0,2000-01-01 01:00:00,2016-04-03 02:51:08,855000/f6b4194bc77d6962784b8baade54183e-g.jpg,,
22149829,Ионизация атмосферы и ее причиныи,кн. 45,Современные проблемы естествознания,,Гесс В.,1930,,ГИЗ,Москва,195,0,Russian,,,0,,,,,,,,,,,,0,,,,,1,,0,3078041,pdf,b3a741fb9430c7bb033371daf657d158,,,Гесс Ионизатзия атмосферыи и ее причиныи 1930,0,2000-01-01 01:00:00,2016-04-03 02:51:08,855000/b3a741fb9430c7bb033371daf657d158-g.jpg,,
22149830,Курс математического анализа: Том II часть вторая дифференциальные уравнения,Т.2,,,Гурса Э.,1923,,ГИЗ,Москва,308,0,Russian,117,,0,,,,,,,,,,,,0,,,,,1,,0,7661009,pdf,3c1a8048c0ac593525541136e3f94579,,,Гурса Курс математического анализа 1923,0,2000-01-01 01:00:00,2016-04-03 02:51:08,855000/3c1a8048c0ac593525541136e3f94579-g.jpg,,
22149831,История естествознания,Том 1,,,Даннеман Ф.,1932,,Медгиз,Москва,218,0,Russian,,,0,,,,,,,,,,,,0,,,,,1,,0,11653062,pdf,5a8a11a542b9acdad5f14e699e04fe95,,,Даннеман История естествознания 1932,0,2000-01-01 01:00:00,2016-04-03 02:51:08,855000/5a8a11a542b9acdad5f14e699e04fe95-g.jpg,,
22149832,Cultural Competence for Public Managers: Managing Diversity in Today' s World,,Aspa Series in Public Administration and Public Policy,,"Espiridion Borrego, Richard Greggory Johnson lll",2011,Har/DVD,CRC Press,,414,0,English,,,0,"1439828075,9781439828076",,,,,,,,,,,0,,,,,1,,1,4894089,pdf,33ecdc136a2ac0d5e179fdcb3276a7b4,,,Cultural Competence for Public Managers (Public Administration and Public Policy)_original,0,2000-01-01 01:00:00,2016-04-03 02:51:08,855000/33ecdc136a2ac0d5e179fdcb3276a7b4-d.jpg,,
22149833,Cybersecurity: Public Sector Threats and Responses,,Public Administration and Public Policy,,Kim J. Andreasson,2011,1,CRC Press,,392,0,English,,,0,"1439846634,9781439846636",,,,,,,,,,,0,,,,,1,,1,4516831,pdf,cf69e0128dd5d4799d7ca7e98c298408,,,"Cybersecurity, Public Sector Threats and Responses (Public Administration and Public Policy)_original",0,2000-01-01 01:00:00,2016-04-03 02:51:08,855000/cf69e0128dd5d4799d7ca7e98c298408-d.jpg,,
22149834,Death of Labour Law?: Comparative Perspectives,,,,Martin Vranken,2009,,Melbourne University Press,,280,0,English,,,0,"0522856306,9780522856309",,,,,,,,,,,0,,,,,1,,1,4272907,pdf,00f9b3523e720de48788c2a238646dd0,,,Death of Labour Law_Comparative Perspectives,0,2000-01-01 01:00:00,2016-04-03 02:51:08,855000/00f9b3523e720de48788c2a238646dd0-d.jpg,,
22149835,Does Government Need to be Involved in Primary and Secondary Education: Evaluating Policy Options Using Market Role Assessment,,New Directions in Public Administration,,Michael T. Peddle,2000,1,Routledge,,256,0,English,,,0,"081532572X,9780815325727",,,,,,,,,,,0,,,,,1,,1,865998,pdf,29a5b33934a2e63cabae5d29123ea64e,,,Does Government Need to be Involved in Primary and Secondary Education (New Directions in Public Administration),0,2000-01-01 01:00:00,2016-04-03 02:51:08,855000/29a5b33934a2e63cabae5d29123ea64e-d.jpg,,
22149836,Dynamics of Drivers of Organizational Change,,,,Nicole Zimmermann,2011,2011,Gabler,,311,0,English,,,0,"3834930512,9783834930514",,,,,,,,,,,0,,,,,1,,1,1714617,pdf,7f9938d70a4dd1dd486e52d048da3ce8,,,Dynamics of Drivers of Organizational Change_original,0,2000-01-01 01:00:00,2016-04-03 02:51:08,855000/7f9938d70a4dd1dd486e52d048da3ce8-d.jpg,,
22149837,E-Governance,,,,"Niranjan Pani, Santap Sanhari",2009,,Himalaya Publishing House,,287,0,English,,,0,"8184882734, 9788184882735",,,,,,,,,,,0,,,,,1,,1,36092040,pdf,ee0a569ec317de41f574aeca8027b75d,,,E-Governance_original,0,2000-01-01 01:00:00,2016-04-03 02:51:08,855000/ee0a569ec317de41f574aeca8027b75d-g.jpg,,
22149838,HPLC: A Practical User's Guide,,,,Marvin McMaster,2006,2,Wiley-Interscience,,256,0,English,297,,0,"0471754013,9780471754015",,,,,,,,,,,0,,,,,1,,1,2964941,pdf,a1ff4a3c12cb5eb7262192fde963f05e,,,HPLC A practical user__039;s guide 2ed 2007 - McMaster,0,2000-01-01 01:00:00,2016-04-03 02:51:08,855000/a1ff4a3c12cb5eb7262192fde963f05e-d.jpg,,
22149839,Thin-Layer Chromatography: Reagents and Detection Methods vol 1a,,,,"Hellmut Jork, Werner Funk, Walter R. Fischer, Hans Wimmer",1990,,VCH Publishers,,241,0,English,297,,0,,,,,,,,,,,,0,,,,,1,,1,17629212,pdf,74db6aaa1261c983f340dd8673a7dcc0,,,"TLC - Vol 1a - Jork, Funk, Fisher _amp; Wimmer",0,2000-01-01 01:00:00,2016-04-03 02:51:08,855000/74db6aaa1261c983f340dd8673a7dcc0-g.jpg,,
22149840,Thin-layer chromatography,,,,,1994,,VCH,,496,0,English,297,,0,"156081103X,9781560811039",,,,,,,,,,,0,,,,,1,,1,21171549,pdf,01760fca73c4f291d62d76169dfdf65f,,,"TLC - Vol 1b - Jork, Funk, Fisher _amp; Wimmer",0,2000-01-01 01:00:00,2016-04-03 02:51:08,855000/01760fca73c4f291d62d76169dfdf65f-g.jpg,,
22149841,Visual Models for Software Requirements,,,,"Joy Beatty, Anthony Chen",2012,,Microsoft Press,,480,0,English,,,0,"0735667721,9780735667723",,,,,,,,,,,0,,,,,1,,1,47227632,pdf,13923e3ea5edbc7b56308bd0c97bb13b,,,Visual.Models.for.Software.Requirements,0,2000-01-01 01:00:00,2016-04-03 02:51:08,855000/13923e3ea5edbc7b56308bd0c97bb13b-d.jpg,,
22149842,Crystallography,,,,Dieter Schwarzenbach,1997,1,Wiley,,252,0,English,297,,0,"0471955981,9780471955986",,,,,,,,,,,0,,,,,1,,0,8538989,pdf,f7781b88171d131412f518ff410a6109,,,Crystallography 1996 - Schwarzenbach,0,2000-01-01 01:00:00,2016-04-03 02:51:08,855000/f7781b88171d131412f518ff410a6109-d.jpg,,
22149843,Molecular Fluorescence: Principles and Applications,,,,Bernard Valeur,2001,1,Wiley-VCH,,399,0,English,297,,0,"352729919X,9783527299195",,,,,,,,,,,0,,,,,1,,1,6353991,pdf,2782d8ec56481318a077767060afe8b9,,,Molecular fluorescence - Principles and applications 2001 - Valeur,0,2000-01-01 01:00:00,2016-04-03 02:51:08,855000/2782d8ec56481318a077767060afe8b9-d.jpg,,
22149844,Modern Analytical Chemistry,,,,David T Harvey,1999,1,McGraw-Hill Science/Engineering/Math,,816,0,English,297,,0,"0072375477,9780072375473",,,,,,,,,,,0,,,,,1,,1,10715807,pdf,4d342eeb20cac95a3cccaad9adbe594e,,,Modern analytical chemistry - Harvey,0,2000-01-01 01:00:00,2016-04-03 02:51:08,855000/4d342eeb20cac95a3cccaad9adbe594e-d.jpg,,
22149845,Visual Models for Software Requirements,,,,"Joy Beatty, Anthony Chen",2012,,Microsoft Press,,480,0,English,,,0,"0735667721,9780735667723",,,,,,,,,,,0,,,,,1,,,13397029,epub,3ef2ddce0473187f48f833f8a6924c38,,,Visual.Models.for.Software.Requirements,0,2000-01-01 01:00:00,2016-04-03 02:51:08,855000/3ef2ddce0473187f48f833f8a6924c38-d.jpg,,
22149846,How to Think About the Great Ideas: From the Great Books of Western Civilization,,,,Mortimer J. Adler,2000,,Open Court,,530,0,English,,,0,"0812694120,9780812694123",,,,,,,,,,,0,,,,,1,,,567433,epub,2385fd186a9d55799cb0302e0f74f800,,,0812694120HowThinkAboutGreatIdeas,0,2000-01-01 01:00:00,2016-04-03 02:51:08,855000/2385fd186a9d55799cb0302e0f74f800-d.jpg,,
22149847,How to Think About the Great Ideas: From the Great Books of Western Civilization,,,,Mortimer J. Adler,2000,,Open Court,,530,0,English,,,0,"0812694120,9780812694123",,,,,,,,,,,0,,,,,1,,,817328,mobi,eef1da15fbb868df6e43713e340e1032,,,0812694120HowThinkAboutGreatIdeas,0,2000-01-01 01:00:00,2016-04-03 02:51:08,855000/eef1da15fbb868df6e43713e340e1032-d.jpg,,
22149848,Грузинская кухня,,Вкусно. Быстро. Доступно. Шаг за шагом,,Братушева А. (отв. ред.),2010,,Эксмо,Москва,64,0,Russian,49,,0,978-5-699-41038-5,,,641/642,36.997,,,,,,,0,1,,,,1,,0,11515070,djvu,2c5d232d1bfdce8f445da53e8c6a5e0a,,,Грузинская кухня (Вкусно. Быстро. Доступно. Шаг за шагом) - 2010,0,2000-01-01 01:00:00,2016-04-03 02:51:08,855000/2c5d232d1bfdce8f445da53e8c6a5e0a-g.jpg,,
22149849,Fromms: How Julius Fromm's Condom Empire Fell to the Nazis,,,,"Gotz Aly, Michael Sontheimer, Shelley Frisch",2009,,Other Press,,240,0,English,,,0,"1590512960,9781590512968",,,,,,,,,,,0,,,,,1,,,5055496,mobi,c2e58b8b7c0cbeb6802bb676bd5a2b40,,,1590512960_Fromms,0,2000-01-01 01:00:00,2016-04-03 02:51:08,855000/c2e58b8b7c0cbeb6802bb676bd5a2b40-d.jpg,,
22149850,Vogel's textbook of quantitative chemical analysis,,,,Arthur Israel Vogel,1989,5th,Wiley,,877,0,English,297,,0,"0470215178,9780470215173",,,,,,,,,,,0,,,,,1,,1,67663016,pdf,f3d78ba47dc4d982b8edf6ec402a45e1,,,Quantitative chemical analysis 5ed - Vogel,0,2000-01-01 01:00:00,2016-04-03 02:51:08,855000/f3d78ba47dc4d982b8edf6ec402a45e1-g.jpg,,
22149851,Армянская кухня,,,,Аксакова О. В. (составитель),2011,,Слово,Днепропетровск,32,0,Russian,49,,0,978-966-334-335-8,,,,,,,,,,,0,1,,,,1,,1,3047964,pdf,fe36aa1534510f9cc66224f422348a78,,,Аксакова О.В. - Армянская кухня - 2011,0,2000-01-01 01:00:00,2016-04-03 02:51:08,855000/fe36aa1534510f9cc66224f422348a78-g.jpg,,
22149852,Last Call: The Rise and Fall of Prohibition,,,,Daniel Okrent,2010,1St Edition,Scribner,,480,0,English,,,0,"0743277023,9780743277020",,,,,,,,,,,0,,,,,1,,,1966080,mobi,11388c3d9bf868d435d7d6dfb0945c87,,,0743277023_074327704X_LastCall,0,2000-01-01 01:00:00,2016-04-03 02:51:08,855000/11388c3d9bf868d435d7d6dfb0945c87-d.jpg,,
22149853,Mass Spectrometry Basics,,,,"Christopher G. Herbert, Robert A.W. Johnstone",2002,1,CRC Press,,474,0,English,297,,0,"0849313546,9780849313547",,,,,,,,,,,0,,,,,1,,1,34584182,pdf,5140b3b0cd0caca568633542dd94a228,,,MS basics - Herbert,0,2000-01-01 01:00:00,2016-04-03 02:51:08,855000/5140b3b0cd0caca568633542dd94a228-d.jpg,,
22149854,"Liquid Chromatography-Mass Spectrometry, Third Edition",,Chromatographic Science Series,,Wilfried M.A. Niessen,2006,3,CRC Press,,632,0,English,297,,0,"0824740823,9780824740825",,,,,,,,,,,0,,,,,1,,1,24572947,pdf,3aca428916fd831fa3bcc749a6a3f01f,,,LC-MS 3ed 2006 - Niessen,0,2000-01-01 01:00:00,2016-04-03 02:51:08,855000/3aca428916fd831fa3bcc749a6a3f01f-d.jpg,,
22149855,Molecular Spectroscopy,,,,Ira N. Levine,1975,,John Wiley & Sons,,491,0,English,297,,0,"0471531286,9780471531289",,,,,,,,,,,0,,,,,1,,1,7198152,djvu,5940bae579bfb0fce6cf06b6dc6b508e,,,Molecular spectroscopy 1975 - Levine,0,2000-01-01 01:00:00,2016-04-03 02:51:08,855000/5940bae579bfb0fce6cf06b6dc6b508e-d.jpg,,
22149856,NMR - From Spectra to Structures: An Experimental Approach,,,,"Terence N. Mitchell, Burkhard Costisella",2007,2nd rev.and exp.ed.,Springer,,222,0,English,297,,0,"3540721959,9783540721956",,,,,,,,,,,0,,,,,1,,1,5241876,pdf,cb79c33ece15831da1b26b389ab9d32e,,,NMR - From spectra to structures 2ed 2007 - Mitchell _amp; Costisella,0,2000-01-01 01:00:00,2016-04-03 02:51:08,855000/cb79c33ece15831da1b26b389ab9d32e-d.jpg,,
22149857,On-line LC-NMR and Related Techniques,,,,Klaus Albert,2002,1,Wiley,,306,0,English,297,,0,"0471496499,9780471496496",,,,,,,,,,,0,,,,,1,,1,3906092,pdf,9caee700f3ea605587e9c62279ebf71b,,,On-line LC-NMR and related techniques - Albert,0,2000-01-01 01:00:00,2016-04-03 02:51:08,855000/9caee700f3ea605587e9c62279ebf71b-d.jpg,,
22149858,Structure Elucidation by NMR in Organic Chemistry: A Practical Guide,,,,Eberhard Breitmaier,2002,3rd Revised Edition,Wiley,,270,0,English,297,,0,"0470850078,9780470850077",,,,,,,,,,,0,,,,,1,,1,12342120,pdf,c3bd9941d696f4f733311d2676101c62,,,Structure elucidation by NMR 3ed - Breitmaier,0,2000-01-01 01:00:00,2016-04-03 02:51:08,855000/c3bd9941d696f4f733311d2676101c62-d.jpg,,
22149859,Ultrafast Infrared And Raman Spectroscopy,,Practical Spectroscopy,,M.D. Fayer,2001,1,CRC Press,,728,0,English,297,,0,"0824704517,9780824704513",,,,,,,,,,,0,,,,,1,,1,14747334,pdf,c89bdadf78cc73c0d57b7b6ed1f2fff7,,,Ultrafast IR and Raman spectroscopy 2001 - Fayer,0,2000-01-01 01:00:00,2016-04-03 02:51:08,855000/c89bdadf78cc73c0d57b7b6ed1f2fff7-d.jpg,,
22149860,Тайны хлеба,,,,"Микулович Л.С., Дубовик Е.В.",1993,,Ураджай,Минск,256,0,Russian,49,,0,5-7860-0607-7,,,,36.997+36.83,,,,,,,0,0,,,,1,,0,63395244,pdf,4d1d71ac1313e0a3587b87ab9eb7966d,,,Tainy xleba,0,2000-01-01 01:00:00,2016-04-03 02:51:08,855000/4d1d71ac1313e0a3587b87ab9eb7966d-g.jpg,,
22149861,The International Jewish Cook Book,,,,Greenbaum F.K.,1919,second edition,Bloch Publishing Company,New York,438,0,English,49,,0,,,,,,,,,,,,0,,,,,1,,0,16637560,pdf,9bc6c5a5347d970064ce6cdc44f3ac9a,,,Jewish Cook Book,0,2000-01-01 01:00:00,2016-04-03 02:51:08,855000/9bc6c5a5347d970064ce6cdc44f3ac9a-g.jpg,,
22149862,Удмуртская кухня,,,,Соковнин Г.И.,1975,,Удмуртия,Ижевск,239,0,Russian,49,,0,,,,,,,,,,,,0,1,,,,1,,1,16653652,pdf,2d76681e1afb3b87df94b87000a7d3b6,,,Соковнин Г. И. - Удмуртская кухня - 1975,0,2000-01-01 01:00:00,2016-04-03 02:51:08,855000/2d76681e1afb3b87df94b87000a7d3b6-g.jpg,,
22149863,Узбекская кухня,,Секреты национальной кухни,,,2001,,Диля,Москва - Санкт-Петербург,159,0,Russian,49,,0,,,,,,,,,,,,0,,,,,1,,0,3284510,djvu,24c4c556a5bbff41eb688338ee8bda3c,56d685adb0f158beeaf7d792fbfbf720,no,Узбекская кухня (Секреты национальной кухни) - 2001,0,2000-01-01 01:00:00,2016-04-03 02:51:08,855000/24c4c556a5bbff41eb688338ee8bda3c-g.jpg,,
22149864,Украинские народные блюда,,Хозяйкина библиотека,,"Могила О.А., Саенко В.И. (составители)",1992,,,,175,0,Russian,49,,0,5-7707-2377-7,,,,,,,,,,,0,,,,,1,,1,1184533,pdf,eb913cf0e4b42e91ee052c54810d1052,,,Украинские народные блюда,0,2000-01-01 01:00:00,2016-04-03 02:51:08,855000/eb913cf0e4b42e91ee052c54810d1052-g.jpg,,
22149865,Last White Rose,,,,Desmond Seward,2010,,Constable,,384,0,English,,,0,"184529873X,9781845298739",,,,,,,,,,,0,,,,,1,,,1523467,epub,bfee01746898bf870d4bbd9994fbbefc,,,184529873X_1849019800_Rose,0,2000-01-01 01:00:00,2016-04-03 02:51:08,855000/bfee01746898bf870d4bbd9994fbbefc-d.jpg,,
22149866,Last White Rose,,,,Desmond Seward,2010,,Constable,,384,0,English,,,0,"184529873X,9781845298739",,,,,,,,,,,0,,,,,1,,,2653589,mobi,549f6897a0788472bac892e20b25b92e,,,184529873X_1849019800_Rose,0,2000-01-01 01:00:00,2016-04-03 02:51:08,855000/549f6897a0788472bac892e20b25b92e-d.jpg,,
22149867,"Choroby wewnętrzne: podręcznik multimedialny oparty na zasadach EBM., Tom 1",,,,"Jerzy Alkiewicz i inni, (red.: Andrzej Szczeklik)",2005,,Medycyna Praktyczna,,1232,0,Polish,,,0,"8374300310,9788374300315",,,,,,,,,,,600,1,,,1,1,1,0,101092372,pdf,23b0ed9ea6be30837827cfc03ffdb0c9,,,1.pdf,0,2000-01-01 01:00:00,2016-04-03 02:51:08,ftp://libgen.org/covers/799000/288a27f6d9b18b282ff2d1a17b634d30-g.jpg,,
22149868,"Choroby wewnętrzne: podręcznik multimedialny oparty na zasadach EBM., Tom 2",,,,"Małgorzata Bała i inni, (red.: Andrzej Szczeklik)",2006,,Medycyna Praktyczna,,1169,0,Polish,,,0,"8374300698, 9788374300698",,,,,,,,,,,600,1,,,1,1,1,0,81412700,pdf,b46ed2ef7980fea12e7c8dcccc3be13e,,,2.pdf,0,2000-01-01 01:00:00,2016-04-03 02:51:08,ftp://libgen.org/covers/799000/e1762af5aa9afb0e378e4345e5b98aa3-g.jpg,,
22149869,Cooking with Aristos,,,,Papandroulakis A.,2002,,Random House Australia Pty. Ltd.,Sydney,160,0,English,49,,0,1-74051-454-8,,,,,,,,,,,0,1,,,,1,,1,70211973,pdf,405608228b67323f327e3a805a982c4b,,,Cooking with Aristos Aristos Papandroulakis,0,2000-01-01 01:00:00,2016-04-03 02:51:08,855000/405608228b67323f327e3a805a982c4b-g.jpg,,
22149870,Греческая кухня,,Любимые блюда,,,2010,,,,34,0,Russian,49,,0,978-5-8029-2619-2,,,,,,,,,,,0,,,,,1,,0,22628737,pdf,8b36f7dcf4c4d9c46e0d3fe4b37c9d75,,,Любимые блюда. Греческая кухня (2010),0,2000-01-01 01:00:00,2016-04-03 02:51:08,855000/8b36f7dcf4c4d9c46e0d3fe4b37c9d75-g.jpg,,
22149871,Кофе. 333 рецепта со всего мира,,Издание для досуга,,Фомиченко К.В.,1999,,Ураджай,Минск,223,0,Russian,49,,0,985-04-0268-9,,,[633.73:641.87] (083.12),36.98,,,,,,,0,,,,,1,,1,2249885,pdf,1316d48a052e1aeb4841065f044a6d5a,,,Кофе. 333 рецепта со всего мира,0,2000-01-01 01:00:00,2016-04-03 02:51:08,855000/1316d48a052e1aeb4841065f044a6d5a-g.jpg,,
22149872,"Phänomenologie des religiösen Lebens: 1. Einleitung in die Phänomenologie der Religion (Wintersemester 1920/21), 2. Augustinus und der Neuplatonismus (Sommersemester 1921), 3. Die philosophischen Grundlagen der mittelalterlichen Mystik (Ausarbeitungen und Entwürfe zu einer nicht gehaltenen Vorlesung 1918/19)",1,Heidegger Gesamtausgabe 60,,"Martin Heidegger, Claudius Stube",1995,,Klostermann,Frankfurt am Main,351,0,German,196,,0,3-465-0284.5,,,,,,,,,,,0,,,,,1,,1,10912555,zip,d687cb64a60c761869affefd23aa5f61,,,Heid_GA60,0,2000-01-01 01:00:00,2016-04-03 02:51:08,855000/d687cb64a60c761869affefd23aa5f61-g.jpg,,
22149873,Facebook: Das Ultimative Handbuch,,,,,2012,,,,148,0,German,100,,0,,,,,,,,,,,,0,,,,,0,1,1,17652883,pdf,9355fb1d7242e8bea9f9b5294a548201,,,Chip Special Facebook-Handbuch 2012,0,2000-01-01 01:00:00,2016-04-03 02:51:08,855000/9355fb1d7242e8bea9f9b5294a548201-g.jpg,,
22149874,Pismo duszą Teologii,,Myśl teologiczna,,Joseph A. Fitzmyer SJ,1997,,WAM,Kraków,110,0,Polish,,,0,,,,,,,,,,,,0,,,,,1,,1,491889,pdf,4460b7b1b6a8baa230e5386a6c585556,,,FITZMYER-Pismo duszą Teologii-1997,0,2000-01-01 01:00:00,2016-04-03 02:51:08,855000/4460b7b1b6a8baa230e5386a6c585556-g.jpg,,
22149875,Българетѣ въ Македония,,,,"Иванов, Й.",1915,,Държавна печатница,София,358,0,Bulgarian,64,,0,,,,,,,,,,,,0,,,,,1,,1,17908759,pdf,4c0ebc60214631983aa393ac7b235c86,,,Ivanov-Bylgarete-v-Makedonija,0,2000-01-01 01:00:00,2016-04-03 02:51:08,855000/4c0ebc60214631983aa393ac7b235c86-g.jpg,,
22149876,Autour de l'Approximation Semi-Classique,,Progress in Mathematics 68,,Didier Robert,1987,,Birkhauser Verlag AG,,344,0,French,,,0,"3764333545,9783764333546",,,,,,,,,,,300,,,,,1,,1,2154682,djvu,032fe7f34a14b75df1cfab7bd2c2a1c3,,,PIM 68 - Semiclassique,0,2000-01-01 01:00:00,2016-04-03 02:51:08,855000/032fe7f34a14b75df1cfab7bd2c2a1c3-g.jpg,,
22149877,Annals of the Former World,,,,John McPhee,2000,1st,"Farrar, Straus and Giroux",,712,0,English,,,0,"0374518734,9780374518738",,,,,,,,,,,0,,,,,1,,,7216266,epub,ca85e62cd506951bb81c4303fcf8a42f,,,0374518734AnnalsFormerWorld,0,2000-01-01 01:00:00,2016-04-03 02:51:08,855000/ca85e62cd506951bb81c4303fcf8a42f-d.jpg,,
22149878,Annals of the Former World,,,,John McPhee,2000,1st,"Farrar, Straus and Giroux",,712,0,English,,,0,"0374518734,9780374518738",,,,,,,,,,,0,,,,,1,,,7764145,mobi,fccb25bca20395b55fa84d5ba47d0f46,,,0374518734AnnalsFormerWorld,0,2000-01-01 01:00:00,2016-04-03 02:51:08,855000/fccb25bca20395b55fa84d5ba47d0f46-d.jpg,,
22149879,A Short History of the World,,Penguin Classics,,H.G. Wells,2007,,Penguin Classics,,400,0,English,,,0,"0141441828,9780141441825",,,,,,,,,,,0,,,,,1,,,4119726,epub,72eab70acc2d395a0294f5ccfcefc95c,,,A Short History of the World,0,2000-01-01 01:00:00,2016-04-03 02:51:08,855000/72eab70acc2d395a0294f5ccfcefc95c-d.jpg,,
22149880,Suomea suomeksi 1,,,,Nuutinen Olli,2008,18,Suomalaisen Kirjallisuuden Seura,Helsinki,172,0,Finnish,315,,0,978-951-717-737-5,0355-1768,,,,,,,,,,300,1,1,0,1,1,1,1,2714889,djvu,342aae88fc66f373475b5323ec6ee1cf,,,Suomea_suomeksi_1,0,2000-01-01 01:00:00,2016-04-03 02:51:08,855000/342aae88fc66f373475b5323ec6ee1cf-d.png,,
22149881,"Finnish in Finnish, Vocabulary Suomea suomeksi 1",,,,"Nuutinen Olli, O’Dell Michael",1990,6,Suomalaisen Kirjallisuuden Seura,Helsinki,38,0,English,315,,0,951-717-311-3,,,,,,,,,,,300,0,1,0,1,1,1,1,395938,djvu,4b7331d9c24dbc571462ec968523e4db,,,Suomea_suomeksi_1_Finnish-English_vocabulary,0,2000-01-01 01:00:00,2016-04-03 02:51:08,855000/4b7331d9c24dbc571462ec968523e4db-d.png,,
22149882,Suomen harjoituksia 1,,,,Hämäläinen Eila,2009,10,Suomalaisen Kirjallisuuden Seura,Helsinki,154,0,Finnish,315,,0,978-951-717-160-1,0355-1768,,,,,,,,,,300,0,1,0,1,1,1,1,1153628,djvu,efa12de6b7dbec9a110453310b8d8054,,,Suomen_harjoituksia_1,0,2000-01-01 01:00:00,2016-04-03 02:51:08,855000/efa12de6b7dbec9a110453310b8d8054-d.png,,
22149883,Suomea suomeksi 2,,,,Nuutinen Olli,2008,11,Suomalaisen Kirjallisuuden Seura,Helsinki,164,0,Finnish,315,,0,978-951-717-764-1,0355-1768,,,,,,,,,,300,1,1,0,1,1,1,1,2783746,djvu,0a5a53a28729009fda0ea299b20defb7,,,Suomea_suomeksi_2,0,2000-01-01 01:00:00,2016-04-03 02:51:08,855000/0a5a53a28729009fda0ea299b20defb7-d.png,,
22149884,Finnish in Finnish: Vocabulary Suomea suomeksi 2,,,,"Nuutinen Olli, O’Dell Michael",1992,4,Suomalaisen Kirjallisuuden Seura,Helsinki,44,0,English,315,,0,951-717-155-2,,,,,,,,,,,300,0,1,0,1,1,1,1,579492,djvu,be4a67c2b9ba9e241457f99395deadca,,,Suomea_suomeksi_2_Finnish-English_vocabulary,0,2000-01-01 01:00:00,2016-04-03 02:51:08,855000/be4a67c2b9ba9e241457f99395deadca-d.png,,
22149885,Suomen harjoituksia 2,,,,Hämäläinen Eila,2006,5,Suomalaisen Kirjallisuuden Seura,Helsinki,126,0,Finnish,315,,0,951-717-279-6,0355-1768,,,,,,,,,,300,0,1,0,1,1,1,1,1228546,djvu,b5dc8a66683b51a8f02a14a0441c4581,,,Suomen_harjoituksia_2,0,2000-01-01 01:00:00,2016-04-03 02:51:08,855000/b5dc8a66683b51a8f02a14a0441c4581-d.png,,
22149886,City: A Guidebook for the Urban Age,,,,P.D. Smith,2012,1,Bloomsbury Press,,400,0,English,,,0,"1608196763,9781608196760",,,,,,,,,,,0,,,,,1,,,16718612,epub,1fd078b2032538b7ddf0c99c5bc6da18,,,city__a_guidebook_for_the_urban_age,0,2000-01-01 01:00:00,2016-04-03 02:51:08,855000/1fd078b2032538b7ddf0c99c5bc6da18-d.jpg,,
22149887,Traité de mathématiques spéciales,1 — Algèbre,,,"Cagnac G., Ramis E., Commeau J.",1970,,Masson & Cie,,520,0,French,114,,0,,,,,,,,,,,,300,,1,0,1,1,1,1,9059432,djvu,a8b179336e97772d2470785856dbca49,,,Maths_spe_Cagnac_Ramis_Commeau_T1_Algebre_1970,0,2000-01-01 01:00:00,2016-04-03 02:51:08,855000/a8b179336e97772d2470785856dbca49-d.png,,
22149888,Traité de mathématiques spéciales,2 — Analyse,,,"Cagnac G., Ramis E., Commeau J.",1972,,Masson & Cie,,668,0,French,117,,0,"2-225-70280-9, 978-2-225-70280-8",,,,,,,,,,,300,1,1,0,1,1,1,1,11865736,djvu,1236b4a054f75b45f44f027dbc788856,,,Maths_spe_Cagnac_Ramis_Commeau_T2_Analyse_1972,0,2000-01-01 01:00:00,2016-04-03 02:51:08,855000/1236b4a054f75b45f44f027dbc788856-d.png,,
22149889,Traité de mathématiques spéciales,3 — Géométrie,,,"Cagnac G., Ramis E., Commeau J.",1971,,Masson & Cie,,568,0,French,121,,0,,,,,,,,,,,,300,1,1,0,1,1,1,1,10052743,djvu,c64ba11bf1ac7bfe2070fc22d0c97ced,,,Maths_spe_Cagnac_Ramis_Commeau_T3_Geometrie_1971,0,2000-01-01 01:00:00,2016-04-03 02:51:08,855000/c64ba11bf1ac7bfe2070fc22d0c97ced-d.png,,
22149890,Traité de mathématiques spéciales,4 — Applications de l’Analyse à la Géométrie,,,"Cagnac G., Ramis E., Commeau J.",1971,,Masson & Cie,,468,0,French,121,,0,,,,,,,,,,,,300,1,1,0,1,1,1,1,8079146,djvu,d47f81092647ed6739d4f7df48ee4c03,,,Maths_spe_Cagnac_Ramis_Commeau_T4_Geo_diff_1971,0,2000-01-01 01:00:00,2016-04-03 02:51:08,855000/d47f81092647ed6739d4f7df48ee4c03-d.png,,
22149891,Algèbre et Statistique. Classe de Première B,,,,"Lebossé C., Hémery C., Faure P.",1967,,Fernand Nathan,Paris,356,0,French,146,,0,,,,,,,,,,,,300,,1,0,1,1,1,1,6912499,djvu,2484fe1adb124bb9aef3d76c9dc36832,,,1e_Lebosse_Hemery_Faure_Algebre_et_statistique_1B_1967,0,2000-01-01 01:00:00,2016-04-03 02:51:08,855000/2484fe1adb124bb9aef3d76c9dc36832-d.png,,
22149892,"Algèbre, Arithmétique et Géométrie. Classe de Troisième",,,,"Lebossé C., Hémery C.",1964,,Fernand Nathan,Paris,288,0,French,146,,0,,,,,,,,,,,,300,,1,0,1,1,1,1,3579763,djvu,14fdcabfc69dd13d2b6c054e95e05bd2,,,3e_Lebosse_Hemery-Algebre_Arithmetique_et_Geometrie_1964,0,2000-01-01 01:00:00,2016-04-03 02:51:08,855000/14fdcabfc69dd13d2b6c054e95e05bd2-d.png,,
22149893,Algèbre : Classe de Seconde des Lycées et Collèges. Programme 1947,,,,"Lebossé C., Hémery C.",1947,12,Fernand Nathan,Paris,226,0,French,146,,0,,,,,,,,,,,,300,,1,0,1,1,1,1,3836455,djvu,961127e78533e7651320ab90356bd888,,,2nde_Lebosse_Hemery_Algebre_prog_1947,0,2000-01-01 01:00:00,2016-04-03 02:51:08,855000/961127e78533e7651320ab90356bd888-d.png,,
22149894,Cours Maillard. Mathématiques. Classes de Seconde A’CMM’,,,,"Girard G., Lentin A.",1961,,Hachette,Paris,484,0,French,146,,0,,,,,,,,,,,,300,,1,0,1,1,1,1,8929534,djvu,4301fd5ac96efbf368b3d61d31c8f96d,,,2nde_Cours_Maillard_Girard_Lentin_Mathematiques_1961,0,2000-01-01 01:00:00,2016-04-03 02:51:08,855000/4301fd5ac96efbf368b3d61d31c8f96d-d.png,,
22149895,Comment résoudre les problèmes de géométrie élémentaire. Méthodes. — Solutions. — Exemples,,,,Javelot R.,1931,3,Fernand Nathan,Paris,218,0,French,121,,0,,,,,,,,,,,,300,,1,0,1,1,1,1,3753092,djvu,309b185ee9f9e91f6f4bf82dd85d959f,,,Javelot_Cmt_resoudre_les_pbs_de_geometrie_elemtaire_1931,0,2000-01-01 01:00:00,2016-04-03 02:51:08,855000/309b185ee9f9e91f6f4bf82dd85d959f-g.jpg,,
22149896,"Arithmétique — Initiation à l’algèbre. Classes de 5e, 4e et 3e et Candidats aux Concours administratifs",,,,"Cluzel R., Court H.",1970,,Delagrave,,230,0,French,146,,0,,,,,,,,,,,,300,,1,0,1,1,1,1,3018720,djvu,c599cd0d6e8859ddea9fc42dd1b31f19,,,5e_4e_3e_Cluzel_Court_Arithmétique_init_algebre_1970,0,2000-01-01 01:00:00,2016-04-03 02:51:08,855000/c599cd0d6e8859ddea9fc42dd1b31f19-d.jpg,,
22149897,"Aleph 0/Algèbre. Terminale CDE. Nombres réels, calcul numérique, nombres complexes",,,,"Gautier C., Girard G., Gerll D., Thiercé C., Warusfel A.",1971,,Hachette,Paris,212,0,French,114,,0,,,,,,,,,,,,300,,1,0,1,1,1,1,3056502,djvu,4c70cab4358a7c101edfe31c8100753d,,,Tle_Aleph_0_Algebre_T_CDE_Nb_réels_et_complexes_1971,0,2000-01-01 01:00:00,2016-04-03 02:51:08,855000/4c70cab4358a7c101edfe31c8100753d-g.jpg,,
22149898,Mathématique Terminale A,,,,"Cluzel R., Vissio P.",1968,,Delagrave,,348,0,French,113,,0,,,,,,,,,,,,300,1,1,0,1,1,1,1,8540473,djvu,fa57506e19b43b46eca0941f8c69924b,,,Tle_Cluzel_Vissio_Mathematique_T_A_1968,0,2000-01-01 01:00:00,2016-04-03 02:51:08,855000/fa57506e19b43b46eca0941f8c69924b-d.png,,
22149899,"Algèbre et Analyse. Classes Terminales C, D et T",,,,"Lebossé C., Hémery C.",1967,,Fernand Nathan,Paris,380,0,French,146,,0,,,,,,,,,,,,300,,1,0,1,1,1,1,7508119,djvu,e6a8f69cc16ffd252562a6c445aaf7a5,,,Tle_Lebosse_Hemery_Algebre_et_analyse_T_CDT_1967,0,2000-01-01 01:00:00,2016-04-03 02:51:08,855000/e6a8f69cc16ffd252562a6c445aaf7a5-d.png,,
22149900,Géométrie descriptive. Classe de Mathématiques,,,,"Maillard R., Millet A.",1953,,Hachette,,260,0,French,121,,0,,,,,,,,,,,,300,,1,0,1,1,1,1,4651391,djvu,d68208e088308d5cdbe9b05681ee9cdd,,,Tle_Maillard_Millet_Geometrie_descriptive_Classe_math_1953,0,2000-01-01 01:00:00,2016-04-03 02:51:08,855000/d68208e088308d5cdbe9b05681ee9cdd-d.png,,
22149901,Звезды и атомы,,,,Эддингтон А.С.,1928,,Гиз,,76,0,Russian,265,,0,,,,,,,,,,,,0,,,,,1,,0,5036073,pdf,e14196fdc439bc0a59c285fef004695f,,,Еддингтон Звезды и атомы 1928,0,2000-01-01 01:00:00,2016-04-03 02:51:08,855000/e14196fdc439bc0a59c285fef004695f-g.jpg,,
22149902,Относительность и кванты,,,,Эддингтон А.С.,1933,,Гос.изд. технико-теор. литературы,,75,0,Russian,268,,0,,,,,,,,,,,,0,,,,,1,,0,2356814,pdf,4a02c98dbc5395ae58660516506def05,,,Еддингтон Относителност и кванты 1933,0,2000-01-01 01:00:00,2016-04-03 02:51:08,855000/4a02c98dbc5395ae58660516506def05-g.jpg,,
22149903,"Analyse, Cinématique, Calculs numériques. Classes terminales C, D et T",,,,,1967,,Ligel,Paris,404,0,French,117,,0,,,,,,,,,,,,300,,1,0,1,1,1,1,4213682,djvu,aa6adaf16a024911aafe503d28139aae,,,Tle_Ed_Ligel_Analyse_Cinématique_Calculs_num_T_CDT_1967,0,2000-01-01 01:00:00,2016-04-03 02:51:08,855000/aa6adaf16a024911aafe503d28139aae-g.jpg,,
22149904,Введение в анализ бесконечно малых,Т.1,,,Эйлер Леонард,1936,,ОНТИ,,353,0,Russian,117,,0,,,,,,,,,,,,0,,,,,1,,0,6169036,pdf,70ab25700b44e3cbe9a0577ae079cc4e,,,Ейлер Введение в анализ бесконечно малых 1926,0,2000-01-01 01:00:00,2016-04-03 02:51:08,855000/70ab25700b44e3cbe9a0577ae079cc4e-g.jpg,,
22149905,Géométrie. Classe de Mathématiques,,,,,1964,,Ligel,Paris,570,0,French,121,,0,,,,,,,,,,,,300,,1,0,1,1,1,1,7802892,djvu,16031ab46b109917b8612a8b62ba193e,,,Tle_Ed_Ligel_Geometrie_Classe_math_1964,0,2000-01-01 01:00:00,2016-04-03 02:51:08,855000/16031ab46b109917b8612a8b62ba193e-g.jpg,,
22149906,Новая теория движения луны,,,,Эйлер Леонард,1934,,Изд. Академии наук СССР,Москва,223,0,Russian,265,,0,,,,,,,,,,,,0,,,,,1,,0,3827270,pdf,aac7240b36ee6dad75074cf60af39868,,,Ейлер Новая теория движения луны 1934,0,2000-01-01 01:00:00,2016-04-03 02:51:08,855000/aac7240b36ee6dad75074cf60af39868-g.jpg,,
22149907,Géométrie. Classe de Mathématiques (Programmes de 1945),,,,"Lebossé C., Hémery C.",1997,,Jacques Gabay,Paris,436,0,French,121,,0,2-87647-077-2,,,,,,,,,,,300,,1,0,1,1,1,1,7751129,djvu,797390fb7ada8ebce4b37a114a2feb19,,,Tle_Lebosse_Hemery_Geometrie_Classe_math_prog_1945,0,2000-01-01 01:00:00,2016-04-03 02:51:08,855000/797390fb7ada8ebce4b37a114a2feb19-d.png,,
22149908,Брауновское движение,,,,"Эйнштейн А., Смолуховский М.",1936,,ОНТИ,,1936,0,Russian,264,,0,,,,,,,,,,,,0,,,,,1,,0,7539392,pdf,9c92bc7c5cd90cd265dc48e8023fa962,,,Ейнштейн Брауновское движение 1936,0,2000-01-01 01:00:00,2016-04-03 02:51:08,855000/9c92bc7c5cd90cd265dc48e8023fa962-g.jpg,,
22149909,Commentarii De Bello Gallico,,Lingua Latina per se Illustrata,,"C. Iulius Caesar, Hans H. Ørberg",2003,,Domus Latina,,92,0,Latin,,,0,978-1-58510-232-7,,,,,,,,,,,300,,1,0,1,1,1,1,1758264,djvu,6bfcfb19d4604d0b4f1a96495a5013c8,,,LLPSI_Supplementa_Caesaris_De_Bello_Gallico,0,2000-01-01 01:00:00,2016-04-03 02:51:08,855000/6bfcfb19d4604d0b4f1a96495a5013c8-g.jpg,,
22149910,Aeneis,,Lingua Latina per se Illustrata,,"P. Vergilius Maro, Hans H. Ørberg",2008,,Domus Latina,,84,0,Latin,,,0,978-87-90696-17-7,,,,,,,,,,,300,,1,0,1,1,1,1,2226036,djvu,70857119b1bc70f58196ac4ccfc0fc02,,,LLPSI_Supplementa_Vergilii_Aeneis_I_IV,0,2000-01-01 01:00:00,2016-04-03 02:51:08,855000/70857119b1bc70f58196ac4ccfc0fc02-g.jpg,,
22149911,Cena Trimalchionis,,Lingua Latina per se Illustrata,,"Petronius, Hans H. Ørberg",2003,,Domus Latina,,68,0,Latin,,,0,87-90696-04-2,,,,,,,,,,,300,,1,0,1,1,1,1,1296384,djvu,06f8c3827b26bfbf4b59a618dff66475,,,LLPSI_Supplementa_Petronii_Cena_Trimalchionis,0,2000-01-01 01:00:00,2016-04-03 02:51:08,855000/06f8c3827b26bfbf4b59a618dff66475-g.jpg,,
22149912,Catilina,,Lingua Latina per se Illustrata,,"C. Sallustius Crispus, M. Tullius Cicero, Hans H. Ørberg",2005,,Domus Latina,,84,0,Latin,,,0,87-90696-11-5,,,,,,,,,,,300,,1,0,1,1,1,1,1229445,djvu,10d9ce712c13a1e24cf92a5ab40d9e2b,,,LLPSI_Supplementa_Catilina,0,2000-01-01 01:00:00,2016-04-03 02:51:08,855000/10d9ce712c13a1e24cf92a5ab40d9e2b-g.jpg,,
22149913,Pars I: Exercitia Latina I,,Lingua Latina per se Illustrata,,Hans H. Ørberg,2005,,Focus Publishing/R. Pullins Co.,,148,0,Latin,315,,0,"1-58510-212-1, 978-1-58510-212-9",,1585102121,,,,,,,,,300,,1,0,1,1,1,1,2358907,djvu,9615ff406f5f0dd38ed028a601afcf60,,,LLPSI_Pars_I_Exercitia_Latina_I,0,2000-01-01 01:00:00,2016-04-03 02:51:08,855000/9615ff406f5f0dd38ed028a601afcf60-d.jpg,,
22149914,Pars I: Grammatica Latina,,Lingua Latina per se Illustrata,,Hans H. Ørberg,2006,,Focus Publishing/R. Pullins Company,,36,0,Latin,315,,0,"1-58510-223-7, 978-1-58510-223-5",,,,,,,,Xe7sPAAACAAJ,,,300,,1,0,1,1,1,1,908542,djvu,8001f186cf26f0dd74f39453000f3a02,,,LLPSI_Pars_I_Grammatica_Latina,0,2000-01-01 01:00:00,2016-04-03 02:51:08,855000/8001f186cf26f0dd74f39453000f3a02-g.jpg,,
22149915,Taking Tiger Mountain by Strategy.,,,,Peking Opera Troupe,1971,,Foreign Languages Press,,113,0,English,,,0,,,,,,,,,,,,0,,,,,1,,1,4764881,pdf,2b4ff93abb9acb5e0b2cad2988e8c635,,,Taking Tiger Mountain by strategy; selected songs. Arranged and presented by the group of the Shanghai Peking opera Troupe working on Taking Tiger Mountain by strategy,0,2000-01-01 01:00:00,2016-04-03 02:51:08,855000/2b4ff93abb9acb5e0b2cad2988e8c635-g.jpg,,
22149916,Pars I: Latine Disco: Student’s Manual,,Lingua Latina per se Illustrata,,Hans H. Ørberg,2005,,Focus Publishing/R. Pullins Company,,56,0,English,315,,0,"1-58510-050-1, 978-1-58510-050-7",,,,,,,,hiazPAAACAAJ,,,300,,1,0,1,1,1,1,1674030,djvu,cb3e667411c897ab3a3d5f7ecd03d7df,,,LLPSI_Pars_I_Latine_Disco,0,2000-01-01 01:00:00,2016-04-03 02:51:08,855000/cb3e667411c897ab3a3d5f7ecd03d7df-g.jpg,,
22149917,Pars II: Indices,,Lingua Latina per se Illustrata,,Hans H. Ørberg,2002,,Domus Latina,,68,0,Latin,315,,0,"87-997016-9-3, 978-87-997016-9-8",,,,,478.6,,,PKlWhNCaqc8C,,,300,,1,0,1,1,1,1,1386383,djvu,56cefb8805273a077933c1708447e994,,,LLPSI_Pars_II_Indices,0,2000-01-01 01:00:00,2016-04-03 02:51:08,855000/56cefb8805273a077933c1708447e994-g.jpg,,
22149918,Pars II: Exercitia Latina II,,Lingua Latina per se Illustrata,,Hans H. Ørberg,2007,,Focus Publishing/R. Pullins Company,,144,0,Latin,315,,0,"1-58510-067-6, 978-1-58510-067-5",,,,,,,,yHVhAAAACAAJ,,,300,,1,0,1,1,1,1,2495441,djvu,660d4a8847c31811822a654ed915b4e2,,,LLPSI_Pars_II_Exercitia_Latina_II,0,2000-01-01 01:00:00,2016-04-03 02:51:08,855000/660d4a8847c31811822a654ed915b4e2-g.jpg,,
22149919,Pars II: Instructions,,Lingua Latina per se Illustrata,,Hans H. Ørberg,2002,,Focus Publishing/R. Pullins Company,,40,0,English,315,,0,"1-58510-055-2, 978-1-58510-055-2",,,,,,,,9VdhAAAACAAJ,,,300,,1,0,1,1,1,1,933580,djvu,05417aec5bfc81ac4fccc1c5f9f0cb63,,,LLPSI_Pars_II_Instructions,0,2000-01-01 01:00:00,2016-04-03 02:51:08,855000/05417aec5bfc81ac4fccc1c5f9f0cb63-g.jpg,,
22149920,The McCarthy menace: An evaluation of the facts and an interpretation of the evidence,,,,Sherman Ford,1954,,William-Frederick Press,,94,0,English,,,0,,,,,,,,,,,,0,,,,,1,,1,31695810,pdf,1d38d1d0b29238e5eed5a5a0473c453f,,,"The McCarthy menace  an evaluation of the facts ... . Ford, Sherman, 1929-",0,2000-01-01 01:00:00,2016-04-03 02:51:08,855000/1d38d1d0b29238e5eed5a5a0473c453f-g.jpg,,
22149921,Rhetorik - Best of-Edition,,,,"Wolfgang Mentzel, Peter Flume",2008,1,Haufe Lexware Gmbh,,257,0,German,323,,0,"3448090999,9783448090994",,,,,,,,,,,0,,,,0,0,,1,2306566,pdf,e30594321e1e5e91af3934642b11dd14,,,Haufe - Taschenguide - Rhetorik - Best of Edition,0,2000-01-01 01:00:00,2016-04-03 02:51:08,855000/e30594321e1e5e91af3934642b11dd14-d.jpg,,
22149922,Ars Amatoria,,Lingua Latina per se Illustrata,,"P. Ovidius Naso, Hans H. Ørberg",2010,,Domus Latina,,116,0,Latin,,,0,"87-90696-18-2, 978-87-90696-18-4",,,,,,,,b-3fRgAACAAJ,,,300,,1,0,1,1,1,1,2477895,djvu,a3412a2f235efc8feff7208478538a16,,,LLPSI_Supplementa_Ovidii_Ars_Amatoria,0,2000-01-01 01:00:00,2016-04-03 02:51:08,855000/a3412a2f235efc8feff7208478538a16-g.jpg,,
22149923,Sermones Romani,,Lingua Latina per se Illustrata,,Hans H. Ørberg et al.,2004,,Domus Latina,,84,0,Latin,315,,0,"87-90696-07-7, 978-87-90696-07-8",,,,,,,,247bAAAACAAJ,,,300,,1,0,1,1,1,1,1831425,djvu,864da9c4aef42b021b5dffc298497d92,,,LLPSI_Supplementa_Sermones_Romani,0,2000-01-01 01:00:00,2016-04-03 02:51:08,855000/864da9c4aef42b021b5dffc298497d92-d.png,,
22149924,Amphitryo Comoedia,,Lingua Latina per se Illustrata,,"T. Maccius Plautus, Hans H. Ørberg",2003,,Domus Latina,,88,0,Latin,,,0,"87-997016-7-7, 978-87-997016-7-4",,,,,,,,WG2CZwEACAAJ,,,300,,1,0,1,1,1,1,1141585,djvu,5c888fe3e292d408de3053b389c2fe95,,,LLPSI_Supplementa_Plauti_Amphitryo,0,2000-01-01 01:00:00,2016-04-03 02:51:08,855000/5c888fe3e292d408de3053b389c2fe95-g.jpg,,
22149925,Marx's General: The Revolutionary Life of Friedrich Engels,,,,Tristram Hunt,2010,1,Picador,,464,0,English,,,0,"080509248X,9780805092486",,,,,,,,,,,0,,,,,1,,1,79817046,pdf,46f0418a70de3ac4f31e3248e5efd076,,,marx__039;s general engels searchable,0,2000-01-01 01:00:00,2016-04-03 02:51:08,855000/46f0418a70de3ac4f31e3248e5efd076-d.jpg,,
22149926,Teacher’s Materials & Answer Key,,Lingua Latina per se Illustrata,,Hans H. Ørberg,2005,,Focus Publishing/R. Pullins Co.,,180,0,Latin,315,,0,"1-58510-074-9, 978-1-58510-074-3",,,,,,,,jFLcPAAACAAJ,,,300,,1,0,1,1,1,1,5394203,djvu,697deff944478b3115a252d7e8e8522b,,,LLPSI_Teacher_s_Materials_and_Answer_Key,0,2000-01-01 01:00:00,2016-04-03 02:51:08,855000/697deff944478b3115a252d7e8e8522b-g.jpg,,
22149927,Pars I: Vocabulario Latino-Español I,,Lingua Latina per se Illustrata,,Hans H. Ørberg,2001,,Domus Latina,,20,0,Spanish,315,,0,,,,,,,,,,,,300,,1,0,1,1,1,1,276280,djvu,a53c43a363b930e7acc834df9dcaa4ae,,,LLPSI_Pars_I_Vocabulario_Latino-Espanol_I,0,2000-01-01 01:00:00,2016-04-03 02:51:08,855000/a53c43a363b930e7acc834df9dcaa4ae-g.jpg,,
22149928,Pars II: Latin–English Vocabulary II,,Lingua Latina per se Illustrata,,Hans H. Ørberg,2001,,Focus Publishing/R. Pullins Co.,,44,0,English,322,,0,"1-58510-052-8, 978-1-58510-052-1",,,,,,,,,,,300,0,1,0,1,1,1,1,790367,djvu,54ded1b31ea03e268535c4b9a0926af3,,,LLPSI_Pars_II_Latin-English_Vocabulary_I-II,0,2000-01-01 01:00:00,2016-04-03 02:51:08,855000/54ded1b31ea03e268535c4b9a0926af3-g.jpg,,
22149929,Colloquia Personarum: Latin-English Vocabulary,,Lingua Latina per se Illustrata,,Hans H. Ørberg,,,,,11,0,English,322,,0,,,,,,,,,,,,300,,1,0,,1,1,1,184947,djvu,dbb856c78c7ac079e1ef8762d48843bc,,,LLPSI_Supplementa_Colloquia_Personarum_Vocabulary,0,2000-01-01 01:00:00,2016-04-03 02:51:08,855000/dbb856c78c7ac079e1ef8762d48843bc-g.jpg,,
22149930,Cena Trimalchionis: Latin-English Vocabulary,,Lingua Latina per se Illustrata,,Hans H. Ørberg,2001,,Domus Latina,,20,0,English,322,,0,,,,,,,,,,,,300,0,1,0,1,1,1,1,319065,djvu,f292632b74efd5e4dec21a4d902f3e59,,,LLPSI_Supplementa_Petronii_Cena_Trim._Vocabulary,0,2000-01-01 01:00:00,2016-04-03 02:51:08,855000/f292632b74efd5e4dec21a4d902f3e59-g.jpg,,
22149931,Pars I: Latin-English Vocabulary I,,Lingua Latina per se Illustrata,,Hans H. Ørberg,2001,,,,20,0,English,322,,0,"1-58510-049-8, 978-1-58510-049-1",,,,,,,,,,Document typeset from scratch using content available on Focus Publishing’s website.,0,0,,,,1,,1,114923,pdf,ff675712d4bd0e43ac019f8669ad118f,,,LLPSI_Pars_I_Latin-English_Vocabulary_I,0,2000-01-01 01:00:00,2016-04-03 02:51:08,855000/ff675712d4bd0e43ac019f8669ad118f-g.jpg,,
22149932,Pars I: Vocabulaire latin-français I,,Lingua Latina per se Illustrata,,Hans H. Ørberg,2007,,,,19,0,French,322,,0,,,,,,,,,,,Document remis en page à la main à partir de contenu disponible sur le site de Focus Publishing.,0,0,,,,1,,1,98416,pdf,db297610ff3ae928867c97082c0b1588,,,LLPSI_Pars_I_Vocabulaire_latin-francais_I,0,2000-01-01 01:00:00,2016-04-03 02:51:08,855000/db297610ff3ae928867c97082c0b1588-g.jpg,,
22149933,Commentarii De Bello Gallico: Latin-English Vocabulary,,Lingua Latina per se Illustrata,,Hans H. Ørberg,,,,,14,0,English,322,,0,,,,,,,,,,,Document typeset from scratch using content available on Focus Publishing’s website,0,0,,,,1,,1,84799,pdf,35cc05b27846e64fb2222ce5a04af107,,,LLPSI_Supplementa_Caesaris_De_Bello_Gall_Vocabulary,0,2000-01-01 01:00:00,2016-04-03 02:51:08,855000/35cc05b27846e64fb2222ce5a04af107-g.jpg,,
22149934,Sermones Romani: Latin-English Vocabulary,,Lingua Latina per se Illustrata,,Hans H. Ørberg,2006,,,,14,0,English,322,,0,,,,,,,,,,,Document typeset from scratch using content available on Focus Publishing’s website,0,0,,,,1,,1,83717,pdf,2ae863f3533502cd75443824f6f0d430,,,LLPSI_Supplementa_Sermones_Romani_Vocabulary,0,2000-01-01 01:00:00,2016-04-03 02:51:08,855000/2ae863f3533502cd75443824f6f0d430-g.jpg,,
22149935,Aeneis: Latin-English Vocabulary,,Lingua Latina per se Illustrata,,Hans H. Ørberg,2008,,,,15,0,English,322,,0,,,,,,,,,,,Document typeset from scratch using content available on Focus Publishing’s website,0,0,,,,1,,1,94907,pdf,bd02fed029600464e61f572d0a7a1c94,,,LLPSI_Supplementa_Vergilii_Aeneis_Vocabulary,0,2000-01-01 01:00:00,2016-04-03 02:51:08,855000/bd02fed029600464e61f572d0a7a1c94-g.jpg,,
22149936,Pars II: Roma Aeterna,,Lingua Latina per se Illustrata,,Hans H. Ørberg,2003,,Domus Latina,,426,0,Latin,315,,0,"978-1-58510-314-0, 978-1-58510-233-4",,,,,,,,,,,300,,1,0,1,1,1,1,5711277,djvu,52f98f21f76ba092bc575af67aa3cc90,,,LLPSI_Pars_II_Roma_Aeterna,0,2000-01-01 01:00:00,2016-04-03 02:51:08,855000/52f98f21f76ba092bc575af67aa3cc90-g.jpg,,
22149937,Pars I: Familia Romana,,Lingua Latina per se Illustrata,,Hans H. Ørberg,2003,,Domus Latina,,330,0,Latin,315,,0,87-997016-5-0,,,,,,,,,,,300,,1,0,1,1,1,1,5113678,djvu,fd18ff6436efe8ab536a4c3a6168d27a,,,LLPSI_Pars_I_Familia_Romana,0,2000-01-01 01:00:00,2016-04-03 02:51:08,855000/fd18ff6436efe8ab536a4c3a6168d27a-g.jpg,,
22149938,"Budować, mieszkać, myśleć",,,,Martin Heidegger,1977,,Czytelnik,Warszawa,348,0,Polish,,,0,,,,,,,,,,,,0,,,,,1,,0,8954511,pdf,0ddade53cb01ce0b2d0b116ea892fa2e,,,"HEIDEGGER-Budować, mieszkać, myśleć-1977",0,2000-01-01 01:00:00,2016-04-03 02:51:08,855000/0ddade53cb01ce0b2d0b116ea892fa2e-g.jpg,,
22149939,Спирураты животных и человека и вызываемые ими заболевания.  Телязиодеи,Часть 4,Основы нематодологии т.16,,Скрябин К.И.,1967,,Наука,,624,0,Russian,,,0,,,,,,,,,,,,0,,,,,1,,0,10796052,djvu,6cc7d4ebc3d4d86e1b80deb67a12539d,e919dd5b0ccf94a10b94bd60d788dd71,no,6cc7d4ebc3d4d86e1b80deb67a12539d,0,2000-01-01 01:00:00,2016-04-03 02:51:08,855000/6cc7d4ebc3d4d86e1b80deb67a12539d-g.jpg,,
22149940,"The Technique of Film and Video Editing, Fourth Edition: History, Theory, and Practice",,,,Ken Dancyger,2006,4,Focal Press,,512,0,English,,,0,"0240807650,9780240807652",,,,,,,,,,,0,,,,,1,,0,1193888,djvu,30ed4c69a2d6e9873ee8707a83365417,,,30ed4c69a2d6e9873ee8707a83365417,0,2000-01-01 01:00:00,2016-04-03 02:51:08,855000/30ed4c69a2d6e9873ee8707a83365417-d.jpg,,
22149941,"Птицы Казахстана, Т.1",,,,И.А.Долгушин,1960,,Издательство Академии Наук Казахской ССР,Алма-Ата,469,0,Russian,,,0,,,,,,,,,,,,0,,,,,1,,0,26100175,djvu,60243a4e8b5930d8d254cccab431ba87,343aa8b7537b895acdfd937832aaa900,no,60243a4e8b5930d8d254cccab431ba87,0,2000-01-01 01:00:00,2016-04-03 02:51:08,855000/60243a4e8b5930d8d254cccab431ba87-g.jpg,,
22149942,Partials,,Partials,,Dan Wells,2012,,"Balzer + Bray,HarperCollins",,480,0,English,,,0,"0062071041,978-0062071040",,,,,,,,,,,0,,,,,1,,,1141929,epub,472838084b245d8f9cda31b22b4b55e2,,,(Partials_01)Dan_Wells-Partials-HarperCollins(2012),0,2000-01-01 01:00:00,2016-04-03 02:51:08,855000/472838084b245d8f9cda31b22b4b55e2-g.jpg,,
22149943,Partials,,Partials,,Dan Wells,2012,,"Balzer+Bray,HarperCollins",,,0,English,,,0,"0062071041,978-0062071040",,,,,,,,,,,0,,,,,1,,,789408,mobi,9eaf507a30a7041e70d3a4f711fc071e,,,(Partials_01)Dan_Wells-Partials-HarperCollins(2012),0,2000-01-01 01:00:00,2016-04-03 02:51:08,855000/9eaf507a30a7041e70d3a4f711fc071e-g.jpg,,
22149944,"Deux Cours d'Analyse Harmonique : Ecole d'Eté d'Analyse Harmonique de Tunis, 1984",,Progress in Mathematics 69,,"Jacques Faraut, Khélifa Harzallah",1987,,Birkhauser Verlag AG,,303,0,French,,,0,"3764333634,9783764333638",,,,,,,,,,,300,,,,,1,,1,2380420,djvu,942406ffcefc8bb2866c81b5a6328c45,,,PIM 69 - Harmonique,0,2000-01-01 01:00:00,2016-04-03 02:51:08,855000/942406ffcefc8bb2866c81b5a6328c45-g.jpg,,
22149945,The Crusades,,A Brief Insight,,Christopher Tyerman,2009,,Sterling,,224,0,English,,,0,"1402768915,9781402768910",,,,,,,,,,,0,,,,,1,,,6542623,mobi,d23b9edf8f5c4098ee439ef234e0d242,,,1402768915Crusades,0,2000-01-01 01:00:00,2016-04-03 02:51:08,855000/d23b9edf8f5c4098ee439ef234e0d242-d.jpg,,
22149946,"The Golden Ratio: The Story of Phi, the World's Most Astonishing Number",,,,Mario Livio,2002,1,Broadway,,320,0,English,,,0,"0767908155,9780767908153",,,,,,,,,,,0,,,,,1,,,7356507,mobi,92104fec48201593d63116f5f631ef7f,,,0767908155Rat,0,2000-01-01 01:00:00,2016-04-03 02:51:08,855000/92104fec48201593d63116f5f631ef7f-d.jpg,,
22149947,Under the Sea Wind,,,,Rachel L. Carson,1996,,Penguin Books,,320,0,English,,,0,"0140253807,9780140253801",,,,,,,,,,,0,,,,,1,,,1547400,mobi,31cc311237a15e69960d0da5bc1284eb,,,1453214739UnderSeaWind,0,2000-01-01 01:00:00,2016-04-03 02:51:08,855000/31cc311237a15e69960d0da5bc1284eb-d.jpg,,
22149948,Seven Databases in Seven Weeks: A Guide to Modern Databases and the NoSQL Movement,,,,"Eric Redmond, Jim R. Wilson",2012,,Pragmatic Bookshelf,,352,0,English,76,,0,"1934356921,9781934356920",,,,,,,,,,,0,,,,,1,,1,10325309,pdf,cbf38937207fba3ac468254be7540df0,,,Seven.Databases.in.Seven.Weeks,0,2000-01-01 01:00:00,2016-04-03 02:51:08,855000/cbf38937207fba3ac468254be7540df0-d.jpg,,
22149949,Seven Databases in Seven Weeks: A Guide to Modern Databases and the NoSQL Movement,,,,"Eric Redmond, Jim R. Wilson",2012,,Pragmatic Bookshelf,,352,0,English,76,,0,"1934356921,9781934356920",,,,,,,,,,,0,,,,,1,,,2350910,epub,8489534645496c852c7fd9c73d6f0bf1,,,Seven.Databases.in.Seven.Weeks,0,2000-01-01 01:00:00,2016-04-03 02:51:08,855000/8489534645496c852c7fd9c73d6f0bf1-d.jpg,,
22149950,Learning Rails 3,,,,"Simon St. Laurent, Dumbill, Eric J Gruber",2012,,O'Reilly Media,,416,0,English,,,0,"144930933X,9781449309336",,,,,,,,,,,0,,,,,1,,1,12741109,pdf,a9f86748485412c918b0dcea57ad2461,,,Learning.Rails.3,0,2000-01-01 01:00:00,2016-04-03 02:51:08,855000/a9f86748485412c918b0dcea57ad2461-d.jpg,,
22149951,Learning Rails 3,,,,"Simon St. Laurent, Dumbill, Eric J Gruber",2012,,O'Reilly Media,,416,0,English,,,0,"144930933X,9781449309336",,,,,,,,,,,0,,,,,1,,,6837860,epub,9f0a70e782fd1baeaf19988d54bcd7e6,,,Learning.Rails.3,0,2000-01-01 01:00:00,2016-04-03 02:51:08,855000/9f0a70e782fd1baeaf19988d54bcd7e6-d.jpg,,
22149952,Fixed Income Securities: Tools for Today's Markets,,,,"Bruce Tuckman, Angel Serrat",2011,3,Wiley Finance,,633,0,English,305,,0,978-0470891698,,,,,,,,VMZxd_tPckAC,,,300,1,1,0,1,1,0,0,4829523,djvu,ca56f99dc14100b6beeb525033aa4a8f,660e4ff933eb1d095ea981ecb240bf95,no,"Tuckman, Serrat - Fixed Income Securities - Tools for Today__039;s Markets 3rd ed",0,2000-01-01 01:00:00,2016-04-03 02:51:08,855000/ca56f99dc14100b6beeb525033aa4a8f-g.jpg,,
22149953,Handbook for Radiological Monitors,,,,Department of Defense,1963,,U.S. Government Printing Office,,41,0,English,,,0,,,B000EHH8TU,,,,,,,,,0,,,,,1,,0,2788324,pdf,905ac0677d24dbdc5549aa786b4109e4,,,Handbook for Radiological Monitors - US Dept of Civil Defense [FG-E-5.9] (1963) WW,0,2000-01-01 01:00:00,2016-04-03 02:51:08,855000/905ac0677d24dbdc5549aa786b4109e4-g.jpg,,
22149954,Acute Cardiac Care: A Practical Guide for Nurses,,,,"Angela Kucia, Tom Quinn",2009,1,Wiley-Blackwell,,320,0,English,,,0,"1405163615,9781405163613",,,,,,,,,,,0,,,,,1,,1,14189792,pdf,a161142104602e5167d03acb9aefa14f,,,Acute Cardiac Care A Practical Guide for Nurses 1405163615,0,2000-01-01 01:00:00,2016-04-03 02:51:08,855000/a161142104602e5167d03acb9aefa14f-d.jpg,,
22149955,The ARRL Handbook for Radio Communications: The Comprehensive RF Engineering Reference [With CDROM],,,,,2010,88 Pap/Cdr,American Radio Relay League (ARRL),,1376,0,English,,,0,"087259095X,9780872590953,978-0-87259-096-0",,,,,,,,,,,0,,,,,1,,1,175767370,pdf,8a983f6b4a29a062626c6a5db2c47255,,,"ARRL Handbook [2011] 88th ed (ARRL, 2010) WW",0,2000-01-01 01:00:00,2016-04-03 02:51:08,855000/8a983f6b4a29a062626c6a5db2c47255-d.jpg,,
22149956,The Edge of the Sea,,,,"Rachel Carson, Sue Hubbell",1998,,Mariner Books,,304,0,English,,,0,"0395924960,9780395924969",,,,,,,,,,,0,,,,,1,,,20669742,mobi,f041a5297f8468bba1e2c9eea7a8241b,,,0395924960EdgeSeas,0,2000-01-01 01:00:00,2016-04-03 02:51:08,855000/f041a5297f8468bba1e2c9eea7a8241b-d.jpg,,
22149957,The Edge of the Sea,,,,"Rachel Carson, Sue Hubbell",1998,,Mariner Books,,304,0,English,,,0,"0395924960,9780395924969",,,,,,,,,,,0,,,,,1,,,16027564,epub,63e6419b2ec989b7dc04db4951fa2c24,,,0395924960EdgeSeas,0,2000-01-01 01:00:00,2016-04-03 02:51:08,855000/63e6419b2ec989b7dc04db4951fa2c24-d.jpg,,
22149958,City: A Guidebook for the Urban Age,,,,P.D. Smith,2012,1,Bloomsbury Press,,400,0,English,,,0,"1608196763,9781608196760",,,,,,,,,,,0,,,,,1,,,15967305,mobi,d812b305f4cec3a21d8509e0a40dde81,,,city__a_guidebook_for_the_urban_age,0,2000-01-01 01:00:00,2016-04-03 02:51:08,855000/d812b305f4cec3a21d8509e0a40dde81-d.jpg,,
22149959,Introducing Regular Expressions,,,,Michael Fitzgerald,2012,,O'Reilly Media,,154,0,English,,,0,"1449392687,9781449392680",,,,,,,,,,,0,,,,,1,,1,9147546,pdf,a78acbb8602893cea7809104c93d9361,,,Introducing.Regular.Expressions,0,2000-01-01 01:00:00,2016-04-03 02:51:08,855000/a78acbb8602893cea7809104c93d9361-d.jpg,,
22149960,Introducing Regular Expressions,,,,Michael Fitzgerald,2012,,O'Reilly Media,,154,0,English,,,0,"1449392687,9781449392680",,,,,,,,,,,0,,,,,1,,,5456437,epub,34dcb726efb5851941799b7597e72efd,,,Introducing.Regular.Expressions,0,2000-01-01 01:00:00,2016-04-03 02:51:08,855000/34dcb726efb5851941799b7597e72efd-d.jpg,,
22149961,Convert!: Designing Web Sites to Increase Traffic and Conversion,,,,Ben Hunt,2011,1,Wiley,,312,0,English,,,0,"0470616334,9780470616338",,,,,,,,,,,0,,,,,1,,,8390286,epub,fe8c89af8f859861d3585836b6dfe42c,,,Convert,0,2000-01-01 01:00:00,2016-04-03 02:51:08,855000/fe8c89af8f859861d3585836b6dfe42c-d.jpg,,
22149962,The Trees in My Forest,,,,Bernd Heinrich,1998,,Harper Perennial,,256,0,English,,,0,"0060929421,9780060929428",,,,,,,,,,,0,,,,,1,,,7108187,mobi,14c373ca12e700e1cd18e0e93286bf12,,,0060929421TreesMyForest,0,2000-01-01 01:00:00,2016-04-03 02:51:08,855000/14c373ca12e700e1cd18e0e93286bf12-d.jpg,,
22149963,Cook Yourself Thin: Skinny Meals You Can Make in Minutes,,,,Lifetime Television,2009,1,Voice,,240,0,English,,,0,"1401341136,9781401341138",,,,,,,,,,,0,,,,,1,,,5706720,mobi,fecf1011cdf142456e251f6161d46c70,,,1401341136_CookThin,0,2000-01-01 01:00:00,2016-04-03 02:51:08,855000/fecf1011cdf142456e251f6161d46c70-d.jpg,,
22149964,Deploying with JRuby: Deliver Scalable Web Apps using the JVM,,,,Joe Kutner,2012,,Pragmatic Bookshelf,,224,0,English,92,,0,"1934356972,9781934356975",,,,,,,,,,,0,,,,,1,,1,5106341,pdf,6f9d57ca43fadc52b5c34b9e517527ab,,,Deploying.with.JRuby,0,2000-01-01 01:00:00,2016-04-03 02:51:08,855000/6f9d57ca43fadc52b5c34b9e517527ab-d.jpg,,
22149965,Александр Македонский,,Жизнь замечательных людей #1301,,Поль Фор,2011,,Молодая гвардия,,,0,Russian,,,0,"978-5-235-03423-5,",,,,,,,,,,,0,,,,,1,,,4227689,fb2,8c8ea7a085b526b119d7f5f57107df9e,,,Александр Македонский (Поль Фор) -  2011,0,2000-01-01 01:00:00,2016-04-03 02:51:08,855000/8c8ea7a085b526b119d7f5f57107df9e-g.jpg,,
22149966,Алехин,,Жизнь замечательных людей 994(794),,Юрий Шабуров,2001,,,,256,0,Russian,,,0,5-235-02416-8,,,,,,,,,,,0,,,,,1,,0,2454932,djvu,d02b0ccdee4e24d04f126b61b4b2ab0a,6bddcf8dd5db7ab3f82d5cbdafff126f,no,Алехин (Юрий Шабуров) - 2001,0,2000-01-01 01:00:00,2016-04-03 02:51:08,855000/d02b0ccdee4e24d04f126b61b4b2ab0a-d.jpg,,
22149967,"Séminaire de Théorie des Nombres, Paris 1985-86",,Progress in Mathematics 71,,"Catherine Goldstein,  editor",1987,,Birkhauser Verlag AG,,223,0,"English,French",,,0,"3764333693,9783764333690",,,,,,,,,,,300,,,,,1,,1,1785136,djvu,af5e3499010288e8745029adefb8bf10,,,PIM 71 - STN,0,2000-01-01 01:00:00,2016-04-03 02:51:08,855000/af5e3499010288e8745029adefb8bf10-g.jpg,,
22149968,Лодыгин,,Жизнь замечательных людей #632,,Людмила Николаевна Жукова,1989,,Молодая гвардия,,,0,Russian,,,0,,,,,,,,,,,,0,,,,,1,,,2572563,fb2,3e02668927bc697f5545ca6a3c4767a9,,,Лодыгин (Людмила Жукова) - 1989,0,2000-01-01 01:00:00,2016-04-03 02:51:08,855000/3e02668927bc697f5545ca6a3c4767a9-g.jpg,,
22149969,Андрей Тарковский,,Жизнь замечательных людей #1302,,Виктор Петрович Филимонов,2011,,Молодая Гвардия,,,0,Russian,,,0,"978-5-235-03399-3,",,,,,,,,,,,0,,,,,1,,,1155475,fb2,3b522ccd00dfc73f2126380188fdb18d,,,Андрей Тарковский (Виктор Филимонов) - 2011,0,2000-01-01 01:00:00,2016-04-03 02:51:08,,,
22149970,Democracy and Public Space: The Physical Sites of Democratic Performance,,,,John Parkinson,2012,,"Oxford University Press, USA",,296,0,English,,,0,"0199214565,9780199214563",,,,,,,,,,,0,,,0,,1,1,1,3936967,pdf,2a380d94bf8cb1a3ccf1148daa2c1315,,,Democracy and Public Space The Physical Sites of Democratic Performance,0,2000-01-01 01:00:00,2016-04-03 02:51:08,855000/2a380d94bf8cb1a3ccf1148daa2c1315-d.jpg,,
22149971,Бехтерев,,Жизнь замечательных людей #664,,Анатолий Сергеевич Никифоров,1986,,Молодая гвардия,,,0,Russian,,,0,,,,,,,,,,,,0,,,,,1,,,2758806,fb2,64a994dee5858acef041444e424e3a2a,,,Бехтерев (А. С. Никифоров) - 1986,0,2000-01-01 01:00:00,2016-04-03 02:51:08,,,
22149972,The Paradox of Love,,,,"Pascal Bruckner, Steven Randall, Richard Golsan",2012,,Princeton University Press,,272,0,English,,,0,"0691149143,9780691149141",,,,,,,,,,,0,,,,1,0,1,1,3113378,pdf,c770b5370148e5a16980d682b2dd35ed,,,The Paradox of Love,0,2000-01-01 01:00:00,2016-04-03 02:51:08,855000/c770b5370148e5a16980d682b2dd35ed-d.jpg,,
22149973,Бируни,,Жизнь замечательных людей #671,,Игорь Владимирович Тимофеев,1986,,Мол. гвардия,,,0,Russian,,,0,,,,,,,,,,,,0,,,,,1,,,3181924,fb2,cb3f7a64fa0f18043b54c130515fa05e,,,Бируни (Игорь Тимофеев) - 1986,0,2000-01-01 01:00:00,2016-04-03 02:51:08,,,
22149974,"The Virtues of Our Vices: A Modest Defense of Gossip, Rudeness, and Other Bad Habits",,,,Emrys Westacott,2011,,Princeton University Press,,304,0,English,,,0,"0691141991,9780691141992",,,,,,,,,,,0,,,,1,1,1,1,2833363,pdf,afad17a9dd05926a89b9305c3837982c,,,"The Virtues of Our Vices A Modest Defense of Gossip, Rudeness, and Other Bad Habits",0,2000-01-01 01:00:00,2016-04-03 02:51:08,855000/afad17a9dd05926a89b9305c3837982c-d.jpg,,
22149975,Горчаков,,Жизнь замечательных людей #1044,,Виктор Алексеевич Лопатников,2003,,Молодая гвардия,,,0,Russian,,,0,,,,,,,,,,,,0,,,,,1,,,3383086,fb2,63a1338d5af617c6997261b87861a296,,,Горчаков (Лопатников В.А.) - 2003,0,2000-01-01 01:00:00,2016-04-03 02:51:08,855000/63a1338d5af617c6997261b87861a296-d.jpg,,
22149976,Сергей Прокофьев,,Жизнь замечательных людей 1400(1200),,Игорь Вишневецкий,2009,,,,737,0,Russian,,,0,978-5-235-03212-5,,,,,,,,,,,0,,,,,1,,1,21081971,pdf,95a1b427c994a891d31b2911f0c38f79,,,Сергей Прокофьев (Игорь Вишневецкий) - 2009г,0,2000-01-01 01:00:00,2016-04-03 02:51:08,855000/95a1b427c994a891d31b2911f0c38f79-d.jpg,,
22149977,Vahidettin Mustafa Kemal ve Milli Mücadelede Yalanlar Yanlışlar Yutturmacalar,,,,Turgut Özakman,1997,,Bilgi Yayınevi,Istanbul,538,0,Turkish,,,0,9754946698,,,,,,,,,,,0,,,,,1,,1,1867229,pdf,48131e047a4688012c7947ccf0e2aa29,,,turgut-ozakman-vahidettin-mustafa-kemal-ve-milli-mucadele-yalanlar-yanlislar-yutturmacalar,0,2000-01-01 01:00:00,2016-04-03 02:51:08,855000/48131e047a4688012c7947ccf0e2aa29-d.jpg,,
22149978,Şu Çılgın Türkler,,,,Turgut Özakman,2005,,Bilgi Yayınevi,Istanbul,747,0,Turkish,,,0,9789752201880,,,,,,,,,,,0,,,,,1,,,5711360,doc,ed65ef8711d3d87af0e0ad3fdcdac51a,,,Turgut_Özakman_cilgin_Turkler,0,2000-01-01 01:00:00,2016-04-03 02:51:08,855000/ed65ef8711d3d87af0e0ad3fdcdac51a-d.jpg,,
22149979,"Deploying Rails: Automate, Deploy, Scale, Maintain, and Sleep at Night",,,,"Tom Copeland, Anthony Burns",2012,,Pragmatic Bookshelf,,240,0,English,,,0,"1934356956,9781934356951",,,,,,,,,,,0,,,,,1,,1,4048700,pdf,8f92c650fba36f336243e890f4bf3ad2,,,Deploying.Rails,0,2000-01-01 01:00:00,2016-04-03 02:51:08,855000/8f92c650fba36f336243e890f4bf3ad2-d.jpg,,
22149980,Cumhuriyet Türk Mucizesi Birinci Kitap,1,,,Turgut Özakman,2009,,Bilgi Yayınevi,Istanbul,440,0,Turkish,,,0,9752203181,,,,,,,,,,,0,,,,,1,,0,12759269,pdf,b61491a8262ae1db5669c3593703ef93,,,turgut özakman cumhuriyet mucizesi,0,2000-01-01 01:00:00,2016-04-03 02:51:08,855000/b61491a8262ae1db5669c3593703ef93-d.jpg,,
22149981,Justice for Hedgehogs,,,,Ronald Dworkin,2011,,Belknap Press of Harvard University Press,,528,0,English,,,0,"0674046714,9780674046719",,,,,,,,,,,0,,,,,1,,,3925507,mobi,def51db84ebe0337dbf34ee226e4f8e6,,,0674046714JusticeHedgehogs,0,2000-01-01 01:00:00,2016-04-03 02:51:08,855000/def51db84ebe0337dbf34ee226e4f8e6-d.jpg,,
22149982,The Dolce Diet: Living Lean,,,,"Mike Dolce, Brandy Roon",2011,,Xerxes House Press,,169,0,English,,,0,"0615531679,9780615531670",,,,,,,,,,,0,,,,,1,,,3517637,mobi,f510632b2fb79e3343bf68a02342a84d,,,The Dolce Diet,0,2000-01-01 01:00:00,2016-04-03 02:51:08,855000/f510632b2fb79e3343bf68a02342a84d-d.jpg,,
22149983,The Dolce Diet: Living Lean,,,,"Mike Dolce, Brandy Roon",2011,,Xerxes House Press,,169,0,English,,,0,"0615531679,9780615531670",,,,,,,,,,,0,,,,,1,,,1587549,epub,b19dfe3edece14f2d554ab8b46360e7f,,,The Dolce Diet,0,2000-01-01 01:00:00,2016-04-03 02:51:08,855000/b19dfe3edece14f2d554ab8b46360e7f-d.jpg,,
22149984,Cumhuriyet Türk Mucizesi İkincii Kitap,2,,,Turgut Özakman,2010,,Bilgi Yayınevi,Istanbul,845,0,Turkish,,,0,978 - 975 - 22 - 0363 - 1,,,,,,,,,,,0,,,,,1,,1,28714332,pdf,d2064795b0a7eecb2b00291d65c53dc9,,,Cumhuriyet _ Turk Mucizesi 2. Kitap - Turgut Ozakman,0,2000-01-01 01:00:00,2016-04-03 02:51:08,855000/d2064795b0a7eecb2b00291d65c53dc9-g.jpg,,
22149985,A Pocket Business Guide for Artists & Designers: 100 Things You Need to Know,,Essential Guide,,Alison Branagan,2011,,A&C Black,,128,0,English,,,0,"1408129922,9781408129920",,,,,,,,,,,0,,,,,1,,,3499367,epub,9f9d917853b61b448fd1087492b620a9,,,1408129922_GuideArtists,0,2000-01-01 01:00:00,2016-04-03 02:51:08,855000/9f9d917853b61b448fd1087492b620a9-d.jpg,,
22149986,"Networking for People Who Hate Networking: A Field Guide for Introverts, the Overwhelmed, and the Underconnected",,,,Devora Zack,2010,,Berrett-Koehler Publishers,,192,0,English,,,0,"1605095222,9781605095226",,,,,,,,,,,0,,,,,1,,,3384795,epub,9cf5383c8a8675f255ac6dbf62c22671,,,1605095222Networking,0,2000-01-01 01:00:00,2016-04-03 02:51:08,855000/9cf5383c8a8675f255ac6dbf62c22671-d.jpg,,
22149987,The Poet's Guide to Life: The Wisdom of Rilke,,,,"Rainer Maria Rilke, Ulrich Baer",2005,,Modern Library,,272,0,English,,,0,"0679642927,9780679642923",,,,,,,,,,,0,,,,,1,,,3221492,epub,42012328d5ca2259d234a503344f4508,,,The Poet__039;s Guide to Life,0,2000-01-01 01:00:00,2016-04-03 02:51:08,855000/42012328d5ca2259d234a503344f4508-d.jpg,,
22149988,The Arithmetic of Life and Death,,,,George Shaffner,2001,First Edition,Ballantine Books,,220,0,English,,Kolxo3,0,"0345426452,9780345426451",,,,,,,,,,,0,,,,,1,,,3177985,epub,415d16759de074fbd455eea770359c86,,,"M_Mathematics/MPop_Popular-level/Shaffner G. The arithmetic of life and death (Ballantine Books, 1999)(ISBN 9780307775740)_MPop_.epub",0,2000-01-01 01:00:00,2016-04-03 02:51:08,855000/415d16759de074fbd455eea770359c86-d.jpg,,
22149989,Allen's Dictionary of English Phrases,,,,R. E. Allen,2008,,Penguin Books,,832,0,English,,,0,"0140515119,9780140515114",,,,,,,,,,,0,,,,,1,,,3120157,epub,4d6046bf4fdb37c634c058861522b6f6,,,0140515119AllenDictEngPhrases,0,2000-01-01 01:00:00,2016-04-03 02:51:08,855000/4d6046bf4fdb37c634c058861522b6f6-d.jpg,,
22149990,"Dart for Hipsters: Fast, Flexible, Structured Code for the Modern Web",,Pragmatic Express,,Chris Strom,2012,,The Pragmatic Programmers,,134,0,English,,,0,9781937785031,,,,,,,,,,,0,,,,,1,,1,2971722,pdf,cb74cfa2fccd36bdf4001eaa96b1fc70,,,Dart.for.Hipsters,0,2000-01-01 01:00:00,2016-04-03 02:51:08,855000/cb74cfa2fccd36bdf4001eaa96b1fc70-d.jpg,,
22149991,"Dart for Hipsters: Fast, Flexible, Structured Code for the Modern Web",,,,Chris Strom,2012,,The Pragmatic Programmers,,,0,English,,,0,9781937785031,,,,,,,,,,,0,,,,,1,,,1253789,epub,305d6079ec4a586fc417cea0b774841a,,,Dart.for.Hipsters,0,2000-01-01 01:00:00,2016-04-03 02:51:08,855000/305d6079ec4a586fc417cea0b774841a-d.jpg,,
22149992,"Networking for People Who Hate Networking: A Field Guide for Introverts, the Overwhelmed, and the Underconnected",,,,Devora Zack,2010,,Berrett-Koehler Publishers,,192,0,English,,,0,"1605095222,9781605095226",,,,,,,,,,,0,,,,,1,,,2841226,mobi,d35d3f40e8d253de5d0654c5872512bb,,,1605095222Networking,0,2000-01-01 01:00:00,2016-04-03 02:51:08,855000/d35d3f40e8d253de5d0654c5872512bb-d.jpg,,
22149993,Engineering Happiness: A New Approach for Building a Joyful Life,,,,"Manel Baucells, Rakesh Sarin",2012,1,University of California Press,,248,0,English,,,0,"0520268202,9780520268203",,,,,,,,,,,0,,,,1,1,1,1,2279036,pdf,11a581142b6dda559494942b41c47180,,,Engineering Happiness A New Approach for Building a Joyful Life,0,2000-01-01 01:00:00,2016-04-03 02:51:08,855000/11a581142b6dda559494942b41c47180-d.jpg,,
22149994,The Pink Panther in the Haunted House,,Little Golden Books 140,,Kennon Graham,1975,,Western Publishing,,,0,English,,,0,,,,,,,,,,,,0,,,,,1,,,20539761,cbr,82c5c18f414a847784d359b2949d90e3,,,Little Golden Book 0140 - The Pink Panther in the Haunted House (1975) (c2c) (Oldschool-DREGS),0,2000-01-01 01:00:00,2016-04-03 02:51:08,,,
22149995,Halloween Coloring Book,,Novelty Coloring Book,,Golden Books,2006,,Golden Books,,80,0,English,,,0,"0375836276,9780375836275",,,,,,,,,,,0,,,,,1,,0,14954887,pdf,bd4d983f52ccb910cf397ad92b01e92d,,,Halloween House Coloring Book,0,2000-01-01 01:00:00,2016-04-03 02:51:08,855000/bd4d983f52ccb910cf397ad92b01e92d-d.jpg,,
22149996,Бабек,,Жизнь замечательных людей #87,,М. Томара,1936,,Журнально газетное объединение,,,0,Russian,,,0,,,,,,,,,,,,0,,,,,1,,,1270711,fb2,165c2d1d6e22216ef6d4a86405f61a64,,,Бабек (Михаил Томара) - 1936,0,2000-01-01 01:00:00,2016-04-03 02:51:08,,,
22149997,Воронцов,,Жизнь замечательных людей #907,,Вячеслав Афанасьевич Удовик,2004,,Молодая гвардия,,,0,Russian,,,0,"5-235-02728-0,",,,,,,,,,,,0,,,,,1,,,1624877,fb2,2c353e75c8fae73c3242047648050bd9,,,Воронцов (Вячеслав Удовик) - 2004,0,2000-01-01 01:00:00,2016-04-03 02:51:08,,,
22149998,Deploying with JRuby: Deliver Scalable Web Apps using the JVM,,,,Joe Kutner,2012,,Pragmatic Bookshelf,,224,0,English,92,,0,"1934356972,9781934356975",,,,,,,,,,,0,,,,,1,,,2602462,epub,c6350731beb3d04bdca81d7c20c84705,,,Deploying.with.JRuby,0,2000-01-01 01:00:00,2016-04-03 02:51:08,855000/c6350731beb3d04bdca81d7c20c84705-d.jpg,,
22149999,Allen's Dictionary of English Phrases,,,,R. E. Allen,2008,,Penguin Books,,832,0,English,,,0,"0140515119,9780140515114",,,,,,,,,,,0,,,,,1,,,2589096,mobi,06d019aa11c8bb87097abc1904ae696c,,,0140515119AllenDictEngPhrases,0,2000-01-01 01:00:00,2016-04-03 02:51:08,855000/06d019aa11c8bb87097abc1904ae696c-d.jpg,,
22150000,Manana Forever?: Mexico and the Mexicans,,,,Jorge G. Castaneda,2011,,Knopf,,320,0,English,,,0,"0375404244,9780375404245,9780307596604",,,,,,,,,,,0,,,,,1,,,2279833,epub,9ff8a069d518e9f157989ae18435fbf1,,,Manana Forever,0,2000-01-01 01:00:00,2016-04-03 02:51:08,855000/9ff8a069d518e9f157989ae18435fbf1-d.jpg,,
22150001,"Renegade: Henry Miller and the Making of \Tropic of Cancer\""""",,Icons of America,,Frederick Turner,2012,,Yale University Press,,256,0,English,,,0,"0300149492,9780300149494",,,,,,,,,,,0,,,,,1,,,1782469,epub,b15e76f717eeed94c36ac5c08dacc11f,,,Renegade,0,2000-01-01 01:00:00,2016-04-03 02:51:08,855000/b15e76f717eeed94c36ac5c08dacc11f-d.jpg,,
22150002,Working With Unix Processes,,,,Jesse Storimer,2011,,,,114,0,English,,,0,,,B0078VSRUE,,,,,,,,,0,,,,,1,,1,1704073,pdf,5b4c77dbd72a23c93e79e76f1ee76caf,,,Working.with.Unix.Processes,0,2000-01-01 01:00:00,2016-04-03 02:51:08,855000/5b4c77dbd72a23c93e79e76f1ee76caf-d.jpg,,
22150003,Working With Unix Processes,,,,Jesse Storimer,2011,,,,114,0,English,,,0,,,B0078VSRUE,,,,,,,,,0,,,,,1,,,458601,epub,4f399ac7d281a75e4a1ca8d99d10ccb7,,,Working.with.Unix.Processes,0,2000-01-01 01:00:00,2016-04-03 02:51:08,855000/4f399ac7d281a75e4a1ca8d99d10ccb7-d.jpg,,
22150004,To the Holy Shrines,,Great Journeys,,Richard Burton,2007,,Penguin Books,,112,0,English,,,0,"0141025387,9780141025384",,,,,,,,,,,0,,,,,1,,,1690764,epub,ac1983c01cd4c1af9054e46dcf59a433,,,0141025387ToHolyShrine,0,2000-01-01 01:00:00,2016-04-03 02:51:08,855000/ac1983c01cd4c1af9054e46dcf59a433-d.jpg,,
22150005,"Deploying Rails: Automate, Deploy, Scale, Maintain, and Sleep at Night",,,,"Tom Copeland, Anthony Burns",2012,,Pragmatic Bookshelf,,240,0,English,,,0,"1934356956,9781934356951",,,,,,,,,,,0,,,,,1,,,1135478,epub,b0ad6c654b71ede47719ebca3f523a5f,,,Deploying.Rails,0,2000-01-01 01:00:00,2016-04-03 02:51:08,855000/b0ad6c654b71ede47719ebca3f523a5f-d.jpg,,
22150006,Methods of Ethics,,,,Henry Sidgwick,1981,7,Hackett Pub Co Inc,,568,0,English,,,0,"0915145286,9780915145287",,,,,,,,,,,0,,,,,1,,,796650,mobi,72d70f98ff9c887fab29d810f2adf88d,,,0915145286MethodsEthcs,0,2000-01-01 01:00:00,2016-04-03 02:51:08,855000/72d70f98ff9c887fab29d810f2adf88d-d.jpg,,
22150007,Methods of Ethics,,,,Henry Sidgwick,1981,7,Hackett Pub Co Inc,,568,0,English,,,0,"0915145286,9780915145287",,,,,,,,,,,0,,,,,1,,,530496,epub,6cc993245fe60af31683d52f4fe18c7a,,,0915145286MethodsEthcs,0,2000-01-01 01:00:00,2016-04-03 02:51:08,855000/6cc993245fe60af31683d52f4fe18c7a-d.jpg,,
22150008,Александр Михайлович Ляпунов,,Жизнь замечательных людей #662,,Анатолий Сергеевич Шибанов,1985,,Молодая гвардия,,,0,Russian,,,0,,,,,,,,,,,,0,,,,,1,,,6836746,fb2,95b855e937bad75bcd3b055677cddab0,,,Александр Михайлович Ляпунов (Анатолий Шибанов) - 1985,0,2000-01-01 01:00:00,2016-04-03 02:51:08,,,
22150009,Достоевский,,Жизнь замечательных людей #357,,Леонид Петрович Гроссман,1962,,Молодая гвардия,,,0,Russian,,,0,,,,,,,,,,,,0,,,,,1,,,1576482,fb2,4dd6b00e89fc4576f686d7da4bc5693c,,,Достоевский (Леонид Гроссман) - 1962,0,2000-01-01 01:00:00,2016-04-03 02:51:08,,,
22150010,Лев Троцкий,,Жизнь замечательных людей #1481,,Георгий Иванович Чернявский,2010,,Молодая гвардия,,,0,Russian,,,0,"978-5-235-03369-6,",,,,,,,,,,,0,,,,,1,,,5069457,fb2,1f1404e537fc9d074aba03304e8af7b4,,,Лев Троцкий (Георгий Чернявский) - 2010,0,2000-01-01 01:00:00,2016-04-03 02:51:08,,,
22150011,The Ultimate Happiness Prescription: 7 Keys to Joy and Enlightenment,,,,Deepak Chopra,2009,1,Harmony,,144,0,English,,,0,"0307589714,9780307589712",,,,,,,,,,,0,,,,,1,,,669185,mobi,a114eca06669284444775c88ea3004b5,,,0307589714UltimateHappinessPrescription,0,2000-01-01 01:00:00,2016-04-03 02:51:08,855000/a114eca06669284444775c88ea3004b5-d.jpg,,
22150012,Symplectic Geometry and Secondary Characteristic Classes,,Progress in Mathematics 72,,Izu Vaisman,1987,,Birkhauser Verlag AG,,231,0,English,,,0,"3764333561,9783764333560",,,,,,,,,,,200,,,,,1,,1,2409591,djvu,f0eb06f6586c43058446f249892af5ac,,,PIM 72 - Symplectic,0,2000-01-01 01:00:00,2016-04-03 02:51:08,855000/f0eb06f6586c43058446f249892af5ac-g.jpg,,
22150013,Europenizarea societății românești și mass media,,,,"Schifirneț C., Boțan M., Cârlan I. A, Corbu N., Frunzaru V., Stavre I., Suciu, A.,",2011,1,Comunicare.ro,Bucharest,278,0,Romanian,,,0,978-973-711-333-7,,659.3,,,,,,,,,0,0,,0,1,1,0,1,2910556,pdf,bcf9db5c6ac47b509d1f37c0853f81eb,,,Europenizarea,0,2000-01-01 01:00:00,2016-04-03 02:51:08,855000/bcf9db5c6ac47b509d1f37c0853f81eb-g.jpg,,
22150014,A NEW HIGH-FREQUENCY POWER AMPLIFIER FOR MODULATED WAVES,,,,W. Doherty,1936,,Bell Telephone Laboratories,,25,0,English,,,0,,,,,,,,,,,Acrobat 4.05 Capture Plug-in for Windows,0,,,,,1,,1,3117663,pdf,6e59eb20471f7d955e4203b896dc275f,,,"A New High-Efficiency Power Amp for Modulated waves - W. Doherty (Bell Labs, 1936) WW",0,2000-01-01 01:00:00,2016-04-03 02:51:08,,,
22150015,Рембрандт,,Жизнь замечательных людей,,Поль Декарг,2000,,Молодая гвардия,,,0,Russian,,,0,"5-235-02349-8,",,,,,,,,,,,0,,,,,1,,,707906,fb2,8f1e8dac5545a41329bd97532f804b9b,,,Рембрандт (Пьер Декарг) - 2000,0,2000-01-01 01:00:00,2016-04-03 02:51:08,,,
22150016,Ибн Баттута,,Жизнь замечательных людей,,Игорь Тимофеев,1983,,Молодая гвардия,,,0,Russian,,,0,,,,,,,,,,,,0,,,,,1,,,1093974,fb2,280aa21457801428bed9d9388113a971,,,Ибн Баттута (Игорь Тимофеев) - 1983,0,2000-01-01 01:00:00,2016-04-03 02:51:08,,,
22150017,Бернард Шоу,,Жизнь замечательных людей #424,,Эмрис Хьюз,1966,,Молодая гвардия,,,0,Russian,,,0,,,,,,,,,,,,0,,,,,1,,,2329527,fb2,4a388d2dbb6dd1f2a506e75ae2523de5,,,Бернард Шоу (Эмрис Хьюз) - 1966,0,2000-01-01 01:00:00,2016-04-03 02:51:08,,,
22150018,Петровский,,Жизнь замечательных людей #374,,Федот Федотович Бега & Владимир Григорьевич Александров,1963,,Издательство ЦК ВЛКСМ «Молодая гвардия»,,,0,Russian,,,0,,,,,,,,,,,,0,,,,,1,,,1477915,fb2,540bea6312bea4c02a390ecf545c3e4a,,,"Петровский (Федот Бега, Владимир Александров) - 1963",0,2000-01-01 01:00:00,2016-04-03 02:51:08,,,
22150019,Маркс и Энгельс,,Жизнь замечательных людей #421,,Галина Серебрякова,1966,,Молодая гвардия,,,0,Russian,,,0,,,,,,,,,,,,0,,,,,1,,,3629016,fb2,881a4e02106bd596da7d001271cf557f,,,Маркс и Энгельс (Галина Серебрякова) - 1966,0,2000-01-01 01:00:00,2016-04-03 02:51:08,,,
22150020,Лжедмитрий I,,Жизнь замечательных людей #1199,,Вячеслав Николаевич Козляков,2009,,Молодая гвардия,,,0,Russian,,,0,"978-5-235-03270-5,",,,,,,,,,,,0,,,,,1,,,2896288,fb2,a9e77482e9c629b8b0ad1a1fc4f00d9f,,,Лжедмитрий I (Вячеслав Козляков) - 2009,0,2000-01-01 01:00:00,2016-04-03 02:51:08,,,
22150021,Жуков,,Жизнь замечательных людей #1237,,Владимир Оттович Дайнес,2010,,Молодая гвардия,,,0,Russian,,,0,"978-5-235-03339-9,",,,,,,,,,,,0,,,,,1,,,4874336,fb2,908171f946e8fbf846202f66d145868e,,,Жуков (Владимир Дайнес) - 2010,0,2000-01-01 01:00:00,2016-04-03 02:51:08,,,
22150022,Лев Толстой,,Жизнь замечательных людей #363,,Виктор Борисович Шкловский,1963,,Молодая гвардия,,,0,Russian,,,0,,,,,,,,,,,,0,,,,,1,,,4752576,fb2,ec46ebaf602df89e559e29cb997215bb,,,Лев Толстой (Виктор Шкловский) - 1963,0,2000-01-01 01:00:00,2016-04-03 02:51:08,,,
22150023,Глинка,,Жизнь замечательных людей #167,,Всеволод Васильевич Успенский,1950,,Молодая гвардия,,,0,Russian,,,0,,,,,,,,,,,,0,,,,,1,,,692216,fb2,6d6c7785d105babbd440dcaf0601f04c,,,Михаил Иванович Глинка (Всеволод Успенский) - 1950,0,2000-01-01 01:00:00,2016-04-03 02:51:08,,,
22150024,Братья Стругацкие,,Жизнь замечательных людей,,Дмитрий Михайлович Володихин & Геннадий Мартович Прашкевич,2012,,Молодая гвардия,,,0,Russian,,,0,"978-5-235-03475-4,",,,,,,,,,,,0,,,,,1,,,4151026,fb2,eda0930291af8509094b782a23b4f6f8,,,"Братья Стругацкие (Володихин, Прашкевич) - 2012",0,2000-01-01 01:00:00,2016-04-03 02:51:08,,,
22150025,Рудольф Дизель,,Жизнь замечательных людей #59,,Лев Иванович Гумилевский,1935,,Журноально-газетное объединение,,,0,Russian,,,0,,,,,,,,,,,,0,,,,,1,,,1640643,fb2,0b6c2baa34dd7a8ca1b7d3930d1d1574,,,Рудольф Дизель (Лев Гумилевский) - 1935,0,2000-01-01 01:00:00,2016-04-03 02:51:08,,,
22150026,Сальвадор Дали,,Жизнь замечательных людей #1348,,Мишель Нюридсани,2008,,Молодая гвардия,,,0,Russian,,,0,"978-5-235-03154-8,",,,,,,,,,,,0,,,,,1,,,1391583,fb2,6c6ca166b352e5febe69908afe254d19,,,Сальвадор Дали (Мишель Нюридсани) - 2008,0,2000-01-01 01:00:00,2016-04-03 02:51:08,,,
22150027,Стейниц. Ласкер,,Жизнь замечательных людей #80,,Михаил Левидов,1936,,Журнально-газетное объединение,,,0,Russian,,,0,,,,,,,,,,,,0,,,,,1,,,2741143,fb2,1f7567a57805accc0296977881a675df,,,Стейниц Ласкер (Михаил Левидов) - 1936,0,2000-01-01 01:00:00,2016-04-03 02:51:08,,,
22150028,Тютчев,,Жизнь замечательных людей #687,,Вадим Кожинов,1988,,Молодая гвардия,,,0,Russian,,,0,"5-235-00022-6,",,,,,,,,,,,0,,,,,1,,,5323598,fb2,dd65c5e5fb66b8b5d99a73ba87d2f242,,,Тютчев (Вадим Кожинов) - 1988,0,2000-01-01 01:00:00,2016-04-03 02:51:08,,,
22150029,Черненко,,Жизнь замечательных людей #1178,,Виктор Васильевич Прибытков,2009,,Молодая гвардия,,,0,Russian,,,0,"978-5-235-03250-7,",,,,,,,,,,,0,,,,,1,,,2928895,fb2,b738343ae188adfc711b876801a7a067,,,Черненко (В.В. Прибытков) - 2009,0,2000-01-01 01:00:00,2016-04-03 02:51:08,,,
22150030,Ломоносов,,Жизнь замечательных людей #319,,Александр Антонович Морозов,1961,4,Молодая гвардия,,,0,Russian,,,0,,,,,,,,,,,,0,,,,,1,,,3677884,fb2,421c922850dce1d4b109ad239fbf8766,,,"Ломоносов [4-е изд., испр. и сокр.] (Александр Морозов) - 1961",0,2000-01-01 01:00:00,2016-04-03 02:51:08,,,
22150031,Мелья,,Жизнь замечательных людей #461,,Юрий Вениаминович Погосов,1968,,Молодая гвардия,,,0,Russian,,,0,,,,,,,,,,,,0,,,,,1,,,1461372,fb2,8fceab0ac66a4af441ef3ae98019a169,,,Мелья (Юрий Погосов) - 1968,0,2000-01-01 01:00:00,2016-04-03 02:51:08,,,
22150032,Чака,,Жизнь замечательных людей 547,,Марат Брухнов,1974,,Молодая гвардия,,189,0,Russian,,,0,,,,,,,,,,,,0,,,,,1,,,880801,fb2,fe114bc57c77777ad9b448e3070df4b6,,,Чака (Марат Брухнов) - 1974,0,2000-01-01 01:00:00,2016-04-03 02:51:08,855000/fe114bc57c77777ad9b448e3070df4b6-d.jpg,,
22150033,Ельцин,,Жизнь замечательных людей #1285,,Борис Минаев,2010,,Молодая гвардия,,,0,Russian,,,0,"978-5-235-03398-6,",,,,,,,,,,,0,,,,,1,,,4894048,fb2,a051367b728c448f5d54f8b0588c786a,,,Ельцин (Борис Минаев) - 2010,0,2000-01-01 01:00:00,2016-04-03 02:51:08,,,
22150034,Бальзак,,Жизнь замечательных людей #37,,Павел Сергеевич Сухотин,1934,,Журнально-газетное объединение,,,0,Russian,,,0,,,,,,,,,,,,0,,,,,1,,,2920482,fb2,c6c9d4124c1650fe6414aebe51e7000c,,,Бальзак (Павел Сухотин) - 1934,0,2000-01-01 01:00:00,2016-04-03 02:51:08,,,
22150035,"Александр Григорьевич Столетов, 1839-1896",,Жизнь замечательных людей,,В. Н. Болховитинов,1953,,Молодая гвардия,,544,0,Russian,,,0,,,,,,,,,,,,0,,,,,1,,,1419505,fb2,bf498f31f0447bf03c427e130cacb88c,,,Александр Григорьевич Столетов (В. Болховитинов) - 1953,0,2000-01-01 01:00:00,2016-04-03 02:51:08,,,
22150036,Жан Жорес,,Жизнь замечательных людей,,Николай Молчанов,1986,,Молодая гвардия,,400,0,Russian,,,0,,,,,,,,,,,,0,,,,,1,,,1653441,fb2,f68e2b2b2e782582baba8f0769591467,,,Жан Жорес (Николай Молчанов) - 1986,0,2000-01-01 01:00:00,2016-04-03 02:51:08,,,
22150037,Микеланджело,,Жизнь замечательных людей #137,,Алексей Дживелегов,1938,,Молодая гвардия,,,0,Russian,,,0,,,,,,,,,,,,0,,,,,1,,,557034,fb2,254a0d40c4c48e5e1aba71efcc2ff114,,,Микеланджело (Алексей Дживелегов) - 1938,0,2000-01-01 01:00:00,2016-04-03 02:51:08,,,
22150038,Пирогов,,Жизнь замечательныз людей #399,,Владимир Ильич Порудоминский,1969,,Молодая гвардия,,,0,Russian,,,0,,,,,,,,,,,,0,,,,,1,,,2651125,fb2,039eccdb48f8817c68bec00a549218ab,,,Пирогов (Владимир Порудоменский) - 1969,0,2000-01-01 01:00:00,2016-04-03 02:51:08,,,
22150039,Туполев,,Жизнь замечательных людей #1327,,Николай Георгиевич Бодрихин,2011,,Молодая гвардия,,,0,Russian,,,0,"978-5-235-03439-6,",,,,,,,,,,,0,,,,,1,,,4211256,fb2,9e306f5d9ac9431bf4ac7352833b1202,,,Туполев (Николай Бодрихин) - 2011,0,2000-01-01 01:00:00,2016-04-03 02:51:08,,,
22150040,Моряк в седле: биография Джека Лондона,,Жизнь замечательных людей #312,,Ирвинг Стоун,1960,,Молодая гвардия,,,0,Russian,68,,0,,,,,,,,,,,,0,,,,,1,,,3065268,fb2,0171c08a5f1fad2db89efde1054ff258,,,Моряк в седле. Биография Джека Лондона (Ирвин Стоун) - 1960,0,2000-01-01 01:00:00,2016-04-03 02:51:08,,,
22150041,The Alchemyst,1,,,Michael Scott,,,,,,0,English,,,0,,,,,,,,,,,,0,,,,,1,,,462280,mobi,484f678db319fa144e16b63c42cdb365,,,The Alchemyst - Michael Scott,0,2000-01-01 01:00:00,2016-04-03 02:51:08,855000/484f678db319fa144e16b63c42cdb365-d.jpg,,
22150042,Рахманинов,,Жизнь замечательных людей,,Николай Бажанов,1962,,Молодая гвардия,,,0,Russian,,,0,,,,,,,,,,,,0,,,,,1,,,3438444,fb2,2e0d0a4807a96191ee1ddcf6c93f129d,,,Рахманинов (Николай Бажанов) - 1962,0,2000-01-01 01:00:00,2016-04-03 02:51:08,,,
22150043,Назым Хикмет,,Жизнь замечательных людей #448,,Радий Геннадиевич Фиш,,,,,,0,Russian,,,0,,,,,,,,,,,,0,,,,,1,,,3075817,fb2,a2b39b963238be95cecb15b69ec4354b,,,Назым Хикмет (Радий Фиш) - 1968,0,2000-01-01 01:00:00,2016-04-03 02:51:08,,,
22150044,Пржевальский,,Жизнь замечательных людей,,Сергей Исаакович Хмельницкий,1950,,Молодая гвардия,,,0,Russian,,,0,,,,,,,,,,,,0,,,,,1,,,2723613,fb2,fded394caea964d4c9efcffc3c4f27d4,,,Пржевальский (Сергей Хмельницкий) - 1950,0,2000-01-01 01:00:00,2016-04-03 02:51:08,,,
22150045,Сергей Лебедев,,Жизнь замечательных людей,,Константин Борисович Пиотровский,1960,,Молодая гвардия,,,0,Russian,,,0,,,,,,,,,,,,0,,,,,1,,,863237,fb2,2a4dca012d184f6cda483e526b63d8cf,,,Сергей Лебедев (Константин Пиотровский) - 1960,0,2000-01-01 01:00:00,2016-04-03 02:51:08,,,
22150046,Айни,,Жизнь замечательных людей,,Юсуф Акобиров & Шафкат Харисов,1968,,Молодая гвардия,,,0,Russian,,,0,,,,,,,,,,,,0,,,,,1,,,565334,fb2,79b5dd83b846990237ae99368cbd90f5,,,"Садриддин Айни (Юсуф Акобиров, Шавкат Харисов) - 1968",0,2000-01-01 01:00:00,2016-04-03 02:51:08,,,
22150047,Перикл,,Жизнь замечательных людей #504,,Феликс Наумович Арский,1971,,Молодая гвардия,,,0,Russian,,,0,,,,,,,,,,,,0,,,,,1,,,1676057,fb2,d296bf368c3e0d3754631ca2244bffe4,,,Перикл (Феликс Арский) - 1971,0,2000-01-01 01:00:00,2016-04-03 02:51:08,,,
22150048,Русанов,,Жизнь замечательных людей #921,,Владислав Сергеевич Корякин,2005,,Молодая гвардия,,,0,Russian,,,0,"5-235-02715-9,",,,,,,,,,,,0,,,,,1,,,4786982,fb2,50ccfc92ca73cde655c91a6e1c64dffd,,,Русанов (Владислав Корякин) - 2005,0,2000-01-01 01:00:00,2016-04-03 02:51:08,,,
22150049,Probability in Banach Spaces 7 : Proceedings of the Seventh International Conference,,Progress in Probability 21,,"Ernst Eberlein, James Kuelbs, Michael B. Marcus, Editors",1990,,Birkhäuser Boston,,318,0,English,,,0,"0817634754,9780817634759",,,,,,,,,,,300,,,,,1,,1,2798071,djvu,cf99f04e56a1bece18c8b7a6ec9c26c2,,,PIP 21 - Probability in Banach,0,2000-01-01 01:00:00,2016-04-03 02:51:08,855000/cf99f04e56a1bece18c8b7a6ec9c26c2-g.jpg,,
22150050,Патриарх Тихон,,Жизнь замечательных людей,,Михаил Вострышев,2004,,Молодая гвардия,,418,0,Russian,,,0,5-235-02647-0,,,,,,,,,,,0,,,,,1,,0,40909719,pdf,511ef39d22b126dfa2778e6a3cde8178,,,Патриарх Тихон (Вострышев М.И.) - 2004,0,2000-01-01 01:00:00,2016-04-03 02:51:08,855000/511ef39d22b126dfa2778e6a3cde8178-g.jpg,,
22150051,Эварист Галуа (Избранник богов),,Жизнь замечательных людей #236,,Леопольд Инфельд,1960,,Молодая гвардия,,,0,Russian,,,0,,,,,,,,,,,,0,,,,,1,,,2497074,fb2,ca87ecb768ffde5549624633232b49fd,,,Эварист Галуа. Избранник Богов (Леопольд Инфельд) - 1960,0,2000-01-01 01:00:00,2016-04-03 02:51:08,,,
22150052,Сен-Симон,,Жизнь замечательных людей #49,,Станислав Вольский,1935,,Журнально-газетное объединение,,,0,Russian,,,0,,,,,,,,,,,,0,,,,,1,,,1974428,fb2,c44fa7bdc2d536ab460e75e123dd669f,,,Сен-Симон (Станислав Вольский) - 1935,0,2000-01-01 01:00:00,2016-04-03 02:51:08,,,
22150053,Александр Блок,,Жизнь замечательных людей 475,,Андрей Турков,1969,,Молодая гвардия,,320,0,Russian,,,0,,,,,,,,,,,,0,,,,,1,,,332505,fb2,fedc8f3c2ea5fe378d13c7efb03ba29e,,,Александр Блок (Андрей Турков) - 1969,0,2000-01-01 01:00:00,2016-04-03 02:51:08,855000/fedc8f3c2ea5fe378d13c7efb03ba29e-d.jpg,,
22150054,ActionScript 3.0 Game Programming University,,2nd Edition,,Gary Rosenzweig,2011,2,Que,,552,0,English,87,,0,"0789747324,9780789747327",,,,,,,,,,,0,,,,,1,,1,7187400,pdf,a2ea9ff46ac485bb40bb1ea6e71069c2,,,"ActionScript 3.0 Game Programming University 2nd ed - G. Rosenzweig (Que, 2011) WW",0,2000-01-01 01:00:00,2016-04-03 02:51:08,855000/a2ea9ff46ac485bb40bb1ea6e71069c2-d.jpg,,
22150055,Абд-аль-Кадир,,Жизнь замечательных людей #459,,Юлий Оганисьян,1968,,Молодая гвардия,,,0,Russian,,,0,,,,,,,,,,,,0,,,,,1,,,3340456,fb2,86c19884fd210b0a6453ef4f56771aa4,,,Абд-аль-Кадир (Ю. Оганисьян) - 1968,0,2000-01-01 01:00:00,2016-04-03 02:51:08,,,
22150056,Абель — Фишер,,Жизнь замечательных людей #1313,,Николай Долгополов,2011,,Молодая гвардия,,,0,Russian,,,0,978-5-235-03448-8,,,,,,,,,,,0,,,,,1,,,2970306,fb2,c7cf7ee69fbc35fbc31f1044690d57e5,,,Абель - Фишер (Николай Долгополов) - 2011,0,2000-01-01 01:00:00,2016-04-03 02:51:08,,,
22150057,Август,,Жизнь замечательных людей 1052 (852),,Жан-Пьер Неродо,2003,,Молодая гвардия,,366,0,Russian,,,0,5-235-02564-4,,,,,,,,,,,0,,,,,1,,0,23487361,pdf,c1c9992f4feb36b183aac35cfa29463b,,,Август (Жан-Пьер Неродо) - 2003,0,2000-01-01 01:00:00,2016-04-03 02:51:08,855000/c1c9992f4feb36b183aac35cfa29463b-d.jpg,,
22150058,Адмирал Корнилов,,Жизнь замечательных людей #1246,,Светлана Борисовна Кузьмина,2007,,Молодая гвардия,,,0,Russian,,,0,978–5–235–02982–8,,,,,,,,,,,0,,,,,1,,,4415119,fb2,8a662020acd236528ae09b1073909929,,,Адмирал Корнилов (Светлана Кузьмина) - 2007,0,2000-01-01 01:00:00,2016-04-03 02:51:08,,,
22150059,Степан Осипович Макаров,,Жизнь замечательных людей (Великие люди русского народа),,Осипов К.,1943,,ОГИЗ,,40,0,Russian,,,0,,,,,,,,,,,,0,,,,,1,,1,3493047,djvu,43957c265eb367c47983072e912bd8d5,,,Адмирал Макаров (К. Осипов) - 1943,0,2000-01-01 01:00:00,2016-04-03 02:51:08,855000/43957c265eb367c47983072e912bd8d5-d.jpg,,
22150060,Бессемер,,Жизнь замечательных людей #47,,Михаил Павлович Лесников,1934,,Журнально-газетное объединение,,,0,Russian,,,0,,,,,,,,,,,,0,,,,,1,,,2765335,fb2,1eb32390ddc27159a18ff77bfa077cde,,,Бессемер (Михаил Лесников) - 1934,0,2000-01-01 01:00:00,2016-04-03 02:51:08,ftp://libgen.org/covers/1eb32390ddc27159a18ff77bfa077cde-temp.jpg,,
22150061,Александр Степанович Попов,,Жизнь замечательных людей (Великие люди русского народа),,Григорий Иванович Головин,1945,,Молодая Гвардия,,,0,Russian,,,0,,,,,,,,,,,,0,,,,,1,,,426891,fb2,7425dbdee132078be9a0c8ad4b9f8b7e,,,Александр Степанович Попов (Григорий Головин) - 1945,0,2000-01-01 01:00:00,2016-04-03 02:51:08,855000/7425dbdee132078be9a0c8ad4b9f8b7e-d.jpg,,
22150062,Амундсен,,Жизнь замечательных людей #68,,Михаил Алексеевич Дьяконов,1937,,Журнально-газетное объединение,,,0,Russian,,,0,,,,,,,,,,,,0,,,,,1,,,748422,fb2,143e74fa2cb9bfb202dea4a613496844,,,Амундсен (Михаил Дьяконов) - 1937,0,2000-01-01 01:00:00,2016-04-03 02:51:08,855000/143e74fa2cb9bfb202dea4a613496844-d.jpg,,
22150063,Батый,,Жизнь замечательных людей #1315,,Алексей Карпов,2011,,Молодая гвардия,,,0,Russian,,,0,"978-5-235-03450-1,",,,,,,,,,,,0,,,,,1,,,3278352,fb2,d3cc3876315b7f8ad850538b7673d2bb,,,Батый (Алексей Карпов) - 2011,0,2000-01-01 01:00:00,2016-04-03 02:51:08,855000/d3cc3876315b7f8ad850538b7673d2bb-d.jpg,,
22150064,Бенкендорф,,Жизнь замечательных людей #1168,,Дмитрий Иванович Олейников,2009,,Молодая гвардия,,,0,Russian,,,0,"978-5-235-03176-0,",,,,,,,,,,,0,,,,,1,,,1576286,fb2,84b850ab839c155d98e0d948b7914441,,,Бенкендорф (Дмитрий Олейников) - 2009,0,2000-01-01 01:00:00,2016-04-03 02:51:08,855000/84b850ab839c155d98e0d948b7914441-d.jpg,,
22150065,Беринг,,Жизнь замечательных людей #333,,Николай Корнеевич Чуковский,1961,,Молодая гвардия,,,0,Russian,,,0,,,,,,,,,,,,0,,,,,1,,,1282245,fb2,7b234f4ba2cff18ccf35ed0d05c14c7e,,,Беринг (Николай Чуковский) - 1961,0,2000-01-01 01:00:00,2016-04-03 02:51:08,855000/7b234f4ba2cff18ccf35ed0d05c14c7e-d.jpg,,
22150066,Аун Сан,,Жизнь замечательных людей #401,,Игорь Всеволодович Можейко,1965,,Молодая гвардия,,,0,Russian,,,0,,,,,,,,,,,,0,,,,,1,,,1421450,fb2,c02146bc946a66e3d501dad11b092bbf,,,Аун Сан (Игорь Можейко) - 1965,0,2000-01-01 01:00:00,2016-04-03 02:51:08,855000/c02146bc946a66e3d501dad11b092bbf-d.jpg,,
22150067,Борис Пастернак,,Жизнь замечательных людей #1039,,Дмитрий Львович Быков,2007,4,Молодая гвардия,,,0,Russian,,,0,"978-5-235-02977-4,",,,,,,,,,,,0,,,,,1,,,3827321,fb2,4b6a8bc2376a94849bf5bd5fdd8bfe0a,,,Борис Пастернак (Дмитрий Быков) - 2007 4-е изд,0,2000-01-01 01:00:00,2016-04-03 02:51:08,855000/4b6a8bc2376a94849bf5bd5fdd8bfe0a-d.jpg,,
22150068,Булавин,,Жизнь замечательных людей,,Виктор Иванович Буганов,1988,,Молодая гвардия,,,0,Russian,,,0,,,,,,,,,,,,0,,,,,1,,,2148055,fb2,ddc989112d651f4df9860b2f0bbec728,,,Булавин (Виктор Буганов) - 1988,0,2000-01-01 01:00:00,2016-04-03 02:51:08,855000/ddc989112d651f4df9860b2f0bbec728-d.jpg,,
22150069,Вольф Мессинг,,Жизнь замечательных людей #1281,,Борис Соколов,2010,,Молодая гвардия,,,0,Russian,,,0,"978-5-235-03394-8,",,,,,,,,,,,0,,,,,1,,,1741992,fb2,444769fe6084c26542a43d628a7daedc,,,Вольф Мессинг (Борис Соколов) - 2010,0,2000-01-01 01:00:00,2016-04-03 02:51:08,855000/444769fe6084c26542a43d628a7daedc-d.jpg,,
22150070,Вахтангов,,Жизнь замечательных людей #354,,Хрисанф Николаевич Херсонский,1963,,Молодая гвардия,,,0,Russian,,,0,,,,,,,,,,,,0,,,,,1,,,706478,fb2,6639754c0867164eb3588a689e62db7f,,,Вахтангов (Хрисанф Херсонский) - 1963,0,2000-01-01 01:00:00,2016-04-03 02:51:08,855000/6639754c0867164eb3588a689e62db7f-d.jpg,,
22150071,Гаршин,,Жизнь замечательных людей #92,,Наум Зиновьевич Беляев,1938,,Молодая гвардия,,,0,Russian,,,0,,,,,,,,,,,,0,,,,,1,,,1566090,fb2,3de93636c327347e3f44c3ea85adcce3,,,Гаршин (Наум Беляев) - 1938,0,2000-01-01 01:00:00,2016-04-03 02:51:08,855000/3de93636c327347e3f44c3ea85adcce3-d.jpg,,
22150072,Tecnicas De Fisica Experimental  Tomo I,,,,John Strong,1965,,Editorial Universitaria de Buenos Aires,Buenos Aires,284,0,Spanish,264,,0,,,,,,,,,,,,300,0,1,0,0,1,0,1,10621508,pdf,c0048249955822fe7b80fa68ff0d64c4,,,Tecnicas De Fisica Experimental  J Strong T 1 ,0,2000-01-01 01:00:00,2016-04-03 02:51:08,855000/c0048249955822fe7b80fa68ff0d64c4-d.jpg,,
22150073,"Contemporary Japanese Literature: An Anthology Of Fiction, Film, And Other Writing Since 1945",,,,Howard Hibbett,2005,,Cheng & Tsui,,468,0,English,,,0,"0887274366,9780887274367",,,,,,,,,,,0,,,,,1,,1,3232212,pdf,5c5f27472832119dfb722e0cedd8f553,,,Contemporary Japanese Literature  - Howard Hibbett,0,2000-01-01 01:00:00,2016-04-03 02:51:08,855000/5c5f27472832119dfb722e0cedd8f553-d.jpg,,
22150074,Modern Japanese Stories,,Tuttle Classics of Japanese Literature,,Ivan Morris,1989,,Tuttle Publishing,,512,0,English,,,0,"0804812268,9780804812269",,,,,,,,,,,0,,,,,1,,1,7493739,pdf,078728119f939574a9fae69506c46c47,,,Modern Japanese Stories - Ivan Morris,0,2000-01-01 01:00:00,2016-04-03 02:51:08,855000/078728119f939574a9fae69506c46c47-d.jpg,,
22150075,Modern Japanese Literature: From 1868 to the Present Day,,,,Donald Keene,1994,,Grove Press,,448,0,English,,,0,"0802150950,9780802150950",,,,,,,,,,,0,,,,,1,,1,3653697,pdf,838bc9d66b2f2abf6f7caeb85d8ae93c,,,Modern Japanese Literature - Donald Keene,0,2000-01-01 01:00:00,2016-04-03 02:51:08,855000/838bc9d66b2f2abf6f7caeb85d8ae93c-d.jpg,,
22150076,The Collected Stories of Mavis Gallant,,,,Mavis Gallant,1996,1st,Random House,,887,0,English,,,0,"0679448861,9780679448860",,,,,,,,,,,0,,,,,1,,1,9854487,pdf,be8532594b49f3e1be6b6bc7ba9a0fed,,,"Collected Stories of Mavis Gallant, The - Mavis Gallant",0,2000-01-01 01:00:00,2016-04-03 02:51:08,855000/be8532594b49f3e1be6b6bc7ba9a0fed-d.gif,,
22150077,"Sums, Trimmed Sums and Extremes",,Progress in Probability 23,,"Marjorie G. Hahn, David M. Mason, Daniel C. Weiner, Editors",1991,,Birkhäuser,,428,0,English,,,0,"0-8176-3542-4,3-7643-3542-4",,,,,,,,,,,300,,,,,1,,1,3605276,djvu,66922c8ff031b4b64d95ddccb7490c8d,,,PIP 23 - Sums,0,2000-01-01 01:00:00,2016-04-03 02:51:08,855000/66922c8ff031b4b64d95ddccb7490c8d-g.jpg,,
22150078,Introduction to the theory of quantized fields,,,,"N.N. Bogoliubov, D.V. Shirkov",1980,3rd,John Wiley & Sons,,636,0,English,,xl,0,"0471042234, 9780471042235",,,,,,,,,,,600,0,1,0,1,1,1,1,7115119,djvu,c90777f8bb31960f4e017baa1f8dde8e,,,Bogo-Shirkov_1979_IntroThQzdFlds_,0,2000-01-01 01:00:00,2016-04-03 02:51:08,855000/c90777f8bb31960f4e017baa1f8dde8e-g.jpg,,
22150079,Totalitarian Capitalism and Beyond,,,,George Liodakis,2010,,Ashgate,,248,0,English,,,0,"0754675572,9780754675570",,,,,,,,,,,0,,,,,1,,1,4002609,djvu,69d2022516a7d42cce9afde513f82f13,,,liodakis,0,2000-01-01 01:00:00,2016-04-03 02:51:08,855000/69d2022516a7d42cce9afde513f82f13-d.jpg,,
22150080,Hegel's Ladder,1,Two Vol. Set: The Pilgrimage of Reason; The Odyssey of Spirit),,H. S. Harris,1997,1,Hackett Pub Co Inc,,1565,0,English,,,0,"0872202801,9780872202801",,,,,,,,,,,0,,,,,1,0,1,8151330,pdf,e06bb368e54918f2125db5bc72c84aad,,,Hegels Ladder - Vol 1 - Pilgrimage of Reason_CS,0,2000-01-01 01:00:00,2016-04-03 02:51:08,855000/e06bb368e54918f2125db5bc72c84aad-d.jpg,,
22150081,Hegel's Ladder,2,Two Vol. Set: The Pilgrimage of Reason; The Odyssey of Spirit),,H. S. Harris,1997,1,Hackett Pub Co Inc,,1565,0,English,,,0,"0872202801,9780872202801",,,,,,,,,,,0,,,,,1,0,1,14181275,pdf,62670adeba5210c8c5456006f65a93cc,,,Hegels Ladder - Vol 2 - Odyssey of Spirit_CS,0,2000-01-01 01:00:00,2016-04-03 02:51:08,855000/62670adeba5210c8c5456006f65a93cc-d.jpg,,
22150082,"The Abolition of Feudalism: Peasants, Lords and Legislators in the French Revolution",,,,John Markoff,1996,,Pennsylvania State Univ Pr (Txt),,689,0,English,,,0,"0271015381,9780271015385",,,,,,,,,,,0,,,,,1,,,4557347,epub,db5294d50e99b09c0d99e7475333dc7f,,,"The Abolition of Feudalism_ Peasants, Lo - John Markoff",0,2000-01-01 01:00:00,2016-04-03 02:51:08,855000/db5294d50e99b09c0d99e7475333dc7f-d.jpg,,
22150083,The Battle of the Books: History and Literature in the Augustan Age,,,,"Joseph M. Levine [Levine, Joseph M.]",1994,,Cornell University Press,,,0,English,,,0,"9780801481994,0801481996",,,,,,,,sGIGLnCEWVsC,,calibre (0.8.59) [http://calibre-ebook.com],0,,,,,1,,,3381289,epub,24c3333172c6de57602bcc95efe7a785,,,The Battle of the Books_ History and Lit - Joseph M. Levine,0,2000-01-01 01:00:00,2016-04-03 02:51:08,855000/24c3333172c6de57602bcc95efe7a785-d.jpg,,
22150084,The Man on Horseback: The Role of the Military in Politics,,,,"Samuel E. Finer & Jay Stanley [Finer, Samuel E. & Stanley, Jay]",1976,,Transaction Publishers,,,0,English,,,0,"9780765809223,0765809222",,,,,,,,4lhgDBDWw3AC,,,0,,,,,1,,,833727,epub,d3ef3306c870014112af1fb8431f85f8,,,The Man on Horseback_ The Role of the Mi - Samuel E. Finer,0,2000-01-01 01:00:00,2016-04-03 02:51:08,855000/d3ef3306c870014112af1fb8431f85f8-d.jpg,,
22150085,History of Government From the Earliest Times V3 Empires,,,,"S. E. Finer [Finer, S. E.]",1998,,Oxford University Press,,,0,English,,,0,"9780198206668,0198206666",,,,,,,,,,,0,,,,,1,,,1756380,epub,76712be0edaa8b0129bfa71eea369dd2,,,History of Government From the Earliest  - S. E. Finer,0,2000-01-01 01:00:00,2016-04-03 02:51:08,855000/76712be0edaa8b0129bfa71eea369dd2-d.jpg,,
22150086,The Age of Federalism,,,,"Stanley Elkins & Eric McKitrick [Elkins, Stanley & McKitrick, Eric]",1993,,Oxford University Press,,,0,English,,,0,"9780195068900,0195068904",,,,,,,,KKlET6iHrusC,,,0,,,,,1,,,2493245,epub,c7aced196a1935b8083b8fa8d85d7523,,,The Age of Federalism - Stanley Elkins,0,2000-01-01 01:00:00,2016-04-03 02:51:08,855000/c7aced196a1935b8083b8fa8d85d7523-d.jpg,,
22150087,Contradictions: Neuroscience and Religion,,Springer-Praxis Books - Popular Science,,José M. Musacchio (auth.),2012,1,Springer-Verlag Berlin Heidelberg,,195,0,English,165,,0,"3642271979,9783642271977,3642271987,9783642271984",,,,,,,10.1007/978-3-642-27198-4,,,,0,,,,1,0,1,1,2287006,pdf,99d97d148dbb95807da536296f70be19,,,Contradictions. Neuroscience and religion,0,2000-01-01 01:00:00,2016-04-03 02:51:08,855000/99d97d148dbb95807da536296f70be19-d.jpg,,
22150088,"Classical Recursion Theory: The Theory of Functions and Sets of Natural Numbers, Vol. 1",,Studies in Logic and the Foundations of Mathematics 125,,Piergiorgio Odifreddi,1999,2,Elsevier Science B.V.,,690,0,English,130,,0,"9780444894830,0444894837",0049-237X,,,,511.3,QA9.6 .O35 1989,,,,bookmarks: 3 levels ( B4BE2D48D1EB5144D4D068EE7EBD6C8E has only 2 levels),0,,,,1,1,1,1,29018419,pdf,a89238c894086fe82a4d89b57237e98c,,,Classical recursion theory. The theory of functions and sets of natural numbers,0,2000-01-01 01:00:00,2016-04-03 02:51:08,430000/615f89636c288b91504148469ddf5629-g.jpg,,
22150089,Capitalism Yesterday and Today,,,,Maurice Dobb,1962,First U.S. Edition,"Monthly Review Press, New York",,91,0,English,,,0,,,,,,,,,,,,0,,,,,1,,1,6039292,pdf,c109cb1811b37448cca89e973fdd36b9,,,"Capitalism yesterday and today. . Dobb, Maurice, 1900-1976",0,2000-01-01 01:00:00,2016-04-03 02:51:08,855000/c109cb1811b37448cca89e973fdd36b9-d.jpg,,
22150090,Cuba,,,,Leo Huberman,,,,,233,0,English,,,0,,,,,,,,,,,,0,,,,,1,,1,17825243,pdf,dd55ba83d83a1181840a7847b70f8680,,,"Cuba . Huberman, Leo, 1903-1968",0,2000-01-01 01:00:00,2016-04-03 02:51:08,855000/dd55ba83d83a1181840a7847b70f8680-g.jpg,,
22150091,Democracy Against the State: Marx and the Machiavellian Movement,,,,Miguel Abensour,2011,1,Polity,,200,0,English,,,0,"0745650104,9780745650104",,,,,,,,,,,0,,,,,1,,1,13336346,pdf,c39825a4318ee8dc0aaa979b93d48d89,,,democracy against the state searchable,0,2000-01-01 01:00:00,2016-04-03 02:51:08,855000/c39825a4318ee8dc0aaa979b93d48d89-d.jpg,,
22150092,Frederick Engels: A short biography,,,,Evgeniia Akimovna Stepanova,1988,First English Edition,Progress Publishers,,302,0,English,,,0,"5010004445,9785010004446",,,,,,,,,,,0,,,,,1,,1,21765277,pdf,5195009bd455eca8c08c4eb1133a152b,,,engels biography searchable,0,2000-01-01 01:00:00,2016-04-03 02:51:08,855000/5195009bd455eca8c08c4eb1133a152b-g.jpg,,
22150093,Engels Revisited:  Feminist Essays,18,Routledge Revivals,,"Janet Sayers, Mary Evans, Nanneke Redclift",2010,1,Routledge,,176,0,English,,,0,"0415571391,9780415571395",,,,,,,,,,,0,,,,,1,,1,10113207,pdf,ce4dd18699856ff332a3c5e3fb6a59c9,,,engels revisited searchable,0,2000-01-01 01:00:00,2016-04-03 02:51:08,855000/ce4dd18699856ff332a3c5e3fb6a59c9-d.jpg,,
22150094,A Grammar Book of Finnish,,,,White L.,2006,,Finn Lectura,Helsinki,364,0,English,315,,0,951-792-146-2,,,,,,,,,,,300,,1,0,1,1,1,1,3827219,djvu,fcab9337e66866717d1f323fae07fc48,,,Leila_White-A_Grammar_Book_of_Finnish,0,2000-01-01 01:00:00,2016-04-03 02:51:08,855000/fcab9337e66866717d1f323fae07fc48-g.jpg,,
22150095,Essays on the materialistic conception of history,,Socialist classics series,,Antonio Labriola,1966,Reprint of the 1903 Charles Kerr Edition,Monthly Review Press,,246,0,English,,,0,,,,,,,,,,,,0,,,,,1,,1,17294805,pdf,78a7d864fc7315376e8c4b1e66b0daf4,,,"Essays on the materialistic conception of history. ... . Labriola, Antonio, 1843-1904",0,2000-01-01 01:00:00,2016-04-03 02:51:08,855000/78a7d864fc7315376e8c4b1e66b0daf4-g.jpg,,
22150096,What Is Marxism-Leninism?,,ABC of Social and Political Knowledge,,"Vladimir Buzuev, Vladimir Gorodnov",1987,,Imported Pubn,,158,0,English,,,0,"0828533474,9780828533478",,,,,,,,,,,0,,,,,1,,1,13041945,pdf,998347e58a6f951944fdd9d387695a77,,,gorodnov what is marxism leninism searchable,0,2000-01-01 01:00:00,2016-04-03 02:51:08,855000/998347e58a6f951944fdd9d387695a77-g.jpg,,
22150097,Mao Zedong and China in the Twentieth-Century World: A Concise History,,"Asia-Pacific: Culture, Politics, and Society",,Rebecca E. Karl,2010,,Duke University Press Books,,216,0,English,,,0,"0822347954,9780822347958",,,,,,,,,,,0,,,,,1,,1,13613551,pdf,5a5237080d5cc57fe7ced7d93836ec88,,,mao zedong and china rebecca karl searchable,0,2000-01-01 01:00:00,2016-04-03 02:51:08,855000/5a5237080d5cc57fe7ced7d93836ec88-d.jpg,,
22150098,Marx on Globalization,,,,David Renton,2002,,Lawrence And Wishart Ltd,,192,0,English,,,0,"0853159092,9780853159094",,,,,,,,,,,0,,,,,1,,1,9927195,pdf,5b4b5fbbde881de69a12a9dba8f1cae8,,,Marx on globalisation searchable,0,2000-01-01 01:00:00,2016-04-03 02:51:08,855000/5b4b5fbbde881de69a12a9dba8f1cae8-d.jpg,,
22150099,Marx on the Choice between Socialism and Communism,,,,Stanley Moore,1980,1St Edition,Harvard University Press,,145,0,English,,,0,"0674550927,9780674550926",,,,,,,,,,,0,,,,,1,,1,7969211,pdf,f60ca33cf7131623f1f753b61ad0fdac,,,marx on the choice between socialism and communism searchable,0,2000-01-01 01:00:00,2016-04-03 02:51:08,855000/f60ca33cf7131623f1f753b61ad0fdac-g.jpg,,
22150100,Representing Capital: A Reading of Volume One,,,,Fredric Jameson,2011,,Verso,,176,0,English,,,0,"1844674541,9781844674541",,,,,,,,,,,0,,,,,1,,1,11011859,pdf,0794cafe6e25df6ab7dbf1a4384d838f,,,presenting capital searchable,0,2000-01-01 01:00:00,2016-04-03 02:51:08,855000/0794cafe6e25df6ab7dbf1a4384d838f-d.jpg,,
22150101,The Poems of Mao Zedong,,,,"Mao Zedong, Willis Barnstone",2010,1,University of California Press,,168,0,English,,,0,"0520261623,9780520261624",,,,,,,,,,,0,,,,,1,,1,6902079,pdf,2fd1fed8356510cf2e9f42796709f141,,,the poems of Mao Zedong by willis barnstone searchable,0,2000-01-01 01:00:00,2016-04-03 02:51:08,855000/2fd1fed8356510cf2e9f42796709f141-d.jpg,,
22150102,Wall Between,,,,Anne Braden,1999,1,Univ Tennessee Press,,376,0,English,,,0,"1572330600,9781572330603",,,,,,,,,,,0,,,,,1,,1,28462690,pdf,60f71dde88cc3f1bed2445c346f7e89c,,,"The wall between. . Braden, Anne, 1924-",0,2000-01-01 01:00:00,2016-04-03 02:51:08,855000/60f71dde88cc3f1bed2445c346f7e89c-g.jpg,,
22150103,The World the Dollar Built,,,,gunther stein,1952,,Dobson,,288,0,English,,,0,,,,,,,,,,,,0,,,,,1,,1,26168901,pdf,c2bf7bb6c4dff2939783a54dd38714b6,,,"The world the dollar built. . Stein, Guemther.",0,2000-01-01 01:00:00,2016-04-03 02:51:08,855000/c2bf7bb6c4dff2939783a54dd38714b6-g.jpg,,
22150104,Tomorrow's China,,,,Anna Louise Strong,1948,"1st Edition, 2nd Printing",Committee for a Democratic Far Eastern Policy,,133,0,English,,,0,,,,,,,,,,,,0,,,,,1,,1,11083138,pdf,2a84b04d606ee75a4159108dcc5d0b64,,,"Tomorrow__039;s China. . Strong, Anna Louise, 1885-1970.",0,2000-01-01 01:00:00,2016-04-03 02:51:08,855000/2a84b04d606ee75a4159108dcc5d0b64-g.jpg,,
22150105,Marx,,Routledge Historical Biographies,,Vincent Barnett,2009,1,Routledge,,272,0,English,,,0,"0415435927,9780415435925",,,,,,,,,,,0,,,,,1,,1,33998920,pdf,76031ed54a29b4b4de236eb146f74d84,,,vincent barnett Marx searchable,0,2000-01-01 01:00:00,2016-04-03 02:51:08,855000/76031ed54a29b4b4de236eb146f74d84-d.jpg,,
22150106,World Without War,,,,J. D. Bernal,2009,,"Kessinger Publishing, LLC",,322,0,English,,,0,"1104851334,9781104851330",,,,,,,,,,,0,,,,,1,,1,33646817,pdf,05167810449dc989817800639770a0d6,,,"World without war. . Bernal, J. D. (John Desmond), 1901",0,2000-01-01 01:00:00,2016-04-03 02:51:08,855000/05167810449dc989817800639770a0d6-d.jpg,,
22150107,Плазма - четвертое состояние вещества,,,,Франк-Каменецкий Д.А.,1968,,Атомиздат,,163,0,Russian,,,0,,,,,,,,,,,,600,,,,,1,,0,2544345,djvu,c0285a264950a71d252c686c9e23640f,,,Д. Франк-Каменецкий - Плазма - четвертое состояние вещества,0,2000-01-01 01:00:00,2016-04-03 02:51:08,855000/c0285a264950a71d252c686c9e23640f-g.jpg,,
22150108,Image Processing. The Fundamentals 2nd,,,,"Maria Petrou, Costas Petrou",2010,2nd,John Wiley & sons,,815,0,English,69,,0,047074586X,,,,,,,,,,,0,1,1,,0,0,0,1,38906551,pdf,b2e6be81172d7c97291a70b5f181cf96,,,"Maria Petrou, Costas Petrou - Image Processing. The Fundamentals 2nd _2010 - 047074586X",0,2000-01-01 01:00:00,2016-04-03 02:51:08,855000/b2e6be81172d7c97291a70b5f181cf96-g.jpg,,
22150109,"How to Argue: Powerfully, Persuasively, Positively",,,,Jonathan Herring,2012,1,FT Press,,224,0,English,,,0,"0132980932,9780132980937",,,,,,,,,,,0,,,,,1,,1,1657358,pdf,7824f9c23dcc03750d5b4dd2e3f8a0e2,,,FT.Press.How.to.Argue.Apr.2012,0,2000-01-01 01:00:00,2016-04-03 02:51:08,855000/7824f9c23dcc03750d5b4dd2e3f8a0e2-d.jpg,,
22150110,"How to Argue: Powerfully, Persuasively, Positively",,,,Jonathan Herring,2012,1,FT Press,,224,0,English,,,0,"0132980932,9780132980937",,,,,,,,,,,0,,,,,1,,,399728,epub,353f6121f69494b144421b5df56219d7,,,FT.Press.How.to.Argue.Apr.2012,0,2000-01-01 01:00:00,2016-04-03 02:51:08,855000/353f6121f69494b144421b5df56219d7-d.jpg,,
22150111,"The Power of Communication: Skills to Build Trust, Inspire Loyalty, and Lead Effectively",,,,Helio Fred Garcia,2012,1,FT Press,,336,0,English,,,0,"013288884X,9780132888844",,,,,,,,,,,0,,,,,1,,1,4723163,pdf,143c255b176a299fc0bed5835aa0de5e,,,FT.Press.The.Power.of.Communication.Apr.2012,0,2000-01-01 01:00:00,2016-04-03 02:51:08,855000/143c255b176a299fc0bed5835aa0de5e-d.jpg,,
22150112,"Power of Communication,The: Skills to Build Trust, Inspire Loyalty, and Lead Effectively",,,,Helio Fred Garcia,2012,1,FT Press,,336,0,English,,,0,"013288884X,9780132888844",,,,,,,,,,,0,,,,,1,,,939837,epub,b7a7cda3d7602dff0e1b3ef0db2835a2,,,FT.Press.The.Power.of.Communication.Apr.2012,0,2000-01-01 01:00:00,2016-04-03 02:51:08,855000/b7a7cda3d7602dff0e1b3ef0db2835a2-d.jpg,,
22150113,Smashing WebKit,,Smashing Magazine Book Series,,Jon Raasch,2011,1,Wiley,,368,0,English,,,0,"1119999138,9781119999133",,,,,,,,,,,0,,,,,1,,,13108821,epub,b0a024c9e67b7305b3373e12373d2033,,,Smashing.WebKit,0,2000-01-01 01:00:00,2016-04-03 02:51:08,855000/b0a024c9e67b7305b3373e12373d2033-d.jpg,,
22150114,Most Secret War,,Penguin World War II Collection,,R. V. Jones,2009,,Penguin Books,,576,0,English,,,0,"0141042826,9780141042824",,,,,,,,,,,0,,,,,1,,,56160750,epub,d3f1f4d520a3df5c7d6e0c40d106207e,,,0141042826MostSecretWar,0,2000-01-01 01:00:00,2016-04-03 02:51:08,855000/d3f1f4d520a3df5c7d6e0c40d106207e-d.jpg,,
22150115,Most Secret War,,Penguin World War II Collection,,R. V. Jones,2009,,Penguin Books,,576,0,English,,,0,"0141042826,9780141042824",,,,,,,,,,,0,,,,,1,,,58748269,mobi,61b46204fe4a1aebf2b2d8912e3172cc,,,0141042826MostSecretWar,0,2000-01-01 01:00:00,2016-04-03 02:51:08,855000/61b46204fe4a1aebf2b2d8912e3172cc-d.jpg,,
22150116,"Foam Roller Workbook: Illustrated Step-by-Step Guide to Stretching, Strengthening and Rehabilitative Techniques",,,,Karl Knopf M.D.,2011,1,Ulysses Press,,144,0,English,,,0,"1569759251,9781569759257",,,,,,,,,,,0,,,,,1,,,3480951,epub,4694bd06bf6f761492e735497ac31334,,,Foam Roller Workbook,0,2000-01-01 01:00:00,2016-04-03 02:51:08,855000/4694bd06bf6f761492e735497ac31334-d.jpg,,
22150117,A Long Strange Trip: The Inside History of the Grateful Dead,,,,Dennis McNally,2003,,Three Rivers Press,,736,0,English,,,0,"0767911865,9780767911863",,,,,,,,,,,0,,,,,1,,,8083913,epub,8f5d8e7608b731167ee861549a787f16,,,0767911865LongStrangeTrip,0,2000-01-01 01:00:00,2016-04-03 02:51:08,855000/8f5d8e7608b731167ee861549a787f16-d.jpg,,
22150118,A Long Strange Trip: The Inside History of the Grateful Dead,,,,Dennis McNally,2003,,Three Rivers Press,,736,0,English,,,0,"0767911865,9780767911863",,,,,,,,,,,0,,,,,1,,,8691620,mobi,b4dcf2092e5915b6b94684cea4424361,,,0767911865LongStrangeTrip,0,2000-01-01 01:00:00,2016-04-03 02:51:08,855000/b4dcf2092e5915b6b94684cea4424361-d.jpg,,
22150119,Designing Embedded Hardware,,,,John Catsoulis,2005,Second Edition,O'Reilly Media,,398,0,English,,,0,"0596007558,9780596007553",,,,,,,,,,,0,,,,,1,,,5730944,epub,efc9c582875033f01c30491ed5bf680c,,,Designing_Embedded_Hardware_Second_Edition,0,2000-01-01 01:00:00,2016-04-03 02:51:08,855000/efc9c582875033f01c30491ed5bf680c-d.jpg,,
22150120,George Washington's War: The Forging of a Revolutionary Leader and the American Presidency,,,,Bruce Chadwick,2005,,"Sourcebooks, Inc.",,576,0,English,,,0,"140220406X,9781402204067",,,,,,,,,,,0,,,,,1,,,5143845,epub,778bdab124d3cb311d09590de4f35bca,,,140220406XGeorgeWashingtonWar,0,2000-01-01 01:00:00,2016-04-03 02:51:08,855000/778bdab124d3cb311d09590de4f35bca-d.jpg,,
22150121,George Washington's War: The Forging of a Revolutionary Leader and the American Presidency,,,,Bruce Chadwick,2005,,"Sourcebooks, Inc.",,576,0,English,,,0,"140220406X,9781402204067",,,,,,,,,,,0,,,,,1,,,2979913,mobi,9861282e37cc4de85f17a1ea5714138c,,,140220406XGeorgeWashingtonWar,0,2000-01-01 01:00:00,2016-04-03 02:51:08,855000/9861282e37cc4de85f17a1ea5714138c-d.jpg,,
22150122,Stable Processes and Related Topics,,Progress in Probability 25,,"Stamatis Cambanis, Gennady Samorodnitsky, Murad S. Taqqu  Editors",1991,,Birkhäuser Boston,,338,0,English,,,0,"0817634851,9780817634858",,,,,,,,,,,300,,,,,1,,1,3336618,djvu,f60232d2353c4fccd0a7e1cab488b7e9,,,PIP 25 - Stable Processes,0,2000-01-01 01:00:00,2016-04-03 02:51:08,855000/f60232d2353c4fccd0a7e1cab488b7e9-g.jpg,,
22150123,Physics of the Future: How Science Will Shape Human Destiny and Our Daily Lives by the Year 2100,,,,Michio kaku,2011,,Anchor,,480,0,English,,,0,"0307473333 , 978-0307473332",,,,,,,,,,,0,,,,,1,,1,2569086,pdf,acfb72df82974c299fac30e6ebd299dc,,,Physics of the Future,0,2000-01-01 01:00:00,2016-04-03 02:51:08,855000/acfb72df82974c299fac30e6ebd299dc-g.jpg,,
22150124,Physics of Nanostructured Solid State Devices,,,,Supriyo Bandyopadhyay (auth.),2012,1,Springer US,,552,0,English,,,0,"1461411408 , 978-1461411406",,,,,,,10.1007/978-1-4614-1141-3,,,,0,,,,,1,,1,9149093,pdf,8a1a611406b1d6f83814a57807cc400c,,,Physics of Nanostructured Solid State Devices,0,2000-01-01 01:00:00,2016-04-03 02:51:08,855000/8a1a611406b1d6f83814a57807cc400c-g.jpg,,
22150125,"Clusters in Nuclei, Vol.2",Vol.2,Lecture Notes in Physics 848,,"P. Descouvemont, M. Dufour (auth.), Christian Beck (eds.)",2012,1,Springer-Verlag Berlin Heidelberg,,353,0,English,,,0,"3642247067, 978-3642247064",,,,,,,10.1007/978-3-642-24707-1,,,,0,,,,,1,,1,11089444,pdf,75ac62ce9d78fee607fce453bd6c79d2,,,"Clusters in Nuclei, Vol.2",0,2000-01-01 01:00:00,2016-04-03 02:51:08,855000/75ac62ce9d78fee607fce453bd6c79d2-g.jpg,,
22150126,"Computation, Physics and Beyond: International Workshop on Theoretical Computer Science, WTCS 2012, Dedicated to Cristian S. Calude on the Occasion of His 60th Birthday, Auckland, New Zealand, February 21-24, 2012, Revised Selected and Invited Papers",,Lecture Notes in Computer Science 7160,,"Solomon Marcus (auth.), Michael J. Dinneen, Bakhadyr Khoussainov, André Nies (eds.)",2012,1,Springer-Verlag Berlin Heidelberg,,427,0,English,,,0,"3642276539, 978-3642276538",,,,,,,10.1007/978-3-642-27654-5,,,"Incorrect bookmarks, font problems (with CMBX12 and CMR9), no cover, no pagination",0,,,,0,0,1,1,5178213,pdf,28e01a1b7b20363507c900a74dbf1eeb,f971f58ca565c74cb43f13551827df43,no,Computation Physics and Beyond,0,2000-01-01 01:00:00,2016-04-03 02:51:08,855000/28e01a1b7b20363507c900a74dbf1eeb-g.jpg,,
22150127,[Journal] The Mathematical Intelligencer. Vol. 34. No 2,,,,,2012,,Springer,,78,0,English,113,,0,,,,,,,,10.1007/s00283-012-9296-X,,,,0,,,,,1,,1,7333813,pdf,9b9cae599b1b4be441850eab3a1cd0c6,,,intelligencer july2012,0,2000-01-01 01:00:00,2016-04-03 02:51:08,855000/9b9cae599b1b4be441850eab3a1cd0c6-g.jpg,,
22150128,Garbage Land: On the Secret Trail of Trash,,,,Elizabeth Royte,2006,,Back Bay Books,,336,0,English,,,0,"031615461X,9780316154611",,,,,,,,,,,0,,,,,1,,,521095,mobi,be206e6c2ebe7035be3cbaaad6a0ad7b,,,031615461XGarbageLand,0,2000-01-01 01:00:00,2016-04-03 02:51:08,855000/be206e6c2ebe7035be3cbaaad6a0ad7b-d.jpg,,
22150129,Garbage Land: On the Secret Trail of Trash,,,,Elizabeth Royte,2006,,Back Bay Books,,336,0,English,,,0,"031615461X,9780316154611",,,,,,,,,,,0,,,,,1,,,389215,epub,b7dfecd666895013f85a2505f2d14593,,,031615461XGarbageLand,0,2000-01-01 01:00:00,2016-04-03 02:51:08,855000/b7dfecd666895013f85a2505f2d14593-d.jpg,,
22150130,"Infections and Inequalities: The Modern Plagues, Updated with a New Preface",,,,Paul Farmer,2001,Updated,University of California Press,,419,0,English,,,0,"0520229134,9780520229136",,,,,,,,,,,0,,,,,1,,,1487514,epub,1c72adb2bde719c3fa5585ff4a2ba8c5,,,0520229134InfectionsInequalities,0,2000-01-01 01:00:00,2016-04-03 02:51:08,855000/1c72adb2bde719c3fa5585ff4a2ba8c5-d.jpg,,
22150131,"Infections and Inequalities: The Modern Plagues, Updated with a New Preface",,,,Paul Farmer,2001,Updated,University of California Press,,419,0,English,,,0,"0520229134,9780520229136",,,,,,,,,,,0,,,,,1,,,1305321,mobi,ff97a7582b5be7e1e8e1db80cfe38c00,,,0520229134InfectionsInequalities,0,2000-01-01 01:00:00,2016-04-03 02:51:08,855000/ff97a7582b5be7e1e8e1db80cfe38c00-d.jpg,,
22150132,America's Constitution: A Biography,,,,Akhil Reed Amar,2006,1st Edition(PB),Random House Trade Paperbacks,,672,0,English,,,0,"0812972724,9780812972726",,,,,,,,,,,0,,,,,1,,,3915704,epub,2af38c4e9dbb694549bb3e1124363349,,,0812972724AmerConst,0,2000-01-01 01:00:00,2016-04-03 02:51:08,855000/2af38c4e9dbb694549bb3e1124363349-d.jpg,,
22150133,"1858: Abraham Lincoln, Jefferson Davis, Robert E. Lee, Ulysses S. Grant and the War They Failed to See",,,,Bruce Chadwick,2008,1,"Sourcebooks, Inc.",,368,0,English,,,0,"140220941X,9781402209413",,,,,,,,,,,0,,,,,1,,,3555112,epub,8473bfcc3af4cb2166a9144562382b8d,,,140220941X_1858,0,2000-01-01 01:00:00,2016-04-03 02:51:08,855000/8473bfcc3af4cb2166a9144562382b8d-d.jpg,,
22150134,"1858: Abraham Lincoln, Jefferson Davis, Robert E. Lee, Ulysses S. Grant and the War They Failed to See",,,,Bruce Chadwick,2008,1,"Sourcebooks, Inc.",,368,0,English,,,0,"140220941X,9781402209413",,,,,,,,,,,0,,,,,1,,,4547275,mobi,5db666188df82533abad2bdf7bbf82ec,,,140220941X_1858,0,2000-01-01 01:00:00,2016-04-03 02:51:08,855000/5db666188df82533abad2bdf7bbf82ec-d.jpg,,
22150135,America's Constitution: A Biography,,,,Akhil Reed Amar,2006,1st Edition(PB),Random House Trade Paperbacks,,672,0,English,,,0,"0812972724,9780812972726",,,,,,,,,,,0,,,,,1,,,3124044,mobi,e600215b9b05a5e3cc2c94b1780a7d17,,,0812972724AmerConst,0,2000-01-01 01:00:00,2016-04-03 02:51:08,855000/e600215b9b05a5e3cc2c94b1780a7d17-d.jpg,,
22150136,Горы,,Природа мира,,"Гвоздецкий Н.А., Голубчиков Ю.Н.",1987,,Мысль,Москва,403,0,Russian,,,0,,,,,26.823,,,,,,,0,,,,,1,,1,32615249,djvu,383d2b4062bafb076e8ae7d268313f7e,,,"Гвоздецкий Н.А., Голубчиков Ю.Н. Горы - 1987",0,2000-01-01 01:00:00,2016-04-03 02:51:08,855000/383d2b4062bafb076e8ae7d268313f7e-g.jpg,,
22150137,Основи дизайну архітектурного середовища,,,,"Тімохін В.О., Шебек Н.М., Малік Т.В.",2010,,Основа,Київ,401,0,Ukrainian,,,0,978-966-699-571-4,,,728.012(075.8),85.11я73,,,,,,,0,,,,,1,,0,26980407,djvu,2012b2b4d85a6b9832aeebf97f242434,291cee07470e1a4427800d40b0f4564e,no,Основи дизайну архітектурного середовища В.О. Тімохін та ін,0,2000-01-01 01:00:00,2016-04-03 02:51:08,855000/2012b2b4d85a6b9832aeebf97f242434-g.jpg,,
22150138,Dave Barry's Only Travel Guide You'll Ever Need,,,,Dave Barry,1999,,Ballantine Books,,192,0,English,,,0,"0345431138,9780345431134",,,,,,,,,,,0,,,,,1,,,3596662,epub,a0df95dca47cc6e99d0cc131bc08abea,,,0345431138OnlyTravelGuide,0,2000-01-01 01:00:00,2016-04-03 02:51:08,855000/a0df95dca47cc6e99d0cc131bc08abea-d.jpg,,
22150139,NumPy 1.5 Beginner's Guide,,,,Ivan Idris,2011,,Packt Publishing,,234,0,English,,,0,"1849515301,9781849515306",,,,,,,,,,,0,,,,,1,,1,2115532,pdf,65cd474018dbcbc9cda6ae884eb50ef9,,,"NumPy 1.5 Beginner__039;s Guide - I. Idris (Packt, 2011) WW",0,2000-01-01 01:00:00,2016-04-03 02:51:08,855000/65cd474018dbcbc9cda6ae884eb50ef9-d.jpg,,
22150140,Dave Barry's Only Travel Guide You'll Ever Need,,,,Dave Barry,1999,,Ballantine Books,,192,0,English,,,0,"0345431138,9780345431134",,,,,,,,,,,0,,,,,1,,,2324754,mobi,d11ad9309fb6f767ac49970572de0356,,,0345431138OnlyTravelGuide,0,2000-01-01 01:00:00,2016-04-03 02:51:08,855000/d11ad9309fb6f767ac49970572de0356-d.jpg,,
22150141,The Story of English in 100 Words,,,,David Crystal,2012,,St. Martin's Press,,288,0,English,,,0,"1250003466,9781250003461",,,,,,,,,,,0,,,,,1,,,2803917,epub,f1f9451ce74ab5debe912ea6160e6cce,,,the_story_of_english_in_100_words_david_crystal,0,2000-01-01 01:00:00,2016-04-03 02:51:08,855000/f1f9451ce74ab5debe912ea6160e6cce-d.jpg,,
22150142,Grow: How Ideals Power Growth and Profit at the World's Greatest Companies,,,,Jim Stengel,2011,,Crown Business,,336,0,English,,,0,"0307720357,9780307720351",,,,,,,,,,,0,,,,,1,,,2224047,epub,a60d68afc848f815499536e46ebaf7d8,,,Grow,0,2000-01-01 01:00:00,2016-04-03 02:51:08,855000/a60d68afc848f815499536e46ebaf7d8-d.jpg,,
22150143,The Underachiever's Manifesto: The Guide to Accomplishing Little and Feeling Great,,,,Ray Bennett,2006,,Chronicle Books,,96,0,English,,,0,"0811853683,9780811853682",,,,,,,,,,,0,,,,,1,,,361158,epub,7c630acd4d7cccf08c9d51fac402b2b3,,,0811853683UnderachieverManifesto,0,2000-01-01 01:00:00,2016-04-03 02:51:08,855000/7c630acd4d7cccf08c9d51fac402b2b3-d.jpg,,
22150144,The Underachiever's Manifesto: The Guide to Accomplishing Little and Feeling Great,,,,Ray Bennett,2006,,Chronicle Books,,96,0,English,,,0,"0811853683,9780811853682",,,,,,,,,,,0,,,,,1,,,307179,mobi,9d4f1fa62f650f690bed43c5d601fef1,,,0811853683UnderachieverManifesto,0,2000-01-01 01:00:00,2016-04-03 02:51:08,855000/9d4f1fa62f650f690bed43c5d601fef1-d.jpg,,
22150145,The End of the Party,,,,Andrew Rawnsley,2010,,Penguin Books,,912,0,English,,,0,"0141046147,9780141046143",,,,,,,,,,,0,,,,,1,,,2164744,mobi,b1b07e1e6d2877476bee51cf9042ebc7,,,the_end_of_the_party__the_rise_and_fall_-_andrew_rawnsley,0,2000-01-01 01:00:00,2016-04-03 02:51:08,855000/b1b07e1e6d2877476bee51cf9042ebc7-d.jpg,,
22150146,Reclaiming the Fire: How Successful People Overcome Burnout,,,,Steven Berglas,2001,1,Random House,,256,0,English,,,0,"0812992555,9780812992557",,,,,,,,,,,0,,,,,1,,,406475,epub,24f7eeb2857bc233e673e143e1caaecb,,,0812992555ReclaimingFire,0,2000-01-01 01:00:00,2016-04-03 02:51:08,855000/24f7eeb2857bc233e673e143e1caaecb-d.jpg,,
22150147,Reclaiming the Fire: How Successful People Overcome Burnout,,,,Steven Berglas,2001,1,Random House,,256,0,English,,,0,"0812992555,9780812992557",,,,,,,,,,,0,,,,,1,,,494389,mobi,41b91b11c8ac3513a5c03fd35bc2f739,,,0812992555ReclaimingFire,0,2000-01-01 01:00:00,2016-04-03 02:51:08,855000/41b91b11c8ac3513a5c03fd35bc2f739-d.jpg,,
22150148,Suomea paremmin,,,,Susanna Hart,2009,3.,Finn Lectura,,228,0,Finnish,315,,0,978-951-792-316-3,,,,,,,,,,,300,1,1,0,1,1,1,1,6439306,djvu,5d0a7b7fbc3239943ee8a5f2efd6351d,,,Susanna_Hart-Suomea_paremmin,0,2000-01-01 01:00:00,2016-04-03 02:51:08,855000/5d0a7b7fbc3239943ee8a5f2efd6351d-g.jpg,,
22150149,The Go Programming Language Phrasebook,,Developer's Library,,David Chisnall,2012,1,Addison-Wesley Professional,,288,0,English,92,,0,"0321817141,9780321817143",,,,,,,,,,,0,,,,,1,,1,2226582,pdf,887ca908f82624d62054c992efda5bee,,,Addison.Wesley.The.Go.Programming.Language.Phrasebook.Apr.2012,0,2000-01-01 01:00:00,2016-04-03 02:51:08,855000/887ca908f82624d62054c992efda5bee-d.jpg,,
22150150,Historical Linguistics. An Introduction,,,,Lyle Campbell,1999,First Edition,MIT Press,"Cambridge, Massachusetts",419,0,English,314,,0,0-262-53159-3,,,,,,,,,,,0,,,0,0,1,0,1,14416897,pdf,a6edb1fc256d9e1e88c9fe9d0858059f,,,"Campbell, L. - Historical Linguistics (sc)",0,2000-01-01 01:00:00,2016-04-03 02:51:08,855000/a6edb1fc256d9e1e88c9fe9d0858059f-d.jpeg,,
22150151,The Go Programming Language Phrasebook,,Developer's Library,,David Chisnall,2012,1,Addison-Wesley Professional,,288,0,English,92,,0,"0321817141,9780321817143",,,,,,,,,,,0,,,,,1,,,1216573,epub,fb6cc47227c5ff7405406b61ae9c6b22,,,Addison.Wesley.The.Go.Programming.Language.Phrasebook.Apr.2012,0,2000-01-01 01:00:00,2016-04-03 02:51:08,855000/fb6cc47227c5ff7405406b61ae9c6b22-d.jpg,,
22150152,Diffusion Processes and Related Problems in Analysis: Volume II : Stochastic Flows,,Progress in Probability 27,,"Mark A. Pinsky, Volker Wihstutz, Editors",1992,,Birkhäuser Boston,,359,0,English,,,0,"0817635432,9780817635435",,,,,,,,,,,300,,,,,1,,1,4032739,djvu,08dd73f779f93e7d67f02dc111b4c101,,,PIP 27 - Diffusion,0,2000-01-01 01:00:00,2016-04-03 02:51:08,855000/08dd73f779f93e7d67f02dc111b4c101-d.jpg,,
22150153,"Get Up to Speed with Online Marketing: How to Use Websites, Blogs, Social Networking and Much More",,,,Jon Reed,2012,1,FT Press,,272,0,English,70,,0,"0133066274,9780133066272",,,,,,,,,,,0,,,,,1,,,10723522,epub,639a77f75adb29550649a4535e8b66da,,,FT.Press.Get.Up.to.Speed.with.Online.Marketing.May.2012,0,2000-01-01 01:00:00,2016-04-03 02:51:08,855000/639a77f75adb29550649a4535e8b66da-d.jpg,,
22150154,"Get Up to Speed with Online Marketing: How to Use Websites, Blogs, Social Networking and Much More",,,,Jon Reed,2012,1,FT Press,,272,0,English,70,,0,"0133066274,9780133066272",,,,,,,,,,,0,,,,,1,,1,6110803,pdf,74520848233459280783d240d6ff2195,,,FT.Press.Get.Up.to.Speed.with.Online.Marketing.May.2012,0,2000-01-01 01:00:00,2016-04-03 02:51:08,855000/74520848233459280783d240d6ff2195-d.jpg,,
22150155,По Алтаю. Дневник путешествия 1895 года,,,,Сапожников В.В.,1897,,Паровая типолитография П.И. Макушина,Томск,127,0,Russian(Old),32,,0,,,,,,,,,,,,0,0,1,0,1,1,,0,35736480,pdf,66c16e0057fd8beff5fc2f1bed282697,,,2k8_altay_travel,0,2000-01-01 01:00:00,2016-04-03 02:51:08,855000/66c16e0057fd8beff5fc2f1bed282697-g.jpg,,
22150156,Buddhahood Without Meditation: A Visionary Account Known As Refining Apparent Phenomen,,,,"Bdud-Joms-Glin-Pa, Dudjom Lingpa, Richard Barron",2002,Revised,Padma Pub,,255,0,English,,,0,"1881847330,9781881847335",,,,,,,,,,,0,,,,,1,,1,10194581,pdf,69e3cc42b54a7f772135217498da080d,,,Dudjom Lingpa - Buddhahood Without Meditation - A Visionary Account Known as Refining One__039;s Perception (Nang-jang),0,2000-01-01 01:00:00,2016-04-03 02:51:08,855000/69e3cc42b54a7f772135217498da080d-d.jpg,,
22150157,Sky Dancer: The Secret Life & Songs of the Lady Yeshe Tsogyel,,,,Keith Dowman,1996,,Snow Lion Publications,,379,0,English,,,0,"1559390654,9781559390651",,,,,,,,,,,0,,,,,1,,1,22979874,pdf,8ec4eb01ef2e895357dfeac2694332df,,,Keith Dowman - Sky Dancer - The Secret Life and Songs of the Lady Yeshe Tsogyel,0,2000-01-01 01:00:00,2016-04-03 02:51:08,855000/8ec4eb01ef2e895357dfeac2694332df-d.jpg,,
22150158,Philosophy In The Flesh: The Embodied Mind And Its Challenge To Western Thought,,,,"Lakoff G., Johnson M.",1999,1,Basic Books,,550,0,English,319,,0,978-0-4650-5674-3,,,,,,,,,,Epub,0,,,,1,0,,1,3554075,epub,41c1e29cced1db77ab948e9b1cf9fd86,,,Philosophy In The Flesh - George Lakoff,0,2000-01-01 01:00:00,2016-04-03 02:51:08,855000/41c1e29cced1db77ab948e9b1cf9fd86-d.jpg,,
22150159,Generating the Deity,,,,Gyatrul Rinpoche,1996,2,Snow Lion Publications,,100,0,English,,,0,"1559390557,9781559390552",,,,,,,,,,,0,,,,,1,,1,5872256,pdf,d4eead4de3b9ee85a3a4845a6a8e7f9e,,,Gyatrul Rinpoche - Generating the Deity,0,2000-01-01 01:00:00,2016-04-03 02:51:08,855000/d4eead4de3b9ee85a3a4845a6a8e7f9e-d.jpg,,
22150160,Военно-дорожная стратегическая карта европейской части СССР (Вологда),,7,,Управление военных топографов,1933,,Управление военных топографов,,,0,Russian,33,,0,,,,,,,,,,,,600,1,,,,1,,,68504755,zip,7f122d46da97254d861d7ec98caf34d9,1e769b74d34050bddf06ab52bb6a6739,no,jpg,0,2000-01-01 01:00:00,2016-04-03 02:51:08,855000/7f122d46da97254d861d7ec98caf34d9-g.jpg,,
22150161,Военно-дорожная стратегическая карта европейской части СССР (Вологда),,,,Управление военных топографов,1933,,Управление военных топографов,,7,0,Russian,33,,0,,,,,,,,,,,,600,1,,,,1,,,142341682,zip,1e769b74d34050bddf06ab52bb6a6739,,,jpg,0,2000-01-01 01:00:00,2016-04-03 02:51:08,855000/1e769b74d34050bddf06ab52bb6a6739-g.jpg,,
22150162,The Adornment of the Middle Way: Shantarakshita's Madhyamakalankara with Commentary by Jamgon Mipham,,,,"Shantarakshita, Padmakara Translation Group, Jamgon Mipham",2005,1St Edition,Shambhala,,448,0,English,,,0,"1590302419,9781590302415",,,,,,,,,,,0,,,,,1,,1,26343810,pdf,0bf5b9f59d8962c3e04e1b3b4d307999,,,Shantarakshita - The Adornment of the Middle Way,0,2000-01-01 01:00:00,2016-04-03 02:51:08,855000/0bf5b9f59d8962c3e04e1b3b4d307999-d.jpg,,
22150163,History of Tibet - Volume 1,,,,Alex McKay,,,Routledge,,650,0,English,,,0,"0415308429,9780415308427",,,,,,,,,,,0,,,,,1,,1,47383170,pdf,9871fe6ecc6a8a66a5cf1e53420177a3,,,Alex McKay - The History of Tibet - Vol1,0,2000-01-01 01:00:00,2016-04-03 02:51:08,855000/9871fe6ecc6a8a66a5cf1e53420177a3-g.jpg,,
22150164,Herbal Supplements and the Brain: Understanding Their Health Benefits and Hazards,,FT Press Science,,"S.J. Enna, Stata Norton",2012,1,FT Press,,272,0,English,,,0,"0132824973,9780132824972",,,,,,,,,,,0,,,,,1,,,2237936,epub,f07752fe6172f2f4f5734781e0c2df17,,,FT.Press.Herbal.Supplements.and.the.Brain.May.2012,0,2000-01-01 01:00:00,2016-04-03 02:51:08,855000/f07752fe6172f2f4f5734781e0c2df17-d.jpg,,
22150165,Herbal Supplements and the Brain: Understanding Their Health Benefits and Hazards,,FT Press Science,,"S.J. Enna, Stata Norton",2012,1,FT Press,,272,0,English,,,0,"0132824973,9780132824972",,,,,,,,,,,0,,,,,1,,1,8586505,pdf,93992b719fc694bb9b2f928eab89dc37,,,FT.Press.Herbal.Supplements.and.the.Brain.May.2012,0,2000-01-01 01:00:00,2016-04-03 02:51:08,855000/93992b719fc694bb9b2f928eab89dc37-d.jpg,,
22150166,"Chanting the Names of Manjusri: The Manjusri-Nama-Samgiti, Sanskrit & Tibetan Texts.",,,,Alex Wayman,,,Shambhala Publications,,130,0,English,,,0,"0877733163,9780877733164",,,,,,,,,,,0,,,,,1,,1,12906363,pdf,871e2dff7d2103a35a78569c8855805a,,,Alex Wayman - Chanting the Names of Manjushri,0,2000-01-01 01:00:00,2016-04-03 02:51:08,855000/871e2dff7d2103a35a78569c8855805a-g.jpg,,
22150167,History of Tibet - Volume 2,,,,Alex McKay,,,Routledge,,799,0,English,,,0,"0415308437,9780415308434",,,,,,,,,,,0,,,,,1,,1,54623426,pdf,088b5806cfcb346c059bac89797f76f9,,,Alex McKay - The History of Tibet - Vol2,0,2000-01-01 01:00:00,2016-04-03 02:51:08,855000/088b5806cfcb346c059bac89797f76f9-g.jpg,,
22150168,"The Mobile MBA: 112 Skills to Take You Further, Faster",,,,Jo Owen,2012,1,FT Press,,208,0,English,,,0,"0133066339,9780133066333",,,,,,,,,,,0,,,,,1,,,787422,epub,ef1951c2e3a71530ebd6d6a5655857a5,,,FT.Press.The.Mobile.MBA.May.2012,0,2000-01-01 01:00:00,2016-04-03 02:51:08,855000/ef1951c2e3a71530ebd6d6a5655857a5-d.jpg,,
22150169,"The Mobile MBA: 112 Skills to Take You Further, Faster",,,,Jo Owen,2012,1,FT Press,,208,0,English,,,0,"0133066339,9780133066333",,,,,,,,,,,0,,,,,1,,1,2954636,pdf,bd480164d28a55af6dcb883f49dbcdac,,,FT.Press.The.Mobile.MBA.May.2012,0,2000-01-01 01:00:00,2016-04-03 02:51:08,855000/bd480164d28a55af6dcb883f49dbcdac-d.jpg,,
22150170,Millennium of Buddhist Logic - Volume 1,,Buddhist tradition series,,Alex Wayman,1999,1,Motilal Banarsidass,,349,0,English,,,0,"8120816463,9788120816466",,,,,,,,,,,0,,,,,1,,1,13304181,pdf,0932fed65d35ac3b6b41b8df2d168bc9,,,Alex Wayman - Millennium of Buddhist Logic - Vol1,0,2000-01-01 01:00:00,2016-04-03 02:51:08,855000/0932fed65d35ac3b6b41b8df2d168bc9-d.jpg,,
22150171,History of Tibet - Volume 3,,,,Alex McKay,,,Routledge,,765,0,English,,,0,"0415308445,9780415308441",,,,,,,,,,,0,,,,,1,,1,65544096,pdf,eaeab8ce33b0cd941611d8084c5c6b28,,,Alex McKay - The History of Tibet - Vol3,0,2000-01-01 01:00:00,2016-04-03 02:51:08,855000/eaeab8ce33b0cd941611d8084c5c6b28-g.jpg,,
22150172,Untying the Knots in Buddhism : Selected,,Buddhist Tradition,,Alex Wayman,1997,1st,Non Basic Stock Line,,631,0,English,,,0,"8120813219,9788120813212",,,,,,,,,,,0,,,,,1,,1,24439383,pdf,33b734ac736fb76d3b0a99fcd05734ef,,,Alex Wayman - Untying the Knots in Buddhism,0,2000-01-01 01:00:00,2016-04-03 02:51:08,855000/33b734ac736fb76d3b0a99fcd05734ef-d.jpg,,
22150173,"Birth, Life and Death",,,,"Chogyal Namkhai Norbu, Elio Guarisco (translated from Tibetan), Andrew Lukianowicz, Nancy Simmons, Daniel Zegunis (cover), Gianni Baggi (photos), Romain Piro (photos)",2008,Revised English Edition,Shang Shung Institute,,157,0,English,,,0,"8878341010,9788878341012",,,,,,,,,,,0,,,,,1,,1,10266309,pdf,99a98f6cafa2d25d1565d7c4f8d5be8c,,,"Chogyal Namkhai Norbu - On Birth, Life and Death",0,2000-01-01 01:00:00,2016-04-03 02:51:08,855000/99a98f6cafa2d25d1565d7c4f8d5be8c-d.jpg,,
22150174,"The Crystal and the Way of Light: Sutra, Tantra and Dzogchen",,Tibetan Buddhist Philosophy,,"Chogyal Namkhai Norbu, John Shane, John Shane",1999,First American Edition,Snow Lion Publications,,176,0,English,,,0,"1559391359,9781559391351",,,,,,,,,,,0,,,,,1,,1,13483476,pdf,a43335dc23c169c806f6a28e15901b74,,,Chogyal Namkhai Norbu - The Crystal and the Way of Light,0,2000-01-01 01:00:00,2016-04-03 02:51:08,855000/a43335dc23c169c806f6a28e15901b74-d.jpg,,
22150175,The Garuda Practice,,,,"Chogyal Namkhai Norbu, Nina Robinson and Igor Legati",2000,,Shang Shung Edizioni,,30,0,English,,,0,,,,,,,,,,,,0,,,,,1,,1,1497471,pdf,fb66400166a527b8744ca6f98dbce25d,,,Chogyal Namkhai Norbu - The Garuda Practice,0,2000-01-01 01:00:00,2016-04-03 02:51:08,855000/fb66400166a527b8744ca6f98dbce25d-g.jpg,,
22150176,The Practice for the Naga,,,,Chogyal Namkhai Norbu,,,Shang Shung Edizioni,,19,0,English,,,0,,,,,,,,,,,,0,,,,,1,,1,842936,pdf,91c51c0210cfd9d1c37b9b5bfe0afb3e,,,Chogyal Namkhai Norbu - The Practice for the Naga,0,2000-01-01 01:00:00,2016-04-03 02:51:08,855000/91c51c0210cfd9d1c37b9b5bfe0afb3e-g.jpg,,
22150177,The Practice of Sinhamuka,,,,Chogyal Namkhai Norbu,,,Shang Shung Edizioni,,18,0,English,,,0,,,,,,,,,,,,0,,,,,1,,1,697062,pdf,11137c2c38dfa1a786cde903c6f16701,,,Chogyal Namkhai Norbu - The Practice of Sinhamuka,0,2000-01-01 01:00:00,2016-04-03 02:51:08,855000/11137c2c38dfa1a786cde903c6f16701-g.jpg,,
22150178,The Precious Vase,,,,Chogyal Namkhai Norbu,,,Shang Shung Edizioni,,328,0,English,,,0,,,,,,,,,,,,0,,,,,1,,1,15119920,pdf,ef76e04bc53f466ec2a152bd9fd0d776,,,Chogyal Namkhai Norbu - The Precious Vase,0,2000-01-01 01:00:00,2016-04-03 02:51:08,855000/ef76e04bc53f466ec2a152bd9fd0d776-g.jpg,,
22150179,Present Fresh Wakefulness: A Meditation Manual on Nonconceptual Wisdom,,,,Chokyi Nyima Rinpoche,2004,,North Atlantic Books,,192,0,English,,,0,"9627341479,9789627341475",,,,,,,,,,,0,,,,,1,,1,10375231,pdf,6afa28d4be44505cb808111b854215a0,,,Chokyi Nyima Rinpoche - Present Fresh Wakefulness - A Meditation Manual on Nonconceptual Wisdom,0,2000-01-01 01:00:00,2016-04-03 02:51:08,855000/6afa28d4be44505cb808111b854215a0-d.jpg,,
22150180,The Bardo Guidebook,,,,"Chokyi Nyima Rinpoche, Marcia Binder Schmidt, Erik Pema Kunsang",2004,,North Atlantic Books,,190,0,English,,,0,"9627341118,9789627341116",,,,,,,,,,,0,,,,,1,,1,9269645,pdf,73f790e8ea8d93e56025dfbfcb607abf,,,Chokyi Nyima Rinpoche - The Bardo Guidebook,0,2000-01-01 01:00:00,2016-04-03 02:51:08,855000/73f790e8ea8d93e56025dfbfcb607abf-d.jpg,,
22150181,"Union of Mahamudra and Dzogchen: A Commentary on The Quintessence of Spiritual Practice, The Direct Instructions of the Great Compassionate One",,,,"Chokyi Nyima Rinpoche, Marcia Binder Schmidt, Erik Pema Kunsang",2004,,North Atlantic Books,,240,0,English,,,0,"9627341215,9789627341215",,,,,,,,,,,0,,,,,1,,1,15106411,pdf,2a30ca62545dfc2d62c2a8b0166f4391,,,Chokyi Nyima Rinpoche - The Union of Mahamudra and Dzogchen,0,2000-01-01 01:00:00,2016-04-03 02:51:08,855000/2a30ca62545dfc2d62c2a8b0166f4391-d.jpg,,
22150182,Introduction to Wireline log interpretation,,,,Muhammad Nasir Khan,1989,,OGDCL Pakistan,,203,0,English,,,0,,,,,,,,,,,,0,,,,,1,,0,7879109,pdf,2caafb8d0b5c2a60c98fb0e2aab592ba,,,Petrophysics_(wireline)OGDCL_Manual,0,2000-01-01 01:00:00,2016-04-03 02:51:08,855000/2caafb8d0b5c2a60c98fb0e2aab592ba-g.jpg,,
22150183,Taking the Result as the Path: Core Teachings of the Sakya Lamdre Tradition,,Library of Tibetan Classics,,Cyrus Stearns,2006,1St Edition,Wisdom Publications,,784,0,English,,,0,"0861714431,9780861714438",,,,,,,,,,,0,,,,,1,,1,49290973,pdf,7ec6e875d1860820b24201ec15670aaa,,,Cyrus Stearns - Taking the Result as the Path,0,2000-01-01 01:00:00,2016-04-03 02:51:08,855000/7ec6e875d1860820b24201ec15670aaa-d.jpg,,
22150184,Seismic Data Acquisition,,,,D. G. Peter Lang,1991,,OGDCL Pakistan,,85,0,English,,,0,,,,,,,,,,,,0,,,,,1,,0,9019360,pdf,ce52a61f9927e33a4a976458cadbc2c8,,,seismic data acquisition-ogti manual_3,0,2000-01-01 01:00:00,2016-04-03 02:51:08,855000/ce52a61f9927e33a4a976458cadbc2c8-g.jpg,,
22150185,Buddhist Phenomenology: A Philosophical Investigation of Yogacara Buddhism and the Ch'eng Wei-shih Lun,,Routledge Critical Studies in Buddhism,,Dan Lusthaus,2003,annotated edition,Routledge,,632,0,English,,,0,"0700711864,9780700711864",,,,,,,,,,,0,,,,,1,,1,27878224,pdf,df3d19380ff9f0e957b17ada6b6804ef,,,Dan Lusthaus - Buddhist Phenomenology,0,2000-01-01 01:00:00,2016-04-03 02:51:08,855000/df3d19380ff9f0e957b17ada6b6804ef-d.jpg,,
22150186,The Cakrasamvara Tantra: A Study and Annotated Translation,,Treasury of the Buddhist Sciences,,David B. Gray,2007,,American Institute of Buddhist Studies,,468,0,English,,,0,"0975373463,9780975373460",,,,,,,,,,,0,,,,,1,,1,20163819,pdf,3bcf875c510fa51c94116cc8e1e0e841,,,David Barton Gray - The Cakrasamvara Tantra,0,2000-01-01 01:00:00,2016-04-03 02:51:08,855000/3bcf875c510fa51c94116cc8e1e0e841-d.jpg,,
22150187,The Alchemical Body: Siddha Traditions in Medieval India,,,,David Gordon White,1997,,University Of Chicago Press,,614,0,English,,,0,"0226894975,9780226894973",,,,,,,,,,,0,,,,,1,,1,41856872,pdf,ec7b3702e7b2483252453f810b59155a,,,David Gordon White - The Alchemical Body - Siddha Tradition in Medieval India,0,2000-01-01 01:00:00,2016-04-03 02:51:08,855000/ec7b3702e7b2483252453f810b59155a-d.jpg,,
22150188,A History of Tibetan Painting,,Beitrage zur Kultur- und Geistesgeschichte Asiens,,David Jackson,1996,1,Austrian Academy of Sciences,,432,0,English,,,0,"3700122241,9783700122241",,,,,,,,,,,0,,,,,1,,1,54855412,pdf,5e8b248f88b1db8c9d68675bc0f3ceea,,,David Jackson - A History Of Tibetan Painting,0,2000-01-01 01:00:00,2016-04-03 02:51:08,855000/5e8b248f88b1db8c9d68675bc0f3ceea-d.jpg,,
22150189,The Cultural History of Tibet,,,,David L. Shellgrove,2006,,Orchid Press,,309,0,English,,,0,"9745240338,9789745240339",,,,,,,,,,,0,,,,,1,,1,31718843,pdf,a26fec51e1a0599f919b6f9ff3f48cdf,,,David L. Snellgrove - A Cultural History of Tibet,0,2000-01-01 01:00:00,2016-04-03 02:51:08,855000/a26fec51e1a0599f919b6f9ff3f48cdf-d.jpg,,
22150190,The Hevajra Tantra: A Critical Study,,,,David Snellgrove,2011,,Orchid Press,,338,0,English,,,0,"9745241288,9789745241282",,,,,,,,,,,0,,,,,1,,1,19113325,pdf,7bc45066ec477fd18dc3e87de4f0063e,,,David L. Snellgrove - The Hevajra Tantra,0,2000-01-01 01:00:00,2016-04-03 02:51:08,855000/7bc45066ec477fd18dc3e87de4f0063e-d.jpg,,
22150191,Clarifying the Natural State: A Principal Guidance Manual for Mahamudra,,,,"Dakpo Tashi Namgyal, Erik Pema Kunsang, Khenchen Thrangu Rinpoche",2004,,North Atlantic Books,,108,0,English,,,0,"9627341452,9789627341451",,,,,,,,,,,0,,,,,1,,1,5606501,pdf,9d8698eabf059d5858135711e47e2cb3,,,Dhagpo Tashi Namgyal - Clarifying the Natural State,0,2000-01-01 01:00:00,2016-04-03 02:51:08,855000/9d8698eabf059d5858135711e47e2cb3-d.jpg,,
22150192,The Heart of Compassion: Instructions on Ngulchu Thogme's Thirty-Sevenfold Practice of a Bodhisattva,,,,Dilgo Khyentse,2009,,Shechen Publications,,234,0,English,,,0,"8174721290,9788174721297",,,,,,,,,,,0,,,,,1,,1,12244833,pdf,91f73585777a8a7feee8347be58b2c28,,,Dilgo Khyentse - The Heart of Compassion,0,2000-01-01 01:00:00,2016-04-03 02:51:08,855000/91f73585777a8a7feee8347be58b2c28-g.jpg,,
22150193,"The Heart Treasure of the Enlightened Ones: The Practice of View, Meditation, and Action: A Discourse Virtuous in the Beginning, Middle, and End",,,,"Patrul Rinpoche, Dilgo Khyentse Rinpoche, The Padmakara Translation Group, The Dalai Lama",1993,1st,Shambhala,,260,0,English,,,0,"0877734933,9780877734932",,,,,,,,,,,0,,,,,1,,1,13145443,pdf,87498d2d39b82867f9e2dd3fec9edde5,,,Dilgo Khyentse - The Heart Treasure of the Enlightened Ones,0,2000-01-01 01:00:00,2016-04-03 02:51:08,855000/87498d2d39b82867f9e2dd3fec9edde5-d.jpg,,
22150194,The Hundred Verses of Advice: Tibetan Buddhist Teachings on What Matters Most,,Shambhala Pocket Classics,,"Dilgo Khyentse Rinpoche, Padampa Sangye, Padmakara Translation Group",2006,,Shambhala,,208,0,English,,,0,"1590303415,9781590303412",,,,,,,,,,,0,,,,,1,,1,5084956,pdf,771a01291ec057a41a38956e97a8a495,,,Dilgo Khyentse - The Hundred Verses of Advice - of Padampa Sangye,0,2000-01-01 01:00:00,2016-04-03 02:51:08,855000/771a01291ec057a41a38956e97a8a495-d.jpg,,
22150195,Guru Yoga: According to the Preliminary Practice of Longchen Nyingtik,,,,Dilgo Khyentse Rinpoche,1999,,Snow Lion Publications,,95,0,English,,,0,"1559391219,9781559391214",,,,,,,,,,,0,,,,,1,,1,4511502,pdf,5d5b17e92008a95527c1af53c9a150f7,,,Dilgo Khyentse Rinpoche - Guru Yoga,0,2000-01-01 01:00:00,2016-04-03 02:51:08,855000/5d5b17e92008a95527c1af53c9a150f7-d.jpg,,
22150196,Primordial Purity. Oral Instructions on the Three Words That Strike the Vital Point.,,,,Dilgo Khyentse Rinpoche,1999,,Shechen Tennyi Dargyeling,,115,0,English,,,0,,,,,,,,,,,,0,,,,,1,,1,6178309,pdf,fa87ec7e033f998ab84a781644f4d832,,,Dilgo Khyentse Rinpoche - Primordial Purity,0,2000-01-01 01:00:00,2016-04-03 02:51:08,855000/fa87ec7e033f998ab84a781644f4d832-g.jpg,,
22150197,Navigating Social Media Legal Risks: Safeguarding Your Business,,Que Biz-Tech,,Robert McHale,2012,1,Que,,320,0,English,,,0,"078974953X,9780789749536",,,,,,,,,,,0,,,,,1,,,13509947,epub,456a9a366fa8ea62c9d2da4289a9a30a,,,QUE.Navigating.Social.Media.Legal.Risks.May.2012,0,2000-01-01 01:00:00,2016-04-03 02:51:08,855000/456a9a366fa8ea62c9d2da4289a9a30a-d.jpg,,
22150198,Pure Appearance: Development & Completion Stages in Vajrayana Practice,,,,"Dilgo Khyentse Rinpoche, Ani Jinba Palmo",1992,,Vajravairochana Translation Committee,,116,0,English,,,0,,,,,,,,,,,,0,,,,,1,,1,7126640,pdf,fd491cc2739479f96c6aa0da2aab5ce6,,,Dilgo Khyentse Rinpoche - Pure Appearance,0,2000-01-01 01:00:00,2016-04-03 02:51:08,855000/fd491cc2739479f96c6aa0da2aab5ce6-g.jpg,,
22150199,The Practice of Mahamudra,,,,Drikung Kyabgon Chetsang Rinpoche,2009,,Snow Lion Publications,,136,0,English,,,0,"1559393238,9781559393232",,,,,,,,,,,0,,,,,1,,1,6242380,pdf,f46a67d842e8489994415d09dcd5a41d,,,Drikung Kyabgon Chetsang Rinpoche - The Practice of Mahamudra,0,2000-01-01 01:00:00,2016-04-03 02:51:08,855000/f46a67d842e8489994415d09dcd5a41d-d.jpg,,
22150200,Chinnamasta: The Aweful Buddhist & Hindu Tantric Goddess,,Buddhist Traditions,,Elisabeth Anne Benard,2010,1st,Montilal Banarsidass,,162,0,English,,,0,"8120810651,9788120810655",,,,,,,,,,,0,,,,,1,,1,9099054,pdf,460d48da87168a685ff31f8c53574dec,,,Elisabeth Anne Benard - Chinnamasta,0,2000-01-01 01:00:00,2016-04-03 02:51:08,855000/460d48da87168a685ff31f8c53574dec-d.jpg,,
22150201,"Vajrayogini: Her Visualization, Rituals, and Forms",,Studies in Indian and Tibetan Buddhism,,Elizabeth English,2002,1st Wisdom Ed,Wisdom Publications,,592,0,English,,,0,"086171329X,9780861713295",,,,,,,,,,,0,,,,,1,,1,34278474,pdf,ae3bbd4e6eaf6bb4a9debb075c4d8f1c,,,"Elizabeth English - Vajrayogini - Her Visualization, Rituals, and Forms",0,2000-01-01 01:00:00,2016-04-03 02:51:08,855000/ae3bbd4e6eaf6bb4a9debb075c4d8f1c-d.jpg,,
22150202,Navigating Social Media Legal Risks: Safeguarding Your Business,,Que Biz-Tech,,Robert McHale,2012,1,Que,,320,0,English,,,0,"078974953X,9780789749536",,,,,,,,,,,0,,,,,1,,1,5525691,pdf,d7dbe4ca967d8c9b44ecf704bda923c7,,,QUE.Navigating.Social.Media.Legal.Risks.May.2012,0,2000-01-01 01:00:00,2016-04-03 02:51:08,855000/d7dbe4ca967d8c9b44ecf704bda923c7-d.jpg,,
22150203,History of Indian Buddhism,,Publications de l'Institut Orientaliste de Louvain,,Etienne Lamotte,1988,,Peeters,,870,0,English,,,0,"906831100X,9789068311006",,,,,,,,,,,0,,,,,1,,1,42977330,pdf,585e79b126896fed07ef30d52ca01d44,,,Etienne Lamotte - History of Indian Buddhism,0,2000-01-01 01:00:00,2016-04-03 02:51:08,855000/585e79b126896fed07ef30d52ca01d44-d.jpg,,
22150204,Programming in Go: Creating Applications for the 21st Century,,Developer's Library,,Mark Summerfield,2012,1,Addison-Wesley Professional,,496,0,English,92,,0,"0321774639,9780321774637",,,,,,,,,,,0,,,,,1,,1,7356484,pdf,a2b1b84e6166ef6322e44604d8beb0c5,,,Addison.Wesley.Programming.in.Go.May.2012,0,2000-01-01 01:00:00,2016-04-03 02:51:08,855000/a2b1b84e6166ef6322e44604d8beb0c5-d.jpg,,
22150205,Programming in Go: Creating Applications for the 21st Century,,Developer's Library,,Mark Summerfield,2012,1,Addison-Wesley Professional,,496,0,English,92,,0,"0321774639,9780321774637",,,,,,,,,,,0,,,,,1,,,25031273,epub,957415d54a659b19aac595cb015df7e2,,,Addison.Wesley.Programming.in.Go.May.2012,0,2000-01-01 01:00:00,2016-04-03 02:51:08,855000/957415d54a659b19aac595cb015df7e2-d.jpg,,
22150206,Бердяев,,Жизнь замечательных людей #1257,,Ольга Дмитриевна Волкогонова,2010,,Молодая гвардия,,,0,Russian,,,0,"978-5-235-03361-0,",,,,,,,,,,,0,,,,,1,,,2807157,fb2,14ceadb6cf76745797c557dedf52246b,,,Бердяев (Ольга Волкогонова) - 2010,0,2000-01-01 01:00:00,2016-04-03 02:51:08,855000/14ceadb6cf76745797c557dedf52246b-d.jpg,,
22150207,Воейков,,Жизнь замечательных людей #198,,А Тимашев,1957,,Молодая гвардия,,,0,Russian,,,0,,,,,,,,,,,,0,,,,,1,,,640988,fb2,66499401fb97c5a16772507ed415d4d4,,,Воейков (А. Тимашев) - 1957,0,2000-01-01 01:00:00,2016-04-03 02:51:08,855000/66499401fb97c5a16772507ed415d4d4-d.jpg,,
22150208,Генерал Багратион. Жизнь и война,,Жизнь замечательных людей #1391,,Евгений Анисимов,2009,,Молодая гвардия,,,0,Russian,,,0,"978-5-235-03282-8,",,,,,,,,,,,0,,,,,1,,,3434132,fb2,7733e5553f8082dd5d640ebf4417f82b,,,Генерал Багратион. Жизнь и война (Евгений Анисимов) - 2009,0,2000-01-01 01:00:00,2016-04-03 02:51:08,855000/7733e5553f8082dd5d640ebf4417f82b-d.jpg,,
22150209,Суворов,,Жизнь замечательных людей,,К. Осипов,1949,,Латгосиздат,,,0,Russian,,,0,,,,,,,,,,,,0,,,,,1,,,2233953,fb2,5e77532a731c87863db11d176eca7a54,,,Суворов (К. Осипов) - 1949,0,2000-01-01 01:00:00,2016-04-03 02:51:08,855000/5e77532a731c87863db11d176eca7a54-d.jpg,,
22150210,Франсуаза Саган,,Жизнь замечательных людей #933,,Жан-Клод Лами & Аркадий Иосифович Ваксберг,2005,,Молодая гвардия,,,0,Russian,,,0,"5-235-02789-2,",,,,,,,,,,,0,,,,,1,,,2054249,fb2,ce69892969835cd29814e497e78b193e,,,Франсуаза Саган (Жан-Клод Лами) - 2005,0,2000-01-01 01:00:00,2016-04-03 02:51:08,855000/ce69892969835cd29814e497e78b193e-d.jpg,,
22150211,Шопенгауэр,,Жизнь замечательных людей #846,,Арсений Владимирович Гулыга & Искра Степановна Андреева,2003,,Молодая гвардия,,,0,Russian,,,0,"5-235-02551-2,",,,,,,,,,,,0,,,,,1,,,1575000,fb2,2fa941c1bdf321ce8514ff5846510c5a,,,"Шопенгауэр (Арсений Гулыга, Искра Андреева) - 2003",0,2000-01-01 01:00:00,2016-04-03 02:51:08,855000/2fa941c1bdf321ce8514ff5846510c5a-d.jpg,,
22150212,Элоиза и Абеляр,,Жизнь замечательных людей #944,,Режин Перну,2005,,Молодая гвардия,,,0,Russian,,,0,"5-235-02766-3,",,,,,,,,,,,0,,,,,1,,,1944838,fb2,2fb41ee4f0a83350f0aa4a95d9031bc1,,,Элоиза и Абеляр (Режин Перну) - 2005,0,2000-01-01 01:00:00,2016-04-03 02:51:08,855000/2fb41ee4f0a83350f0aa4a95d9031bc1-d.jpg,,
22150213,Чайковский,,Жизнь замечательных людей #1,,Александр Николаевич Познанский,2010,,«Молодая гвардия» и «Вита Нова»,,,0,Russian,,,0,"978-5-235-03347-4,",,,,,,,,,,,0,,,,,1,,,3779114,fb2,1429d040d9ac3ee2192fd912e83dc5f6,,,Чайковский (Александр Познанский) - 2010,0,2000-01-01 01:00:00,2016-04-03 02:51:08,855000/1429d040d9ac3ee2192fd912e83dc5f6-d.jpg,,
22150214,Савва Сторожевский,,Жизнь замечательных людей 1278 (1078),,Константин Ковалев,2007,,Молодая гвардия,,448,0,Russian,,,0,978-5-235-03055-8,,,,,,,,,,Adobe Acrobat Pro 9.4.1,0,,,,,1,,0,37751748,pdf,eca07a53a37d93817b968ea3f5b6d41c,,,Савва Сторожевский (Константин Ковалев) - 2007,0,2000-01-01 01:00:00,2016-04-03 02:51:08,855000/eca07a53a37d93817b968ea3f5b6d41c-d.jpg,,
