22341214,Building your First Mobile Game using XNA 4.0,,,,"Brecht Kets, Thomas Goussaert",2013,,Packt Publishing,,158,0,English,,,0,"1849687749,9781849687744",,,,,,,,,,,0,,,,,,,0,4268317,pdf,c044b17fa469d9bc612fdc5d0e5d4d46,,,c044b17fa469d9bc612fdc5d0e5d4d46.pdf,0,2000-01-01 01:00:00,2016-04-03 02:51:08,1052000/c044b17fa469d9bc612fdc5d0e5d4d46-d.jpg,,
22341215,Filosofia mentalului~ Intentionalitate si experiment,,,,Angela Botez,1996,,Editura Stiintifica,,330,0,Romanian,,,0,,,,,,,,,,,,0,,,,,,,0,3669896,djvu,77612b26971ed2e26b63735d88a1ec1a,,,Angela Botez - Filosofia mentalului~ Intentionalitate si experiment,0,2000-01-01 01:00:00,2016-04-03 02:51:08,1052000/77612b26971ed2e26b63735d88a1ec1a-g.jpg,,
22341216,Access 2010 For Dummies,,,,"Laurie Ulrich Fuller, Ken Cook",2010,1,For Dummies,,456,0,English,,,0,"0470497475,9780470497470",,,,,,,,,,,0,,,,,,,0,17848408,pdf,e8db2496cf2afae033d95b57b014c01b,,,e8db2496cf2afae033d95b57b014c01b.pdf,0,2000-01-01 01:00:00,2016-04-03 02:51:08,1052000/e8db2496cf2afae033d95b57b014c01b-d.jpg,,
22341217,Oxford English Grammar Course: Intermediate [With CDROM],,French Edition,,"Michael Swan, Catherine Walter",2011,,"Oxford University Press, USA",,386,0,English,,,0,"0194420825,9780194420822",,,,,,,,,,,0,,,,,,,0,613074,pdf,a25c7932a4675e9ce98cb8d8a5ed18b9,,,a25c7932a4675e9ce98cb8d8a5ed18b9.pdf,0,2000-01-01 01:00:00,2016-04-03 02:51:08,1052000/a25c7932a4675e9ce98cb8d8a5ed18b9-d.jpg,,
22341218,Filosofia mentalului~ Intentionalitate si experiment,,,,Angela Botez,1996,,Editura Stiintifica,,330,0,Romanian,,,0,,,,,,,,,,,,0,,,,,,,1,6653722,pdf,55d6269f7be571a8c81046a3a3245bee,,,Angela Botez - Filosofia mentalului~ Intentionalitate si experiment,0,2000-01-01 01:00:00,2016-04-03 02:51:08,1052000/55d6269f7be571a8c81046a3a3245bee-g.jpg,,
22341219,Accounting: Tools for Business Decision Making,,,,"Paul D. Kimmel, Jerry J. Weygandt, Kieso",2011,4,Wiley,,1408,0,English,,,0,"0470534788,9780470534786",,,,,,,,,,,0,,,,,,,0,57693129,pdf,770429b21d4e266184a1e6436c80e6d8,,,770429b21d4e266184a1e6436c80e6d8.pdf,0,2000-01-01 01:00:00,2016-04-03 02:51:08,1052000/770429b21d4e266184a1e6436c80e6d8-d.jpg,,
22341220,Oracle Database 11gR2 Performance Tuning Cookbook,,,,Ciro Fiorillo,2012,,Packt Publishing,,542,0,English,,,0,"1849682607,9781849682602",,,,,,,,,,,0,,,,,,,0,7620483,pdf,1ffbc608d15fcff1d2c5e36b21ea612f,,,1ffbc608d15fcff1d2c5e36b21ea612f.pdf,0,2000-01-01 01:00:00,2016-04-03 02:51:08,1052000/1ffbc608d15fcff1d2c5e36b21ea612f-d.jpg,,
22341221,Dictionar de filosofie si logica,,,,Antony Flew,1999,,Humanitas,,369,0,Romanian,,,0,,,,,,,,,,,,0,,,,,,,1,10087828,djvu,10fc0ba138e393d9b14f70986707f91d,,,Antony Flew - Dictionar de filosofie si logica,0,2000-01-01 01:00:00,2016-04-03 02:51:08,1052000/10fc0ba138e393d9b14f70986707f91d-g.jpg,,
22341222,Bullying Interventions in Schools: Six Basic Approaches,,,,Ken Rigby,2012,1,Wiley-Blackwell,,184,0,English,,,0,"1118345886,9781118345887",,,,,,,,,,,0,,,,,,,0,3330773,pdf,1c4e6cb72f2c3a4d33dd2d7746b191d6,,,1c4e6cb72f2c3a4d33dd2d7746b191d6.pdf,0,2000-01-01 01:00:00,2016-04-03 02:51:08,1052000/1c4e6cb72f2c3a4d33dd2d7746b191d6-d.jpg,,
22341223,Oxford English Grammar Course: Intermediate [With CDROM],,French Edition,,"Michael Swan, Catherine Walter",2011,,"Oxford University Press, USA",,386,0,English,,,0,"0194420825,9780194420822",,,,,,,,,,,0,,,,,,,1,610373,pdf,a8dc578d4e7460a8851248888732e12e,,,a8dc578d4e7460a8851248888732e12e.pdf,0,2000-01-01 01:00:00,2016-04-03 02:51:08,1052000/a8dc578d4e7460a8851248888732e12e-d.jpg,,
22341224,The Essentials of Performance Analysis: An Introduction,,,,"Mike Hughes, Ian Franks",2007,1,Routledge,,344,0,English,,,0,"0415423805,9780415423809",,,,,,,,,,,0,,,,,,,0,3373994,pdf,a456fc0e319237c49cfb0df16132a6af,,,a456fc0e319237c49cfb0df16132a6af.pdf,0,2000-01-01 01:00:00,2016-04-03 02:51:08,1052000/a456fc0e319237c49cfb0df16132a6af-d.jpg,,
22341225,Dictionar de filosofie si logica,,,,Antony Flew,1999,,Humanitas,,369,0,Romanian,,,0,,,,,,,,,,,,0,,,,,,,1,6951090,pdf,b8b30032f1ac59330e993d125bb76919,,,Antony Flew - Dictionar de filosofie si logica,0,2000-01-01 01:00:00,2016-04-03 02:51:08,1052000/b8b30032f1ac59330e993d125bb76919-g.jpg,,
22341226,"Empire Lost: Britain, the Dominions and the Second World War",,,,Andrew Stewart,2008,1,Bloomsbury Academic,,256,0,English,,,0,"1847252443,9781847252449",,,,,,,,,,,0,,,,,,,,3351667,epub,f79e2b76cf748a141f8cdf4c18c6a290,,,f79e2b76cf748a141f8cdf4c18c6a290.epub,0,2000-01-01 01:00:00,2016-04-03 02:51:08,1052000/f79e2b76cf748a141f8cdf4c18c6a290-d.jpg,,
22341227,Cn5530 - Special Ops - Journal of the Elite Forces & Swat Units Vol. 30,,,,Samuel M. ( Ed. ) Katz,2004,,Concord Publication Co.,,64,0,English,,,0,"9623610955,9789623610957",,,,,,,,,,,0,,,,,,,0,115527816,pdf,22f1c10021574486bf95a8d1c335f11a,,,22f1c10021574486bf95a8d1c335f11a.pdf,0,2000-01-01 01:00:00,2016-04-03 02:51:08,1052000/22f1c10021574486bf95a8d1c335f11a-d.jpg,,
22341228,Making Human Rights a Reality,,,,Emilie M. Hafner-Burton,2013,,Princeton University Press,,296,0,English,,,0,"0691155364,9780691155364",,,,,,,,,,,0,,,,,,,,2178627,epub,69f341eb58ae1c3a77c02b2c0e1dcb8a,,,69f341eb58ae1c3a77c02b2c0e1dcb8a.epub,0,2000-01-01 01:00:00,2016-04-03 02:51:08,1052000/69f341eb58ae1c3a77c02b2c0e1dcb8a-d.jpg,,
22341229,Data Warehousing Fundamentals: A Comprehensive Guide for IT Professionals,,,,Paulraj Ponniah,2001,1,Wiley-Interscience,,528,0,English,,,0,"0471412546,9780471412540",,,,,,,,,,,0,,,,,,,0,4192561,pdf,969163aa828edb35064113dfc2c25c8e,,,969163aa828edb35064113dfc2c25c8e.pdf,0,2000-01-01 01:00:00,2016-04-03 02:51:08,1052000/969163aa828edb35064113dfc2c25c8e-d.jpg,,
22341230,Asterisk 1.4 - the Professional's Guide,,,,"Colman Carpenter, David Duffett, Nik Middleton, Ian Plain",2009,,Packt Publishing,,250,0,English,,,0,"1847194389,9781847194381",,,,,,,,,,,0,,,,,,,0,6551783,pdf,36cba5556d690cfb676bb94a9680f7c1,,,36cba5556d690cfb676bb94a9680f7c1.pdf,0,2000-01-01 01:00:00,2016-04-03 02:51:08,1052000/36cba5556d690cfb676bb94a9680f7c1-d.jpg,,
22341231,Plastic Fantastic: How the Biggest Fraud in Physics Shook the Scientific World,,Macmillan Science,,Eugenie Samuel Reich,2009,1,Palgrave Macmillan,,272,0,English,,,0,"0230224679,9780230224674",,,,,,,,,,,0,,,,,,,0,3242943,pdf,1d08baeafe31fc26475c5f11d709bd5d,,,1d08baeafe31fc26475c5f11d709bd5d.pdf,0,2000-01-01 01:00:00,2016-04-03 02:51:08,1052000/1d08baeafe31fc26475c5f11d709bd5d-d.jpg,,
22341232,Capital and Language: From the New Economy to the War Economy,,Semiotext(e) / Foreign Agents,,"Christian Marazzi, Gregory Conti, Michael Hardt",2008,,Semiotext(e),,168,0,English,,,0,"1584350679,9781584350675",,,,,,,,,,,0,,,,,,,0,3210989,pdf,80fdc07f8d33995c97151605d144aa52,,,80fdc07f8d33995c97151605d144aa52.pdf,0,2000-01-01 01:00:00,2016-04-03 02:51:08,1052000/80fdc07f8d33995c97151605d144aa52-d.jpg,,
22341233,Oxford English Grammar Course: Intermediate [With CDROM],,French Edition,,"Michael Swan, Catherine Walter",2011,,"Oxford University Press, USA",,386,0,English,,,0,"0194420825,9780194420822",,,,,,,,,,,0,,,,,,,0,609807,pdf,934a1a6c0547af897c07748236fdd4b3,,,934a1a6c0547af897c07748236fdd4b3.pdf,0,2000-01-01 01:00:00,2016-04-03 02:51:08,1052000/934a1a6c0547af897c07748236fdd4b3-d.jpg,,
22341234,The Making of Star Wars: The Empire Strikes Back,,,,"J.W. Rinzler, Ridley Scott",2010,,LucasBooks,,372,0,English,,,0,"0345509617,9780345509611",,,,,,,,,,,0,,,,,,,,112668064,mobi,22be60067238a4bc538535579875af55,,,22be60067238a4bc538535579875af55.mobi,0,2000-01-01 01:00:00,2016-04-03 02:51:08,1052000/22be60067238a4bc538535579875af55-d.jpg,,
22341235,"Sexing the Church: Gender, Power, and Ethics in Contemporary Catholicism",,,,"Aline H Kalbian, Aline H. Kalbian",2005,,Indiana University Press,,184,0,English,,,0,"0253345308,9780253345301",,,,,,,,,,,0,,,,,,,0,3386923,pdf,77e152ceb8dc50bbf9b44ab93a77db9a,,,77e152ceb8dc50bbf9b44ab93a77db9a.pdf,0,2000-01-01 01:00:00,2016-04-03 02:51:08,1052000/77e152ceb8dc50bbf9b44ab93a77db9a-d.jpg,,
22341236,Dangerous Goods Regulations 2013: Effective 1 January-31 December 2013,,,,International Air Transport Association,2012,Pap/Chrt,Intl Air Transport Assn,,918,0,English,,,0,"9292337866,9789292337865",,,,,,,,,,,0,,,,,,,0,10377024,pdf,f03883b005bb3e4217019eb0196dda58,,,f03883b005bb3e4217019eb0196dda58.pdf,0,2000-01-01 01:00:00,2016-04-03 02:51:08,1052000/f03883b005bb3e4217019eb0196dda58-d.jpg,,
22341237,An Introduction to Third World Theologies,,Introduction to Religion,,John Parratt,2004,,Cambridge University Press,,200,0,English,,,0,"0521793351,9780521793353",,,,,,,,,,,0,,,,,,,0,6839306,pdf,99838440ccc90819d506fae7c1e822e3,,,99838440ccc90819d506fae7c1e822e3.pdf,0,2000-01-01 01:00:00,2016-04-03 02:51:08,1052000/99838440ccc90819d506fae7c1e822e3-d.jpg,,
22341238,The Myth of a Guilty Nation,,,,Albert Jay Nock,2011,,Ludwig von Mises Institute,,124,0,English,,,0,"1610162382,9781610162388",,,,,,,,,,,0,,,,,,,0,4584982,pdf,d8a14009de72bd0b8683796f50a24353,,,d8a14009de72bd0b8683796f50a24353.pdf,0,2000-01-01 01:00:00,2016-04-03 02:51:08,1052000/d8a14009de72bd0b8683796f50a24353-d.jpg,,
22341239,Essential Cardiology: Principles and Practice,,,,Clive Rosendorff,2013,3rd ed. 2013,Springer,,800,0,English,,,0,"1461467047,9781461467045",,,,,,,,,,,0,,,,,,,0,25283102,pdf,bd830efa0f2f218fcafecf49101d8d3d,,,bd830efa0f2f218fcafecf49101d8d3d.pdf,0,2000-01-01 01:00:00,2016-04-03 02:51:08,1052000/bd830efa0f2f218fcafecf49101d8d3d-d.jpg,,
22341240,"Taking Charge of ADHD, Third Edition: The Complete, Authoritative Guide for Parents",,,,Russell A. Barkley,2013,3rd,The Guilford Press,,363,0,English,,,0,"1462508510,9781462508518",,,,,,,,,,,0,,,,,,,0,3522679,pdf,52989e5ba20619913de88da1f3176135,,,52989e5ba20619913de88da1f3176135.pdf,0,2000-01-01 01:00:00,2016-04-03 02:51:08,1052000/52989e5ba20619913de88da1f3176135-d.jpg,,
22341241,"Third Generation Wireless Communications, Volume 1: Post Shannon Signal Architectures",,,,George Calhoun,2003,1st,Artech House,,514,0,English,,,0,"1580530435,9781580530439",,,,,,,,,,,0,,,,,,,0,3618939,pdf,f04993d5f0b49312ae7be2ddc7077ea2,,,f04993d5f0b49312ae7be2ddc7077ea2.pdf,0,2000-01-01 01:00:00,2016-04-03 02:51:08,1052000/f04993d5f0b49312ae7be2ddc7077ea2-d.jpg,,
22341242,Operation KE: The Cactus Air Force and the Japanese Withdrawal from Guadalcanal,,,,"Roger Letourneau, Dennis Letourneau",2012,,Naval Institute Press,,416,0,English,,,0,"1591144469,9781591144465",,,,,,,,,,,0,,,,,,,0,5362035,pdf,3f0d2a8f81005c27e9a7757fe59aad33,,,3f0d2a8f81005c27e9a7757fe59aad33.pdf,0,2000-01-01 01:00:00,2016-04-03 02:51:08,1052000/3f0d2a8f81005c27e9a7757fe59aad33-d.jpg,,
22341243,Sass for Web Designers,,,,Dan Cederholm,2013,,,,97,0,English,,,0,"193755712X,9781937557126",,,,,,,,,,,0,,,,,,,,3160967,epub,909049caa294c2aeae0961e6f579e95d,,,909049caa294c2aeae0961e6f579e95d.epub,0,2000-01-01 01:00:00,2016-04-03 02:51:08,1052000/909049caa294c2aeae0961e6f579e95d-d.jpg,,
22341244,Doctors Without Borders in Ethiopia: Among the Afar,,,,Nyla Jo Jones Hubbard MT ASCP,2011,,Algora Publishing,,188,0,English,,,0,"0875868533,9780875868530",,,,,,,,,,,0,,,,,,,0,3309514,pdf,1b19a947d7d330049f367c2db1fcd5b4,,,1b19a947d7d330049f367c2db1fcd5b4.pdf,0,2000-01-01 01:00:00,2016-04-03 02:51:08,1052000/1b19a947d7d330049f367c2db1fcd5b4-d.jpg,,
22341245,OpenGL 4.0 Shading Language Cookbook,,,,David Wolff,2011,,Packt Publishing,,340,0,English,,,0,"1849514763,9781849514767",,,,,,,,,,,0,,,,,,,0,9597265,pdf,d4129af3501ee4f7b5275248df545812,,,d4129af3501ee4f7b5275248df545812.pdf,0,2000-01-01 01:00:00,2016-04-03 02:51:08,1052000/d4129af3501ee4f7b5275248df545812-d.jpg,,
22341246,Knit Kimono,,,,Vicki Square,2007,,Interweave,,128,0,English,,,0,"1931499896,9781931499897",,,,,,,,,,,0,,,,,,,,11706262,epub,aa1cc19fb0042f0bb2b8c32b34f88642,,,aa1cc19fb0042f0bb2b8c32b34f88642.epub,0,2000-01-01 01:00:00,2016-04-03 02:51:08,1052000/aa1cc19fb0042f0bb2b8c32b34f88642-d.jpg,,
22341247,Crazy About Chocolate: More than 200 Delicious Recipes to Enjoy and Share,,,,Krystina Castella,2013,,Sterling,,272,0,English,,,0,"1402798849,9781402798849",,,,,,,,,,,0,,,,,,,,26610881,epub,05e15262a52050abdb10800cabac977d,,,05e15262a52050abdb10800cabac977d.epub,0,2000-01-01 01:00:00,2016-04-03 02:51:08,1052000/05e15262a52050abdb10800cabac977d-d.jpg,,
22341248,Psychiatric Nursing Certification Review Guide For The Generalist And Advanced Practice Psychiatric And Mental Health Nurse,,"Mosack, Psychiatric ... Review Guide for the Generalist and Advance",,Victoria Mosack,2010,3,Jones & Bartlett Learning,,290,0,English,,,0,"0763775991,9780763775995",,,,,,,,,,,0,,,,,,,0,3447843,pdf,182969dd7b355dfcf560cc50893ec3a6,,,182969dd7b355dfcf560cc50893ec3a6.pdf,0,2000-01-01 01:00:00,2016-04-03 02:51:08,1052000/182969dd7b355dfcf560cc50893ec3a6-d.jpg,,
22341249,The Psychologically Literate Citizen: Foundations and Global Perspectives,,,,"Dana Dunn, Jacquelyn Cranney",2011,First,"Oxford University Press, USA",,384,0,English,,,0,"0199794944,9780199794942",,,,,,,,,,,0,,,,,,,0,3259883,pdf,930e57f13961e4aec5eeb9b6fd779728,,,930e57f13961e4aec5eeb9b6fd779728.pdf,0,2000-01-01 01:00:00,2016-04-03 02:51:08,1052000/930e57f13961e4aec5eeb9b6fd779728-d.jpg,,
22341250,Sencha Touch in Action,,,,"Jesus Garcia, Anthony De Moss, Mitchell Simoens",2013,,Manning Publications,,320,0,English,,,0,"1617290378,9781617290374",,,,,,,,,,,0,,,,,,,0,21541239,pdf,690fdbb8da10ba166df81001fe229159,,,690fdbb8da10ba166df81001fe229159.pdf,0,2000-01-01 01:00:00,2016-04-03 02:51:08,1052000/690fdbb8da10ba166df81001fe229159-d.jpg,,
22341251,Divine Fury: A History of Genius,,,,Darrin M. McMahon,2013,,Basic Books,,360,0,English,,,0,"0465003257,9780465003259",,,,,,,,,,,0,,,,,,,,6998593,mobi,c85de3ba06c5e0bd6cb4e6844ed812eb,,,c85de3ba06c5e0bd6cb4e6844ed812eb.mobi,0,2000-01-01 01:00:00,2016-04-03 02:51:08,1052000/c85de3ba06c5e0bd6cb4e6844ed812eb-d.jpg,,
22341252,Computational Algebraic Number Theory,,Oberwolf Seminars,,Michael E. Pohst,1993,,Birkhauser,,88,0,English,,,0,"0817629130,9780817629137",,,,,,,,,,,0,,,,,,,0,3261043,pdf,180a67c83914c9db8648f36e7966c6a4,,,180a67c83914c9db8648f36e7966c6a4.pdf,0,2000-01-01 01:00:00,2016-04-03 02:51:08,1052000/180a67c83914c9db8648f36e7966c6a4-d.jpg,,
22341253,Clinical Care Conundrums: Challenging Diagnoses in Hospital Medicine,,Hospital Medicine: Current Concepts,,"James C. Pile, Thomas E. Baudendistel, Brian Harte",2013,1,Wiley-Blackwell,,208,0,English,,,0,"0470905654,9780470905654",,,,,,,,,,,0,,,,,,,0,3429414,pdf,297b3080f9e23210dc1954884a731d8a,,,297b3080f9e23210dc1954884a731d8a.pdf,0,2000-01-01 01:00:00,2016-04-03 02:51:08,1052000/297b3080f9e23210dc1954884a731d8a-d.jpg,,
22341254,"Secrets Stolen, Fortunes Lost: Preventing Intellectual Property Theft and Economic Espionage in the 21st Century",,,,"Christopher Burgess, SYNGRESS, Richard Power",2008,1,Syngress,,300,0,English,,,0,"1597492558,9781597492553",,,,,,,,,,,0,,,,,,,0,3200935,pdf,444be749913bcdd1ce4fa9fab0c6a8dc,,,444be749913bcdd1ce4fa9fab0c6a8dc.pdf,0,2000-01-01 01:00:00,2016-04-03 02:51:08,1052000/444be749913bcdd1ce4fa9fab0c6a8dc-d.jpg,,
22341255,Not in Your Lifetime: The Defining Book on the J.F.K. Assassination,,,,Anthony Summers,2013,Reprint,Open Road Media,,702,0,English,,,0,"1480435481,9781480435483",,,,,,,,,,,0,,,,,,,,3573111,epub,f4d2e1c712966d4370690e7b9c1b9a22,,,f4d2e1c712966d4370690e7b9c1b9a22.epub,0,2000-01-01 01:00:00,2016-04-03 02:51:08,1052000/f4d2e1c712966d4370690e7b9c1b9a22-d.jpg,,
22341256,Tony Benn a Biography,,,,Jad Adams,2011,,Biteback,,544,0,English,,,0,"1849540969,9781849540964",,,,,,,,,,,0,,,,,,,,1681194,epub,eae91ca61d1b63571486284109076f9a,,,eae91ca61d1b63571486284109076f9a.epub,0,2000-01-01 01:00:00,2016-04-03 02:51:08,1052000/eae91ca61d1b63571486284109076f9a-d.jpg,,
22341257,Meetings in No Man's Land,,,,"Marc Ferro, Malcolm Brown, Remy Cazals, Olaf Mueller, Helen McPhail",2007,,Constable,,278,0,English,,,0,"1845295137,9781845295134",,,,,,,,,,,0,,,,,,,,4628768,epub,6966303688a4d6fb29f20797c6ee6745,,,6966303688a4d6fb29f20797c6ee6745.epub,0,2000-01-01 01:00:00,2016-04-03 02:51:08,1052000/6966303688a4d6fb29f20797c6ee6745-d.jpg,,
22341258,Financial Markets and Exchanges Law,,,,"Michael Blair QC, George Walker, Stuart Willey",2013,2,"Oxford University Press, USA",,752,0,English,,,0,"0199601658,9780199601653",,,,,,,,,,,0,,,,,,,,3862646,epub,ec7980457422c7125fbee6948497ea5f,,,ec7980457422c7125fbee6948497ea5f.epub,0,2000-01-01 01:00:00,2016-04-03 02:51:08,1052000/ec7980457422c7125fbee6948497ea5f-d.jpg,,
22341259,"The Russian Roots of Nazism: White Émigrés and the Making of National Socialism, 1917-1945",,New Studies in European History,,Michael Kellogg,2005,,Cambridge University Press,,344,0,English,,,0,"0521845122,9780521845120",,,,,,,,,,,0,,,,,,,0,3309526,pdf,1d6c0f5561d929f360ac635bc6fee3f6,,,1d6c0f5561d929f360ac635bc6fee3f6.pdf,0,2000-01-01 01:00:00,2016-04-03 02:51:08,1052000/1d6c0f5561d929f360ac635bc6fee3f6-d.jpg,,
22341260,Cognitive Linguistics: Convergence and Expansion,,Human Cognitive Processing,,"Mario Brdar, Stefan Th. Gries, Milena Zic Fuchs",2011,,John Benjamins Publishing Company,,370,0,English,,,0,"9027223866,9789027223869",,,,,,,,,,,0,,,,,,,0,1602895,pdf,acb78b32b7a13cf260a0fb0df6bd38c5,,,acb78b32b7a13cf260a0fb0df6bd38c5.pdf,0,2000-01-01 01:00:00,2016-04-03 02:51:08,1052000/acb78b32b7a13cf260a0fb0df6bd38c5-d.jpg,,
22341261,Bradley Wiggins: Tour de Force,,,,John Deering,2013,,Birlinn Ltd,,256,0,English,,,0,"1780271298,9781780271293",,,,,,,,,,,0,,,,,,,,3488076,epub,63f9140bff8a04c1af3107a036b1e146,,,63f9140bff8a04c1af3107a036b1e146.epub,0,2000-01-01 01:00:00,2016-04-03 02:51:08,1052000/63f9140bff8a04c1af3107a036b1e146-d.jpg,,
22341262,"The Fishmonger's Apprentice: The Expert's Guide to Selecting, Preparing, and Cooking a World of Seafood, Taught by the Masters",,,,"Aliza Green, Steve Legato",2011,Pap/DVD,Quarry Books,,208,0,English,,,0,"1592536530,9781592536535",,,,,,,,,,,0,,,,,,,0,111812104,pdf,e3df8893ca4054fdc2daa1441ceb0abe,,,e3df8893ca4054fdc2daa1441ceb0abe.pdf,0,2000-01-01 01:00:00,2016-04-03 02:51:08,1052000/e3df8893ca4054fdc2daa1441ceb0abe-d.jpg,,
22341263,Vibration of Mindlin Plates: Programming the p-Version Ritz Method,,,,"K.M. Liew, Y. Xiang, S. Kitipornchai, C.M. Wang",1998,1st,Elsevier Science,,412,0,English,,,0,"0080433413,9780080433417",,,,,,,,,,,0,,,,,,,0,3227521,pdf,dc106a4f9b5b92574b437f3e63d28482,,,dc106a4f9b5b92574b437f3e63d28482.pdf,0,2000-01-01 01:00:00,2016-04-03 02:51:08,1052000/dc106a4f9b5b92574b437f3e63d28482-d.jpg,,
22341264,"Best Bike Rides Washington, DC: Great Recreational Rides in the Metro Area",,Best Bike Rides Series,,Martin Fernandez,2013,"First Edition, First",FalconGuides,,288,0,English,,,0,"0762780819,9780762780815",,,,,,,,,,,0,,,,,,,0,26066891,pdf,7ffe3c75653448713c1572be8ae61195,,,7ffe3c75653448713c1572be8ae61195.pdf,0,2000-01-01 01:00:00,2016-04-03 02:51:08,1052000/7ffe3c75653448713c1572be8ae61195-d.jpg,,
22341265,Vegan Soups and Hearty Stews for All Seasons,,,,Nava Atlas,2009,Original,Clarkson Potter,,176,0,English,,,0,"076793072X,9780767930727",,,,,,,,,,,0,,,,,,,,4530685,epub,bf67828c42850dd74e1d19f584fd18fe,,,bf67828c42850dd74e1d19f584fd18fe.epub,0,2000-01-01 01:00:00,2016-04-03 02:51:08,1052000/bf67828c42850dd74e1d19f584fd18fe-d.jpg,,
22341266,Introduction to Computational Modeling Using C and Open-Source Tools,,Chapman & Hall/CRC Computational Science,,"Garrido, J.M.",2013,illustrated,Taylor & Francis,,461,0,English,98,,0,"1482216787, 9781482216783",,,,,,2013039506,,5X76AQAAQBAJ,,,0,,,0,,0,,1,8456690,pdf,4174281fef450b30804ebe8bba9c0dd9,,,"Garrido, J. M. Introduction to Computational Modeling Using C and Open-Source Tools (CRC, 2013)(ISBN 9781482216790)(463s)",0,2000-01-01 01:00:00,2016-04-03 02:51:08,1052000/4174281fef450b30804ebe8bba9c0dd9-d.jpg,,
22341267,Theoretische Biologie,,,,Jakob von Uexküll,1928,,Julius Springer,Berlin,253,0,German,,,0,,,B00E6G66NO,,,,,,,,,0,,,,,,,0,28019506,pdf,641da5dabe5759cb568dc4e460ccab59,,,Jakob von Uexküll - Theoretische Biologie,0,2000-01-01 01:00:00,2016-04-03 02:51:08,1052000/641da5dabe5759cb568dc4e460ccab59-g.jpg,,
22341268,Nuclear Renaissance: Technologies and Policies for the Future of Nuclear Power,,,,William J. Nuttall,2004,1,Taylor & Francis,,336,0,English,,,0,"0750309369,9780750309363",,,,,,,,,,,0,,,,,,,0,28740310,pdf,614e633395a8cb6647a5239a6db37d6e,,,614e633395a8cb6647a5239a6db37d6e.pdf,0,2000-01-01 01:00:00,2016-04-03 02:51:08,1052000/614e633395a8cb6647a5239a6db37d6e-d.jpg,,
22341269,Personal Finance For Seniors For Dummies,,,,"Eric Tyson, Robert C. Carlson",2010,1,John Wiley & Sons,,456,0,English,,,0,"0470548762,9780470548769",,,,,,,,,,,0,,,,,,,,3548611,epub,daf5cde39e1c419560b194572f03ac38,,,daf5cde39e1c419560b194572f03ac38.epub,0,2000-01-01 01:00:00,2016-04-03 02:51:08,1052000/daf5cde39e1c419560b194572f03ac38-d.jpg,,
22341270,"Zion in the Valley, Volume II: The Jewish Community of St. Louis, Volume II, The Twentieth Century",,,,Walter Ehrlich,2002,1,University of Missouri,,503,0,English,,,0,"0826214142,9780826214140",,,,,,,,,,,0,,,,,,,0,15664981,pdf,246c0f820d38495e935064bf4d976f68,,,246c0f820d38495e935064bf4d976f68.pdf,0,2000-01-01 01:00:00,2016-04-03 02:51:08,1052000/246c0f820d38495e935064bf4d976f68-d.jpg,,
22341271,'White Girl Bleed A Lot': The Return of Racial Violence to America and How the Media Ignore It,,,,Colin Flaherty,2013,,WND Books,,416,0,English,,,0,"1938067061,9781938067068",,,,,,,,,,,0,,,,,,,,3877488,epub,16a19cd957f2845a0080dbba47d3235d,,,16a19cd957f2845a0080dbba47d3235d.epub,0,2000-01-01 01:00:00,2016-04-03 02:51:08,1052000/16a19cd957f2845a0080dbba47d3235d-d.jpg,,
22341272,Metal Fatigue Analysis Handbook: Practical problem-solving techniques for computer-aided engineering,,,,"Yung-Li Lee, Mark E. Barkey, Hong-Tae Kang",2011,1,Butterworth-Heinemann,,632,0,English,,,0,"0123852048,9780123852045",,,,,,,,,,,0,,,,,,,0,15784120,pdf,5f7e6abab7d60e77f796fec2d31cd6d5,,,5f7e6abab7d60e77f796fec2d31cd6d5.pdf,0,2000-01-01 01:00:00,2016-04-03 02:51:08,1052000/5f7e6abab7d60e77f796fec2d31cd6d5-d.jpg,,
22341273,Goliath: Life and Loathing in Greater Israel,,,,Max Blumenthal,2013,,Nation Books,,512,0,English,,,0,"1568586345,9781568586342",,,,,,,,,,,0,,,,,,,,1778503,mobi,56392a83eda012cab05b6caa4fba458f,,,56392a83eda012cab05b6caa4fba458f.mobi,0,2000-01-01 01:00:00,2016-04-03 02:51:08,1052000/56392a83eda012cab05b6caa4fba458f-d.jpg,,
22341274,Goliath: Life and Loathing in Greater Israel,,,,Max Blumenthal,2013,,Nation Books,,512,0,English,,,0,"1568586345,9781568586342",,,,,,,,,,,0,,,,,,,,1102414,epub,dbae364daa4358fb64b98b0d56bf9e44,,,dbae364daa4358fb64b98b0d56bf9e44.epub,0,2000-01-01 01:00:00,2016-04-03 02:51:08,1052000/dbae364daa4358fb64b98b0d56bf9e44-d.jpg,,
22341275,Gravity from the Ground Up: An Introductory Guide to Gravity and General Relativity,,,,Bernard Schutz,2004,1,Cambridge University Press,,483,0,English,,,0,"0521455065,9780521455060",,,,,,,,,,,0,,,,,,,0,10644111,pdf,1e8b28841b8e01fff5cd53db78e4a288,,,1e8b28841b8e01fff5cd53db78e4a288.pdf,0,2000-01-01 01:00:00,2016-04-03 02:51:08,1052000/1e8b28841b8e01fff5cd53db78e4a288-d.jpg,,
22341276,"Equity in Discourse for Mathematics Education: Theories, Practices, and Policies",,Mathematics Education Library,,"Beth Herbel-Eisenmann, Jeffrey Choppin, David Wagner, David Pimm",2011,2012,Springer,,200,0,English,,,0,"9400728123,9789400728127",,,,,,,,,,,0,,,,,,,0,3244344,pdf,80f5842cbf5aea280e358e9655642995,,,80f5842cbf5aea280e358e9655642995.pdf,0,2000-01-01 01:00:00,2016-04-03 02:51:08,1052000/80f5842cbf5aea280e358e9655642995-d.jpg,,
22341277,Dirty Rocker Boys,,,,"Bobbie Brown, Caroline Ryder",2013,,Gallery Books,,272,0,English,,,0,"1476734704,9781476734705",,,,,,,,,,,0,,,,,,,,3221792,epub,f4775f8c44f096da4ac912d95d79201e,,,f4775f8c44f096da4ac912d95d79201e.epub,0,2000-01-01 01:00:00,2016-04-03 02:51:08,1052000/f4775f8c44f096da4ac912d95d79201e-d.jpg,,
22341278,Progress in Optics,,Progress in Optics 57,,Emil Wolf (Eds.),2012,1,Elsevier Science,,374,0,English,,,0,"0444594221,9780444594228",,,,,,,,,,,0,,,,,,,0,14810061,pdf,bf147551038625ec813f1fec62382bdd,,,bf147551038625ec813f1fec62382bdd.pdf,0,2000-01-01 01:00:00,2016-04-03 02:51:08,1052000/bf147551038625ec813f1fec62382bdd-d.jpg,,
22341279,Ethical Problems in Emergency Medicine: A Discussion-based Review,,,,"John Jesus, Peter Rosen, James Adams, Arthur R. Derse, Shamai Grossman, Richard Wolfe",2012,1,Wiley-Blackwell,,346,0,English,,,0,"0470673478,9780470673478",,,,,,,,,,,0,,,,,,,0,3444347,pdf,f9ab812e09a4b74b63e682c11a0e5962,,,f9ab812e09a4b74b63e682c11a0e5962.pdf,0,2000-01-01 01:00:00,2016-04-03 02:51:08,1052000/f9ab812e09a4b74b63e682c11a0e5962-d.jpg,,
22341280,Scientific Writing: A Reader and Writer's Guide,,,,Jean-Luc Lebrun,2007,1,World Scientific Publishing Company,,224,0,English,,,0,"9812701443,9789812701442",,,,,,,,,,,0,,,,,,,0,3623773,pdf,3874eb28967f8060f962e8a06d662d0a,,,3874eb28967f8060f962e8a06d662d0a.pdf,0,2000-01-01 01:00:00,2016-04-03 02:51:08,1052000/3874eb28967f8060f962e8a06d662d0a-d.jpg,,
22341281,Thank You for Your Service,,,,David Finkel,2013,,Sarah Crichton Books,,272,0,English,,,0,"0374180660,9780374180669",,,,,,,,,,,0,,,,,,,,4343692,epub,40b03115581b526049fad8c2cca70676,,,40b03115581b526049fad8c2cca70676.epub,0,2000-01-01 01:00:00,2016-04-03 02:51:08,1052000/40b03115581b526049fad8c2cca70676-d.jpg,,
22341282,Abduzeedo Inspiration Guide for Designers,,Voices That Matter,,Fábio Sasso,2011,1,New Riders,,216,0,English,,,0,"0321767446,9780321767448",,,,,,,,,,,0,,,,,,,0,20972383,pdf,3560e8d6258bca9cfbec0ee7250a8b23,,,3560e8d6258bca9cfbec0ee7250a8b23.pdf,0,2000-01-01 01:00:00,2016-04-03 02:51:08,1052000/3560e8d6258bca9cfbec0ee7250a8b23-d.jpg,,
22341283,Control Theory for Engineers: A Primer,,Environmental Science and Engineering / Environmental Engine,,"Brigitte d'Andréa-Novel, Michel De Lara",2013,2013,Springer,,280,0,English,,,0,"3642343236,9783642343230",,,,,,,,,,,0,,,,,,,0,3205799,pdf,8d662db5a6236d52737263aa9368a180,,,8d662db5a6236d52737263aa9368a180.pdf,0,2000-01-01 01:00:00,2016-04-03 02:51:08,1052000/8d662db5a6236d52737263aa9368a180-d.jpg,,
22341284,Planning for Learning: Collaborative Approaches to Lesson Design and Review,,,,"Mary Renck Jalongo, Sue A. Rieg, Valeri R. Helterbran",2006,,Teachers College Press,,176,0,English,,,0,"080774736X,9780807747360",,,,,,,,,,,0,,,,,,,0,3910035,pdf,02e76b662042c89fe218596cc8f0f62c,,,02e76b662042c89fe218596cc8f0f62c.pdf,0,2000-01-01 01:00:00,2016-04-03 02:51:08,1052000/02e76b662042c89fe218596cc8f0f62c-d.jpg,,
22341285,"The Practice of English Language Teaching, 3rd Edition",,Longman Handbooks for Language Teachers,,Jeremy Harmer,2001,3rd,Pearson Education ESL,,370,0,English,,,0,"0582403855,9780582403857",,,,,,,,,,,0,,,,,,,0,10623605,pdf,c3a5dc1ea3d16853077592c23e6402c8,,,c3a5dc1ea3d16853077592c23e6402c8.pdf,0,2000-01-01 01:00:00,2016-04-03 02:51:08,1052000/c3a5dc1ea3d16853077592c23e6402c8-d.jpg,,
22341286,Revolution Unending: Afghanistan 1979 to the Present,,CERI,,"Gilles Dorronsoro, John King",2005,,C Hurst & Co Publishers Ltd,,320,0,English,,,0,"1850657033,9781850657033",,,,,,,,,,,0,,,,,,,0,3363033,pdf,c4d25b4f8d59df477158d410fb70dc6a,,,c4d25b4f8d59df477158d410fb70dc6a.pdf,0,2000-01-01 01:00:00,2016-04-03 02:51:08,1052000/c4d25b4f8d59df477158d410fb70dc6a-d.jpg,,
22341287,Shmirshky: The  Pursuit of Hormone Happiness,,,,E,2011,,Hyperion,,192,0,English,,,0,"1401341683,9781401341688",,,,,,,,,,,0,,,,,,,,2336147,epub,01984c4a110bbcbf01f839292ceae080,,,01984c4a110bbcbf01f839292ceae080.epub,0,2000-01-01 01:00:00,2016-04-03 02:51:08,1052000/01984c4a110bbcbf01f839292ceae080-d.jpg,,
22341288,Upgrading to Lotus Notes and Domino 7: Upgrade your company to the latest version of Lotus Notes and Domino.,,,,"Tim Speed, Dick McCarrick, Barry Heinz, Tara Hall, Matthew Henry, Wendi Pohs",2006,,Packt Publishing,,340,0,English,,,0,"1904811639,9781904811633",,,,,,,,,,,0,,,,,,,0,6823858,pdf,484f782bb48fdb58d19182528f36af63,,,484f782bb48fdb58d19182528f36af63.pdf,0,2000-01-01 01:00:00,2016-04-03 02:51:08,1052000/484f782bb48fdb58d19182528f36af63-d.jpg,,
22341289,Health Systems and the Challenge of Communicable Diseases: Experiences from Europe and Latin America,,European Observatory on Health Systems and Policies,,"Richard Coker, Rifat Atun, Martin McKee",2008,1,Open University Press,,296,0,English,,,0,"033523366X,9780335233663",,,,,,,,,,,0,,,,,,,0,3403382,pdf,dbcaa2a73575f7380d88d3d0e971a2f8,,,dbcaa2a73575f7380d88d3d0e971a2f8.pdf,0,2000-01-01 01:00:00,2016-04-03 02:51:08,1052000/dbcaa2a73575f7380d88d3d0e971a2f8-d.jpg,,
22341290,The Basis of Combination in Chess,,,,Julius Dumont,1978,,Dover Publications,,213,0,English,,,0,"0486236447,9780486236445",,,,,,,,,,,0,,,,,,,0,18511055,pdf,e7ec7e8bbf3e2863fa8d52936b5cec5c,,,e7ec7e8bbf3e2863fa8d52936b5cec5c.pdf,0,2000-01-01 01:00:00,2016-04-03 02:51:08,1052000/e7ec7e8bbf3e2863fa8d52936b5cec5c-d.jpg,,
22341291,Infantry Mortars of World War II,,New Vanguard,,"John Norris, Robert Calow",2002,,Osprey Publishing,,48,0,English,,,0,"1841764140,9781841764146",,,,,,,,,,,0,,,,,,,0,24955169,pdf,5bab3d67e09afb334dc896adcb9b38c7,,,5bab3d67e09afb334dc896adcb9b38c7.pdf,0,2000-01-01 01:00:00,2016-04-03 02:51:08,1052000/5bab3d67e09afb334dc896adcb9b38c7-d.jpg,,
22341292,Linear Models: A Mean Model Approach,,Probability and Mathematical Statistics,,Barry Kurt Moser,1996,1,Academic Press,,228,0,English,,,0,"012508465X,9780125084659",,,,,,,,,,,0,,,,,,,0,7003240,pdf,56763908536cab7ad98a34e66eea9839,,,56763908536cab7ad98a34e66eea9839.pdf,0,2000-01-01 01:00:00,2016-04-03 02:51:08,1052000/56763908536cab7ad98a34e66eea9839-d.jpg,,
22341293,Starting At Zero: His Own Story,,,,Jimi Hendrix,2013,,Bloomsbury Publishing PLC,,256,0,English,,,0,"1408842149,9781408842140",,,,,,,,,,,0,,,,,,,,1469997,mobi,083791c9750db3fa80608500426da7ca,,,083791c9750db3fa80608500426da7ca.mobi,0,2000-01-01 01:00:00,2016-04-03 02:51:08,1052000/083791c9750db3fa80608500426da7ca-d.jpg,,
22341294,Fanny: Being the True History of the Adventures of Fanny Hackabout-Jones,,,,Erica Jong,2003,Reissue,W. W. Norton & Company,,512,0,English,,,0,"0393324354,9780393324358",,,,,,,,,,,0,,,,,,,,3450573,epub,532467583d2f5ce44ba5a292f4737557,,,532467583d2f5ce44ba5a292f4737557.epub,0,2000-01-01 01:00:00,2016-04-03 02:51:08,1052000/532467583d2f5ce44ba5a292f4737557-d.jpg,,
22341295,Margaret Fuller: A New American Life,,,,Megan Marshall,2013,First Edition,Houghton Mifflin Harcourt,,496,0,English,,,0,"0547195605,9780547195605",,,,,,,,,,,0,,,,,,,,10329669,epub,e49e6eb2484061d34b869d3330b1cea9,,,e49e6eb2484061d34b869d3330b1cea9.epub,0,2000-01-01 01:00:00,2016-04-03 02:51:08,1052000/e49e6eb2484061d34b869d3330b1cea9-d.jpg,,
22341296,Multimedia and E-Content Trends,,Smart Media und Applications Research,,Peter A. Bruck,2008,2009,Vieweg and Teubner,,195,0,English,,,0,"3834807540,9783834807540",,,,,,,,,,,0,,,,,,,0,3198374,pdf,ac155a42e6bfba08036e42945a1537d7,,,ac155a42e6bfba08036e42945a1537d7.pdf,0,2000-01-01 01:00:00,2016-04-03 02:51:08,1052000/ac155a42e6bfba08036e42945a1537d7-d.jpg,,
22341297,The Penguin Book of Chess Positions,,Penguin handbooks,,C. Hugh O'D. Alexander,1974,,Penguin Books,,176,0,English,,,0,"014046199X,9780140461992",,,,,,,,,,,0,,,,,,,0,17007252,pdf,f22a7fb66aff9a52bb8e77ffa12076f8,,,f22a7fb66aff9a52bb8e77ffa12076f8.pdf,0,2000-01-01 01:00:00,2016-04-03 02:51:08,1052000/f22a7fb66aff9a52bb8e77ffa12076f8-g.jpg,,
22341298,1941: The Year That Keeps Returning,,,,"Slavko Goldstein, Michael Gable, Charles Simic",2013,,New York Review Books,,622,0,English,,,0,"1590176731,9781590176733",,,,,,,,,,,0,,,,,,,,5565639,epub,2eae8a0ada6f1c320c61192a3b934170,,,2eae8a0ada6f1c320c61192a3b934170.epub,0,2000-01-01 01:00:00,2016-04-03 02:51:08,1052000/2eae8a0ada6f1c320c61192a3b934170-d.jpg,,
22341299,The World of Karl Pilkington,,,,Karl Pilkington,2006,"First Edition, Forth Printing",Fourth Estate,,192,0,English,,,0,"0007240279,9780007240272",,,,,,,,,,,0,,,,,,,,14909125,epub,67a20fe10d02145273d0e5345a238bd1,,,67a20fe10d02145273d0e5345a238bd1.epub,0,2000-01-01 01:00:00,2016-04-03 02:51:08,1052000/67a20fe10d02145273d0e5345a238bd1-d.jpg,,
22341300,Microsoft Office 2010 for Windows: Visual QuickStart,,Visual QuickStart Guide,,Steve Schwartz,2010,1,Peachpit Press,,432,0,English,,,0,"0321670108,9780321670106",,,,,,,,,,,0,,,,,,,0,20823754,pdf,21cf175dfb9ef76a01fc1e134c89f5be,,,21cf175dfb9ef76a01fc1e134c89f5be.pdf,0,2000-01-01 01:00:00,2016-04-03 02:51:08,1052000/21cf175dfb9ef76a01fc1e134c89f5be-d.jpg,,
22341301,The Nature of Technology: Implications for Learning and Teaching,,,,"Michael P. Clough, Joanne K. Olson, Dale S. Niederhauser",2013,,Sense Publishers,,462,0,English,,,0,"9462092680,9789462092686",,,,,,,,,,,0,,,,,,,0,3349121,pdf,4ece06b8b778652a46e62df0efe0c7d7,,,4ece06b8b778652a46e62df0efe0c7d7.pdf,0,2000-01-01 01:00:00,2016-04-03 02:51:08,1052000/4ece06b8b778652a46e62df0efe0c7d7-d.jpg,,
22341302,Language Issues in Comparative Education: Inclusive Teaching and Learning in Non-Dominant Languages and Cultures,,,,"Carol Benson, Kimmo Kosonen",2013,,Sense Publishers,,316,0,English,,,0,"9462092176,9789462092174",,,,,,,,,,,0,,,,,,,0,3330823,pdf,169e726683f2a8c22f71d1600c23165e,,,169e726683f2a8c22f71d1600c23165e.pdf,0,2000-01-01 01:00:00,2016-04-03 02:51:08,1052000/169e726683f2a8c22f71d1600c23165e-d.jpg,,
22341303,The Definitive Guide to Customer Relationship Management,,Collection,,"V. Kumar, Richard Hammond, Herb Sorensen, Michael R. Solomon",2012,1,FT Press,,1039,0,English,,,0,",",,B00968FPDE,,,,,,,,,0,,,,,,,,5537244,epub,0c9073a0cbf920360789495a446f992f,,,0c9073a0cbf920360789495a446f992f.epub,0,2000-01-01 01:00:00,2016-04-03 02:51:08,1052000/0c9073a0cbf920360789495a446f992f-d.jpg,,
22341304,Learning What to Ignore: Connecting Multidiscipline Content and Process,,,,Conrad P. Pritscher,2012,,Sense Publishers,,152,0,English,,,0,"9462091188,9789462091184",,,,,,,,,,,0,,,,,,,0,3741357,pdf,c77f58d5d394354c89b490171876c971,,,c77f58d5d394354c89b490171876c971.pdf,0,2000-01-01 01:00:00,2016-04-03 02:51:08,1052000/c77f58d5d394354c89b490171876c971-d.jpg,,
22341305,Yin and Yang of American Culture: A Paradox,,,,Eun Y. Kim,2001,,Nicholas Brealey Publishing,,256,0,English,,,0,"1877864854,9781877864858",,,,,,,,,,,0,,,,,,,0,2602251,pdf,3024668fab6fd6a37359fe39605a5b10,,,3024668fab6fd6a37359fe39605a5b10.pdf,0,2000-01-01 01:00:00,2016-04-03 02:51:08,1052000/3024668fab6fd6a37359fe39605a5b10-d.jpg,,
22341306,Equations of Mathematical Physics,,,,A.V. Bitsadze,1980,Text is Free of Markings,Mir Publishers,,0,0,English,,,0,"0714715433,9780714715438",,,,,,,,,,,0,,,,,,,0,8994272,pdf,4c77423e4cccffa43526373218dc480d,,,4c77423e4cccffa43526373218dc480d.pdf,0,2000-01-01 01:00:00,2016-04-03 02:51:08,1052000/4c77423e4cccffa43526373218dc480d-d.jpg,,
22341307,Inside Microsoft Dynamics® AX 2009,,,,"Lars Dragheim Olsen, Michael Fruergaard Pontoppidan, Hans Jorgen Skovgaard, Tomasz Kaminski, Deepak Kumar, Satish Thomas",2009,Second Edition,Microsoft Press,,720,0,English,,,0,"0735626456,9780735626454",,,,,,,,,,,0,,,,,,,0,8614890,pdf,f454261fa69ec5f28628d039a50f0b9f,,,f454261fa69ec5f28628d039a50f0b9f.pdf,0,2000-01-01 01:00:00,2016-04-03 02:51:08,1052000/f454261fa69ec5f28628d039a50f0b9f-d.jpg,,
22341308,Chinese Multinationals,,,,"Jean-Paul Larcon, Jean-Paul Larcon",2008,,World Scientific Publishing Company,,300,0,English,,,0,"9812835598,9789812835598",,,,,,,,,,,0,,,,,,,0,3547124,pdf,898860d517eef80d008417fd13efb7c2,,,898860d517eef80d008417fd13efb7c2.pdf,0,2000-01-01 01:00:00,2016-04-03 02:51:08,1052000/898860d517eef80d008417fd13efb7c2-d.jpg,,
22341309,The Anime Paradox: Patterns and Practices Through the Lens of Traditional Japanese Theater,,,,Stevie Suan,2013,,Global Oriental,,358,0,English,,,0,"9004222146,9789004222144",,,,,,,,,,,0,,,,,,,0,9417069,pdf,bbb03831366f7bb81712d14f8bc63c32,,,bbb03831366f7bb81712d14f8bc63c32.pdf,0,2000-01-01 01:00:00,2016-04-03 02:51:08,1052000/bbb03831366f7bb81712d14f8bc63c32-d.jpg,,
22341310,Patterns-Based Engineering: Successfully Delivering Solutions via Patterns,,,,"Lee Ackerman, Celso Gonzalez",2010,1,Addison-Wesley Professional,,480,0,English,,,0,"0321574281,9780321574282",,,,,,,,,,,0,,,,,,,0,7649514,pdf,71d37c6f92ef57f21ccb67f6b5d035fb,,,71d37c6f92ef57f21ccb67f6b5d035fb.pdf,0,2000-01-01 01:00:00,2016-04-03 02:51:08,1052000/71d37c6f92ef57f21ccb67f6b5d035fb-d.jpg,,
22341311,Der Begriff der Natur in der Lehre von Marx,,,,Alfred Schmidt,1993,4. Auflage,Europäische Verlagsanstalt,Hamburg,211,0,German,195,,0,3434450114,,B008B2ORWQ,,,,,,,,,0,,,0,1,1,1,1,5450791,pdf,937f2785fe2475be4e830943bf68060a,,,Alfred_Schmidt-Der_Begriff_der_Natur_in_der_Lehre_von_Marx,0,2000-01-01 01:00:00,2016-04-03 02:51:08,1052000/937f2785fe2475be4e830943bf68060a-g.jpg,,
22341312,Baking Out Loud: Fun Desserts with Big Flavors,,,,Hedy Goldsmith,2012,,Clarkson Potter,,224,0,English,,,0,"0307951774,9780307951779",,,,,,,,,,,0,,,,,,,,21559164,epub,994a8de41b56b8725329c45558f98fb9,,,994a8de41b56b8725329c45558f98fb9.epub,0,2000-01-01 01:00:00,2016-04-03 02:51:08,1052000/994a8de41b56b8725329c45558f98fb9-d.jpg,,
22341313,Food Safety Management: A Practical Guide for the Food Industry,,,,"Yasmine Motarjemi, Huub Lelieveld",2013,1,Academic Press,,1192,0,English,,,0,"0123815045,9780123815040",,,,,,,,,,,0,,,,,,,0,36849546,pdf,2ccefb078a58825af2bfdafa29747e42,,,2ccefb078a58825af2bfdafa29747e42.pdf,0,2000-01-01 01:00:00,2016-04-03 02:51:08,1052000/2ccefb078a58825af2bfdafa29747e42-d.jpg,,
22341314,Spirits without Borders: Vietnamese Spirit Mediums in a Transnational Age,,Contemporary Anthropology of Religion,,"Karen Fjelstad, Nguyen Thi Hien",2011,,Palgrave Macmillan,,230,0,English,,,0,"0230114938,9780230114937",,,,,,,,,,,0,,,,,,,0,3172993,pdf,7da9dcfa9ee241ed111d7d6da130744e,,,7da9dcfa9ee241ed111d7d6da130744e.pdf,0,2000-01-01 01:00:00,2016-04-03 02:51:08,1052000/7da9dcfa9ee241ed111d7d6da130744e-d.jpg,,
22341315,Encyclopedia of Electronic Circuits Volume 2,,,,"Rudolf F. Graf, William Sheets",1988,1,McGraw-Hill/TAB Electronics,,755,0,English,,,0,"0830631380,9780830631384",,,,,,,,,,,0,,,,,,,0,23296452,pdf,8710051ea37e720f67ebfb4781bcc32e,,,8710051ea37e720f67ebfb4781bcc32e.pdf,0,2000-01-01 01:00:00,2016-04-03 02:51:08,1052000/8710051ea37e720f67ebfb4781bcc32e-d.jpg,,
22341316,General Theory of Irregular Curves,,Mathematics and its Applications,,"V.V. Alexandrov, Yu.G. Reshetnyak",1989,1989,Springer,,288,0,English,,,0,"9027728119,9789027728111",,,,,,,,,,,0,,,,,,,0,10858986,pdf,d0ac635151a1ef79ef70f549e16e0ea8,,,d0ac635151a1ef79ef70f549e16e0ea8.pdf,0,2000-01-01 01:00:00,2016-04-03 02:51:08,1052000/d0ac635151a1ef79ef70f549e16e0ea8-d.jpg,,
22341317,Hacking For Dummies,,,,Kevin Beaver,2013,4,For Dummies,,408,0,English,,,0,"1118380932,9781118380932",,,,,,,,,,,0,,,,,,,,9144604,epub,15c11c77ee29298ad271f0531d8d1bc2,,,15c11c77ee29298ad271f0531d8d1bc2.epub,0,2000-01-01 01:00:00,2016-04-03 02:51:08,1052000/15c11c77ee29298ad271f0531d8d1bc2-d.jpg,,
22341318,Anthology of Chess Combinations,,,,Zdenko Krnic,2005,3rd,Chess Informant,,575,0,English,,,0,"8672970535,9788672970531",,,,,,,,,,,0,,,,,,,0,94860861,pdf,9a8f15ecf1f49285119c4535bcbdbf52,,,9a8f15ecf1f49285119c4535bcbdbf52.pdf,0,2000-01-01 01:00:00,2016-04-03 02:51:08,1052000/9a8f15ecf1f49285119c4535bcbdbf52-d.jpg,,
22341319,The Third Coast: When Chicago Built the American Dream,,,,Thomas Dyja,2013,F First Printing,"Penguin Press HC, The",,544,0,English,,,0,"1594204322,9781594204326",,,,,,,,,,,0,,,,,,,,12949162,epub,ada9853b97faad7aa395a0e2497a3bd9,,,ada9853b97faad7aa395a0e2497a3bd9.epub,0,2000-01-01 01:00:00,2016-04-03 02:51:08,1052000/ada9853b97faad7aa395a0e2497a3bd9-d.jpg,,
22341320,"Microbial globins - status and opportunities, Volume 63",,Advances in Microbial Physiology,,Robert K. Poole,2013,1,Academic Press,,512,0,English,,,0,"0124076939,9780124076938",,,,,,,,,,,0,,,,,,,0,22086339,pdf,c04053c97dda2a9c64618407b9f9fc0f,,,c04053c97dda2a9c64618407b9f9fc0f.pdf,0,2000-01-01 01:00:00,2016-04-03 02:51:08,1052000/c04053c97dda2a9c64618407b9f9fc0f-d.jpg,,
22341321,Ancient Greece: From Prehistoric to Hellenistic Times,,,,Thomas R. Martin,2013,2nd,Yale University Press,,328,0,English,,,0,"0300160054,9780300160055",,,,,,,,,,,0,,,,,,,0,5232206,pdf,955ddc807f1a01b08d3f47b6779b8761,,,955ddc807f1a01b08d3f47b6779b8761.pdf,0,2000-01-01 01:00:00,2016-04-03 02:51:08,1052000/955ddc807f1a01b08d3f47b6779b8761-d.jpg,,
22341322,"Children's Discovery of the Active Mind: Phenomenological Awareness, Social Experience, and Knowledge About Cognition",,SpringerBriefs in Psychology / SpringerBriefs in Child Development,,Bradford H. Pillow,2011,2012,Springer,,85,0,English,,,0,"1461422477,9781461422471",,,,,,,,,,,0,,,,,,,0,3310793,pdf,fba4e278a70834d7bccb056f43d2d01e,,,fba4e278a70834d7bccb056f43d2d01e.pdf,0,2000-01-01 01:00:00,2016-04-03 02:51:08,1052000/fba4e278a70834d7bccb056f43d2d01e-d.jpg,,
22341323,The Book of Swords,,,,Hank Reinhardt,2009,First Edition,Baen,,256,0,English,,,0,"1439132828,9781439132821",,,,,,,,,,,0,,,,,,,,4317457,epub,7bd8f489201357bc91cf2512b6512fc0,,,7bd8f489201357bc91cf2512b6512fc0.epub,0,2000-01-01 01:00:00,2016-04-03 02:51:08,1052000/7bd8f489201357bc91cf2512b6512fc0-d.jpg,,
22341324,Wealth Doesn't Last 3 Generations: How Family Businesses Can Maintain Prosperity,,,,"Jean Lee, Hong Li",2008,,World Scientific Publishing Company,,384,0,English,,,0,"9812797513,9789812797513",,,,,,,,,,,0,,,,,,,0,3372302,pdf,e2021da557f9bbee217554fab9654ede,,,e2021da557f9bbee217554fab9654ede.pdf,0,2000-01-01 01:00:00,2016-04-03 02:51:08,1052000/e2021da557f9bbee217554fab9654ede-d.jpg,,
22341325,Lettering & Sign Carving Wookbook: 10 Skill-Building Projects for Carving and Painting Custom Signs,,,,Betty Padden,2011,,Fox Chapel Publishing,,144,0,English,,,0,"1565234529,9781565234529",,,,,,,,,,,0,,,,,,,0,35328748,pdf,e862ee4b908d69feea72a8ebf05657d2,,,e862ee4b908d69feea72a8ebf05657d2.pdf,0,2000-01-01 01:00:00,2016-04-03 02:51:08,1052000/e862ee4b908d69feea72a8ebf05657d2-d.jpg,,
22341326,A Field Guide to Lucid Dreaming: Mastering the Art of Oneironautics,,,,"Dylan Tuccillo, Jared Zeizel, Thomas Peisel",2013,,Workman Publishing Company,,288,0,English,,,0,"0761177396,9780761177395",,,,,,,,,,,0,,,,,,,,6942451,epub,932f88cea6454191ac32bcc56dca1efa,,,932f88cea6454191ac32bcc56dca1efa.epub,0,2000-01-01 01:00:00,2016-04-03 02:51:08,1052000/932f88cea6454191ac32bcc56dca1efa-d.jpg,,
22341327,Weapon: A Visual History of Arms and Armor,,,,"Roger Ford, R. G. Grant, Adrian Gilbert, Philip Parker, Richard Holmes",2010,,DK Publishing,,360,0,English,,,0,"075666540X,9780756665401",,,,,,,,,,,0,,,,,,,0,130414677,pdf,58acda1438ddc25ef773e23bde9a10d2,,,58acda1438ddc25ef773e23bde9a10d2.pdf,0,2000-01-01 01:00:00,2016-04-03 02:51:08,1052000/58acda1438ddc25ef773e23bde9a10d2-d.jpg,,
22341328,Religious Authority in the Spanish Renaissance,,The Johns Hopkins University Studies in Historical and Political Science,,Professor Lu Ann Homza,2000,,The Johns Hopkins University Press,,344,0,English,,,0,"0801862434,9780801862434",,,,,,,,,,,0,,,,,,,0,8656912,pdf,daf841890f238855d964e4e22bd87e53,,,daf841890f238855d964e4e22bd87e53.pdf,0,2000-01-01 01:00:00,2016-04-03 02:51:08,1052000/daf841890f238855d964e4e22bd87e53-d.jpg,,
22341329,Make: Electronics,,Learning by Discovery,,Charles Platt,2009,1st,Make,,352,0,English,,,0,"0596153740,9780596153748",,,,,,,,,,,0,,,,,,,,4310459,epub,d491ee01ef56e6db65974a8e85d7bed9,,,d491ee01ef56e6db65974a8e85d7bed9.epub,0,2000-01-01 01:00:00,2016-04-03 02:51:08,1052000/d491ee01ef56e6db65974a8e85d7bed9-d.jpg,,
22341330,Kindle Paperwhite For Dummies,,,,"Leslie H. Nicoll, Harvey Chute",2013,1,For Dummies,,192,0,English,,,0,"111856331X,9781118563311",,,,,,,,,,,0,,,,,,,,6221821,epub,b8d8678b05c52042a96a9c85fef89da9,,,b8d8678b05c52042a96a9c85fef89da9.epub,0,2000-01-01 01:00:00,2016-04-03 02:51:08,1052000/b8d8678b05c52042a96a9c85fef89da9-d.jpg,,
22341331,The Art and Craft of Pedagogy: Portraits of Effective Teachers,,Continuum Studies in Educational Research,,Richard Hickman,2011,1,Continuum,,192,0,English,,,0,"1847062903,9781847062901",,,,,,,,,,,0,,,,,,,0,3891572,pdf,b48bbc4edfeb31218dc379cf7748509b,,,b48bbc4edfeb31218dc379cf7748509b.pdf,0,2000-01-01 01:00:00,2016-04-03 02:51:08,1052000/b48bbc4edfeb31218dc379cf7748509b-d.jpg,,
22341332,Radiation Injury Prevention and Mitigation in Humans,,,,Kedar N. Prasad,2012,1,CRC Press,,302,0,English,,,0,"1439874247,9781439874240",,,,,,,,,,,0,,,,,,,0,4857605,pdf,3fff2f1c4d5dbb0e502137c9b9770b4f,,,3fff2f1c4d5dbb0e502137c9b9770b4f.pdf,0,2000-01-01 01:00:00,2016-04-03 02:51:08,1052000/3fff2f1c4d5dbb0e502137c9b9770b4f-d.jpg,,
22341333,"Diane Franklin:The Excellent Adventures of the Last American, French-Exchange Babe of the 80s",,,,"Diane Franklin, Michael Picarella, Savage Steve Holland",2012,,Diane Franklin,,134,0,English,,,0,"0615641369,9780615641362",,,,,,,,,,,0,,,,,,,,1726425,epub,64b092eea861397d28b1cbfa48c83ed5,,,64b092eea861397d28b1cbfa48c83ed5.epub,0,2000-01-01 01:00:00,2016-04-03 02:51:08,1052000/64b092eea861397d28b1cbfa48c83ed5-d.jpg,,
22341334,Starting At Zero: His Own Story,,,,Jimi Hendrix,2013,,Bloomsbury Publishing PLC,,256,0,English,,,0,"1408842149,9781408842140",,,,,,,,,,,0,,,,,,,,1342600,epub,443185e97a7900bd36ca34c36bdd0912,,,443185e97a7900bd36ca34c36bdd0912.epub,0,2000-01-01 01:00:00,2016-04-03 02:51:08,1052000/443185e97a7900bd36ca34c36bdd0912-d.jpg,,
22341335,"Slovenian Axis Forces in World War II, 1941-1945",,,,Antonio J. Muñoz,,,Axis Europa Books,,0,0,English,,,0,"1891227041,9781891227042",,,,,,,,,,,0,,,,,,,0,62414618,pdf,5acfc16d3ab7f1a108618ed379bdf251,,,5acfc16d3ab7f1a108618ed379bdf251.pdf,0,2000-01-01 01:00:00,2016-04-03 02:51:08,1052000/5acfc16d3ab7f1a108618ed379bdf251-d.jpg,,
22341336,Smarty PHP Template Programming And Applications,,,,"Hasin Hayder, J. P. Maia, Lucian Gheorghe",2006,,Packt Publishing,,256,0,English,87,,0,"190481140X,9781904811404",,,,,,,,,,,0,,,,,,,0,10307506,pdf,1428200137e366c019172aa5887a939c,,,1428200137e366c019172aa5887a939c.pdf,0,2000-01-01 01:00:00,2016-04-03 02:51:08,1052000/1428200137e366c019172aa5887a939c-d.jpg,,
22341337,Universal Grammar and the Second Language Classroom,,Educational Linguistics,,"Melinda Whong, Kook-Hee Gil, Heather Marsden",2013,2013,Springer,,270,0,English,,,0,"9400763611,9789400763616",,,,,,,,,,,0,,,,,,,0,3740197,pdf,27f8f13ee91969c125f1a057e733650f,,,27f8f13ee91969c125f1a057e733650f.pdf,0,2000-01-01 01:00:00,2016-04-03 02:51:08,1052000/27f8f13ee91969c125f1a057e733650f-d.jpg,,
22341338,Step-by-step Wooden Toys: Over 20 Easy-to-make Toys,,,,Roger Horwood,2007,,Struik Publishers,,96,0,English,,,0,"1770074562,9781770074569",,,,,,,,,,,0,,,,,,,0,11299111,pdf,d3df86ebdf1bba2ad139084f3f8f8fc2,,,d3df86ebdf1bba2ad139084f3f8f8fc2.pdf,0,2000-01-01 01:00:00,2016-04-03 02:51:08,1052000/d3df86ebdf1bba2ad139084f3f8f8fc2-d.jpg,,
22341339,"Power Carving Manual: Tools, Techniques, and 16 All-Time Favorite Projects",,The Best of Woodcarving Illustrated,,"Editors Of Woodcarving Illustrated, Woodcarving Magazine",2009,,Fox Chapel Publishing,,151,0,English,,,0,"1565234502,9781565234505",,,,,,,,,,,0,,,,,,,0,42328982,pdf,b49d7789e2b67b7322d8d42c7e68cf1d,,,b49d7789e2b67b7322d8d42c7e68cf1d.pdf,0,2000-01-01 01:00:00,2016-04-03 02:51:08,1052000/b49d7789e2b67b7322d8d42c7e68cf1d-d.jpg,,
22341340,"Oral and Maxillofacial Surgery in Dogs and Cats, 1e",,,,"Frank J M Verstraete DrMedVet  BVSc(Hons)  MMedVet  Dipl AVDC  Dipl ECVS  Dipl EVDC, Milinda J Lommer DVM  Dipl AVDC",2012,1,Saunders,,608,0,English,,,0,"0702046183,9780702046186",,,,,,,,,,,0,,,,,,,0,207278591,pdf,bed5c692dcf871d4a75249aa553eb955,,,bed5c692dcf871d4a75249aa553eb955.pdf,0,2000-01-01 01:00:00,2016-04-03 02:51:08,1052000/bed5c692dcf871d4a75249aa553eb955-d.jpg,,
22341341,Overcoming Historical Injustices: Land Reconciliation in South Africa,,Cambridge Studies in Public Opinion and Political Psychology,,James L. Gibson,2009,1,Cambridge University Press,,328,0,English,,,0,"0521517885,9780521517881",,,,,,,,,,,0,,,,,,,0,3436195,pdf,ecafec0958821e13324c4af9906f821b,,,ecafec0958821e13324c4af9906f821b.pdf,0,2000-01-01 01:00:00,2016-04-03 02:51:08,1052000/ecafec0958821e13324c4af9906f821b-d.jpg,,
22341342,Windows 8 eLearning Kit For Dummies,,,,Faithe Wempen,2013,1,For Dummies,,416,0,English,,,0,"1118202872,9781118202876",,,,,,,,,,,0,,,,,,,,18361423,epub,36c60800ae6f1a47f30a7a0ada5cc202,,,36c60800ae6f1a47f30a7a0ada5cc202.epub,0,2000-01-01 01:00:00,2016-04-03 02:51:08,1052000/36c60800ae6f1a47f30a7a0ada5cc202-d.jpg,,
22341343,"The Feynman Lectures on Physics, Vol. II: The New Millennium Edition: Mainly Electromagnetism and Matter",,Volume 2,,"Richard P. Feynman, Robert B. Leighton, Matthew Sands",2011,First Trade Paper Edition,Basic Books,,592,0,English,,,0,"0465024947,9780465024940",,,,,,,,,,,0,,,,,,,0,23307078,pdf,1944586716bd93cb0133f95f0b3a110a,,,1944586716bd93cb0133f95f0b3a110a.pdf,0,2000-01-01 01:00:00,2016-04-03 02:51:08,1052000/1944586716bd93cb0133f95f0b3a110a-d.jpg,,
22341344,"Switch On Your Brain: The Key to Peak Happiness, Thinking, and Health",,,,Dr. Caroline Leaf,2013,,Baker Books,,240,0,English,,,0,"0801015707,9780801015700",,,,,,,,,,,0,,,,,,,,5233768,epub,30a3b74474d3fcd7f3aed305a8500a05,,,30a3b74474d3fcd7f3aed305a8500a05.epub,0,2000-01-01 01:00:00,2016-04-03 02:51:08,1052000/30a3b74474d3fcd7f3aed305a8500a05-d.jpg,,
22341345,Intangible Natural Heritage: New Perspectives on Natural Objects,,Routledge Studies in Heritage,,Eric Dorfman,2011,,Routledge,,206,0,English,,,0,"0415884926,9780415884921",,,,,,,,,,,0,,,,,,,,18902102,epub,229f435ad0ee5595fdf18d29e20fd051,,,229f435ad0ee5595fdf18d29e20fd051.epub,0,2000-01-01 01:00:00,2016-04-03 02:51:08,1052000/229f435ad0ee5595fdf18d29e20fd051-d.jpg,,
22341346,Symptom Oriented Pain Management,,,,"D. K., M.D. Baheti, Sanjay, M.D. Bakshi, Sanjeeva Gupta, R. P., M.D. Gehdoo, Subhash Jain",2012,1,Jaypee Brothers Medical Pub,,591,0,English,,,0,"9350257971,9789350257975",,,,,,,,,,,0,,,,,,,0,133743297,pdf,1533c952d3560fb619da598a195b1a81,,,1533c952d3560fb619da598a195b1a81.pdf,0,2000-01-01 01:00:00,2016-04-03 02:51:08,1052000/1533c952d3560fb619da598a195b1a81-d.jpg,,
22341347,3ds Max Speed Modeling for 3D Artists,,,,Thomas Mooney,2012,,Packt Publishing,,422,0,English,,,0,"184969236X,9781849692366",,,,,,,,,,,0,,,,,,,0,48319346,pdf,07fa08fe7cf94660b303a244a70daef6,,,07fa08fe7cf94660b303a244a70daef6.pdf,0,2000-01-01 01:00:00,2016-04-03 02:51:08,1052000/07fa08fe7cf94660b303a244a70daef6-d.jpg,,
22341348,DK Eyewitness Books: Ecology,,,,"Brian Lane, Steve Pollock",2005,,DK CHILDREN,,72,0,English,,,0,"0756613876,9780756613877",,,,,,,,,,,0,,,,,,,0,20920147,pdf,37427b196810e35304f03e65418b8f85,,,37427b196810e35304f03e65418b8f85.pdf,0,2000-01-01 01:00:00,2016-04-03 02:51:08,1052000/37427b196810e35304f03e65418b8f85-d.jpg,,
22341349,Precalculus,,9th Edition,,Michael Sullivan,2011,9,Pearson,,1152,0,English,,,0,"0321716833,9780321716835",,,,,,,,,,,0,,,,,,,0,33134504,pdf,20f049a59e2b63f5837a9ae3616584e9,,,20f049a59e2b63f5837a9ae3616584e9.pdf,0,2000-01-01 01:00:00,2016-04-03 02:51:08,1052000/20f049a59e2b63f5837a9ae3616584e9-d.jpg,,
22341350,The Destruction of the European Jews,,Student One Volume Edition,,Raul Hilberg,1985,,Holmes & Meier,,360,0,English,,,0,"0841909105,9780841909106",,,,,,,,,,,0,,,,,,,0,129362128,pdf,68b6d156e1afe1c66a1ef9f42e9a2f5b,,,68b6d156e1afe1c66a1ef9f42e9a2f5b.pdf,0,2000-01-01 01:00:00,2016-04-03 02:51:08,1052000/68b6d156e1afe1c66a1ef9f42e9a2f5b-d.jpg,,
22341351,Being Alongside: For the Teaching and Learning of Mathematics,,,,Alf Coles,2013,,Sense Publishers,,186,0,English,,,0,"9462092117,9789462092112",,,,,,,,,,,0,,,,,,,0,3840365,pdf,523fd6e1ec3ee9b39eac0004f4e8e6a2,,,523fd6e1ec3ee9b39eac0004f4e8e6a2.pdf,0,2000-01-01 01:00:00,2016-04-03 02:51:08,1052000/523fd6e1ec3ee9b39eac0004f4e8e6a2-d.jpg,,
22341352,Master Math: Calculus,,,,Debra Anne Ross,1998,1,Cengage Learning,,352,0,English,,,0,"1564143376,9781564143372",,,,,,,,,,,0,,,,,,,0,11534129,pdf,1914693564849b28031a2ea2d4cfb63f,,,1914693564849b28031a2ea2d4cfb63f.pdf,0,2000-01-01 01:00:00,2016-04-03 02:51:08,1052000/1914693564849b28031a2ea2d4cfb63f-d.jpg,,
22341353,Here's the Story: Surviving Marcia Brady and Finding My True Voice,,,,Maureen McCormick,2008,First Edition,William Morrow,,288,0,English,,,0,"0061490148,9780061490149",,,,,,,,,,,0,,,,,,,,4361530,epub,b743064fca78408ecee3591ce2e9d25c,,,b743064fca78408ecee3591ce2e9d25c.epub,0,2000-01-01 01:00:00,2016-04-03 02:51:08,1052000/b743064fca78408ecee3591ce2e9d25c-d.jpg,,
22341354,Variation-Aware Adaptive Voltage Scaling for Digital CMOS Circuits,,Springer Series in Advanced Microelectronics,,Martin Wirnshofer,2013,2013,Springer,,120,0,English,,,0,"9400761953,9789400761957",,,,,,,,,,,0,,,,,,,0,3312089,pdf,45c49a6174b520ac32cec0274ab05bee,,,45c49a6174b520ac32cec0274ab05bee.pdf,0,2000-01-01 01:00:00,2016-04-03 02:51:08,1052000/45c49a6174b520ac32cec0274ab05bee-d.jpg,,
22341355,Meditations of John Muir:  Nature's Temple,,,,Chris Highland,2001,1st,Wilderness Press,,168,0,English,,,0,"0899972853,9780899972855",,,,,,,,,,,0,,,,,,,,3142784,epub,37a81b1a276cb46c9945c32b345134c7,,,37a81b1a276cb46c9945c32b345134c7.epub,0,2000-01-01 01:00:00,2016-04-03 02:51:08,1052000/37a81b1a276cb46c9945c32b345134c7-d.jpg,,
22341356,Wildlife Carving in Relief: Carving Techniques and Patterns,,,,Lora S Irish,2009,"2nd Revised, Expanded ed.",Fox Chapel Publishing,,175,0,English,,,0,"1565234480,9781565234482",,,,,,,,,,,0,,,,,,,0,44309107,pdf,de715e3c881833d87b766e18ed1ae7ed,,,de715e3c881833d87b766e18ed1ae7ed.pdf,0,2000-01-01 01:00:00,2016-04-03 02:51:08,1052000/de715e3c881833d87b766e18ed1ae7ed-d.jpg,,
22341357,"BabyCakes: Vegan,",,"Mostly) Gluten-Free, and (Mostly",,Erin McKenna,2009,First Edition,Clarkson Potter,,144,0,English,,,0,"0307408833,9780307408839",,,,,,,,,,,0,,,,,,,,18611182,epub,4fd25a67c35b312d476dec6f7ae93045,,,4fd25a67c35b312d476dec6f7ae93045.epub,0,2000-01-01 01:00:00,2016-04-03 02:51:08,1052000/4fd25a67c35b312d476dec6f7ae93045-d.jpg,,
22341358,The Introvert's Way: Living a Quiet Life in a Noisy World,,,,Sophia Dembling,2012,,Perigee Trade,,208,0,English,,,0,"0399537694,9780399537691",,,,,,,,,,,0,,,,,,,,3512563,epub,e7a7a9d97b93777a093625b5e936eee8,,,e7a7a9d97b93777a093625b5e936eee8.epub,0,2000-01-01 01:00:00,2016-04-03 02:51:08,1052000/e7a7a9d97b93777a093625b5e936eee8-d.jpg,,
22341359,"WordPress for Business Bloggers: Promote and grow your WordPress blog with advanced plug-ins, analytics, advertising, and SEO",,,,Paul Thewlis,2008,Paul Thewlis(Author),Packt Publishing,,356,0,English,70,,0,"1847195326,9781847195326",,,,,,,,,,,0,,,,,,,0,8796090,pdf,991915593830e4e76ae44c9b31e644ed,,,991915593830e4e76ae44c9b31e644ed.pdf,0,2000-01-01 01:00:00,2016-04-03 02:51:08,1052000/991915593830e4e76ae44c9b31e644ed-d.jpg,,
22341360,Personal Finance For Seniors For Dummies,,,,"Eric Tyson, Robert C. Carlson",2010,1,John Wiley & Sons,,456,0,English,,,0,"0470548762,9780470548769",,,,,,,,,,,0,,,,,,,,2478936,mobi,5e00d76315e56a9f315f6fcdacde1c51,,,5e00d76315e56a9f315f6fcdacde1c51.mobi,0,2000-01-01 01:00:00,2016-04-03 02:51:08,1052000/5e00d76315e56a9f315f6fcdacde1c51-d.jpg,,
22341361,The WrestleCrap Book of Lists!,,WrestleCrap series,,"R. D. Reynolds, Blade Braxton",2007,,ECW Press,,300,0,English,,,0,"1550227629,9781550227628",,,,,,,,,,,0,,,,,,,,4779428,epub,89f3f36a11ef44180871013ac321f823,,,89f3f36a11ef44180871013ac321f823.epub,0,2000-01-01 01:00:00,2016-04-03 02:51:08,1052000/89f3f36a11ef44180871013ac321f823-d.jpg,,
22341362,"Encyclopedia of Chess Combinations, 4th Ed.",,,,Alexander Matanovich,2013,,Chess Informant,,660,0,English,,,0,"8672970659,9788672970654",,,,,,,,,,,0,,,,,,,0,11277432,pdf,401af6462f08436cdb9d397705728a28,,,401af6462f08436cdb9d397705728a28.pdf,0,2000-01-01 01:00:00,2016-04-03 02:51:08,1052000/401af6462f08436cdb9d397705728a28-d.jpg,,
22341363,Capitalism at the Crossroads: Next Generation Business Strategies for a Post-Crisis World,,3rd Edition,,Stuart L. Hart,2010,3,Pearson Prentice Hall,,352,0,English,,,0,"0137042329,9780137042326",,,,,,,,,,,0,,,,,,,0,5179204,pdf,3f9a81eaa4079fb1e6ac80714eeed041,,,3f9a81eaa4079fb1e6ac80714eeed041.pdf,0,2000-01-01 01:00:00,2016-04-03 02:51:08,1052000/3f9a81eaa4079fb1e6ac80714eeed041-d.jpg,,
22341364,Kennedy's Last Days: The Assassination That Defined a Generation,,,,Bill O'Reilly,2013,,Henry Holt & Co.,,336,0,English,,,0,"080509802X,9780805098020",,B00BQMMT82,,,,,,,,,0,,,,,,,,8295486,mobi,fc7e8dbd8827c54842f2eacfb88e66d4,,,fc7e8dbd8827c54842f2eacfb88e66d4.mobi,0,2000-01-01 01:00:00,2016-04-03 02:51:08,1052000/fc7e8dbd8827c54842f2eacfb88e66d4-d.jpg,,
22341365,"Diane Franklin:The Excellent Adventures of the Last American, French-Exchange Babe of the 80s",,,,"Diane Franklin, Michael Picarella, Savage Steve Holland",2012,,Diane Franklin,,134,0,English,,,0,"0615641369,9780615641362",,,,,,,,,,,0,,,,,,,,1832067,mobi,474306b0927bbd9d76c5a390fe38d43e,,,474306b0927bbd9d76c5a390fe38d43e.mobi,0,2000-01-01 01:00:00,2016-04-03 02:51:08,1052000/474306b0927bbd9d76c5a390fe38d43e-d.jpg,,
22341366,iPad in Education For Dummies,,,,Sam Gliksman,2013,1,For Dummies,,416,0,English,,,0,"1118375386,9781118375389",,,,,,,,,,,0,,,,,,,,44581020,epub,e18b0544c6a84d1c9947134094e9fb43,,,e18b0544c6a84d1c9947134094e9fb43.epub,0,2000-01-01 01:00:00,2016-04-03 02:51:08,1052000/e18b0544c6a84d1c9947134094e9fb43-d.jpg,,
22341367,The Dark Night of the Soul: A Psychiatrist Explores the Connection Between Darkness and Spiritual Growth,,,,Gerald G. May,2005,Reprint,HarperOne,,224,0,English,,,0,"0060750553,9780060750558",,,,,,,,,,,0,,,,,,,0,3444497,pdf,23002be58f19de4aa42ac7a40eec9908,,,23002be58f19de4aa42ac7a40eec9908.pdf,0,2000-01-01 01:00:00,2016-04-03 02:51:08,1052000/23002be58f19de4aa42ac7a40eec9908-d.jpg,,
22341368,Yin and Yang of American Culture: A Paradox,,,,Eun Y. Kim,2001,,Nicholas Brealey Publishing,,256,0,English,,,0,"1877864854,9781877864858",,,,,,,,,,,0,,,,,,,,321295,mobi,cc9ebd5200b0561edd012b83fde48efc,,,cc9ebd5200b0561edd012b83fde48efc.mobi,0,2000-01-01 01:00:00,2016-04-03 02:51:08,1052000/cc9ebd5200b0561edd012b83fde48efc-d.jpg,,
22341369,Harrison's Manual of Medicine: 16th Edition,,,,"Dennis Kasper, Eugene Braunwald, Anthony Fauci, Stephen Hauser, Dan Longo, J. Jameson",2005,16,McGraw-Hill Professional,,1016,0,English,,,0,"0071444416,9780071444415",,,,,,,,,,,0,,,,,,,0,10585183,pdf,6e1dd16b21a94b06f66dbfe7974879d4,,,6e1dd16b21a94b06f66dbfe7974879d4.pdf,0,2000-01-01 01:00:00,2016-04-03 02:51:08,1052000/6e1dd16b21a94b06f66dbfe7974879d4-d.jpg,,
22341370,Miss Anne in Harlem: The White Women of the Black Renaissance,,,,Carla Kaplan,2013,,Harper,,544,0,English,,,0,"0060882387,9780060882389",,,,,,,,,,,0,,,,,,,,9917942,epub,ae2583baa2b475b43d1d9a7e4800cb7d,,,ae2583baa2b475b43d1d9a7e4800cb7d.epub,0,2000-01-01 01:00:00,2016-04-03 02:51:08,1052000/ae2583baa2b475b43d1d9a7e4800cb7d-d.jpg,,
22341371,Kennedy's Last Days: The Assassination That Defined a Generation,,,,Bill O'Reilly,2013,,Henry Holt & Co.,,336,0,English,,,0,"080509802X,9780805098020",,B00BQMMT82,,,,,,,,,0,,,,,,,,7456130,epub,090b62de336c06635da73614fc2b7f14,,,090b62de336c06635da73614fc2b7f14.epub,0,2000-01-01 01:00:00,2016-04-03 02:51:08,1052000/090b62de336c06635da73614fc2b7f14-d.jpg,,
22341372,Songs & Music of the Redcoats: A History of the War Music of the British Army 1642-1902,,,,Lewis S Winstock,1970,,Stackpole Books,,298,0,English,,,0,"0811715752,9780811715751",,,,,,,,,,,0,,,,,,,0,95567997,pdf,a3a28e1f54468bf1422d0a07c7b36a7d,,,a3a28e1f54468bf1422d0a07c7b36a7d.pdf,0,2000-01-01 01:00:00,2016-04-03 02:51:08,1052000/a3a28e1f54468bf1422d0a07c7b36a7d-d.jpg,,
22341373,Children's Book of Art,,,,DK,2009,,DK CHILDREN,,144,0,English,,,0,"0756655110,9780756655112",,,,,,,,,,,0,,,,,,,0,113297654,pdf,b01386cdbc857f95b4cd61345401aa62,,,b01386cdbc857f95b4cd61345401aa62.pdf,0,2000-01-01 01:00:00,2016-04-03 02:51:08,1052000/b01386cdbc857f95b4cd61345401aa62-d.jpg,,
22341374,La langue étrusque : une nouvelle approche,,,,Jean Faucounau,2010,,L'Harmattan,,124,0,French,,,0,"2296124984,9782296124981",,,,,,,,,,"missing p. 57, front matter",0,,0,,0,1,0,0,7221293,pdf,d0206a3619f7aa4414c658b86f970965,,,La langue étrusque,0,2000-01-01 01:00:00,2016-04-03 02:51:08,1052000/d0206a3619f7aa4414c658b86f970965-d.jpg,,
22341375,"Applied Group Theory for Chemists, Physicists and Engineers",,,,Allen Nussbaum,1971,,Prentice-Hall,,200,0,,,,0,0130408328,,,,,,,,,,,0,,,,,,,0,49112087,pdf,6d4276f0a54f05ed29eaa200e72fb2cf,,,"Applied Group Theory for Chemists, Physicists and Engineers. A. Nussbaum.",0,2000-01-01 01:00:00,2016-04-03 02:51:08,1052000/6d4276f0a54f05ed29eaa200e72fb2cf-g.jpg,,
22341376,From the Arthouse to the Grindhouse: Highbrow and Lowbrow Transgression in Cinema's First Century,,,,"John Cline, Robert G. Weiner",2010,,Scarecrow Press,,362,0,English,,,0,"081087654X,9780810876545",,,,,,,,,,,0,,,,,,,1,1411147,pdf,de0aa5b5f10afae6c786683690934af0,,,From.the.Arthouse.to.the.Grindhouse,0,2000-01-01 01:00:00,2016-04-03 02:51:08,1052000/de0aa5b5f10afae6c786683690934af0-d.jpg,,
22341377,Body and Cosmology in Kashmir Saivism,,Distinguished Dissertations,,Gavin D. Flood,1993,,Edwin Mellen Pr,,464,0,English,,,0,"0773499741,9780773499744",,,,,,,,,,,0,,,,,,,1,9675536,pdf,717bbfb10a504a038238d684bbb630db,,,Gavin D. Flood - Body and Cosmology in Kashmir Shaivism,0,2000-01-01 01:00:00,2016-04-03 02:51:08,1052000/717bbfb10a504a038238d684bbb630db-d.jpg,,
22341378,"Nightmare, USA: The Untold Story of the Exploitation Independents",,,,Stephen Thrower,2007,,FAB Press,,527,0,English,,,0,"1903254469,9781903254462",,,,,,,,,,,0,,,,,,,0,63047607,pdf,637259853a39d53889387b667cbd1676,,,Nightmare_USA,0,2000-01-01 01:00:00,2016-04-03 02:51:08,1052000/637259853a39d53889387b667cbd1676-d.jpg,,
22341379,Imperial College Inaugural Lectures in Materials Science and Materials Engineering,,,,"Don W. Pashley, Don W. Pashley",2001,,World Scientific Publishing Company,,150,0,English,,,0,"1860941060,9781860941061",,,,,,,,,,,0,,,,,,,0,18819564,pdf,3442ce3d1d8ebb8cff8cf521f561d7a8,,,3442ce3d1d8ebb8cff8cf521f561d7a8.pdf,0,2000-01-01 01:00:00,2016-04-03 02:51:08,1052000/3442ce3d1d8ebb8cff8cf521f561d7a8-d.jpg,,
22341380,Representations of Compact Lie Groups,,Graduate Texts in Mathematics,,"Theodor Brocker, Tammo Tom Dieck",1985,Corr. 2nd print,Springer-Verlag,,313,0,English,,,0,"0387136789,9780387136783",,,,,,,,,,,0,,,,,,,0,19980985,pdf,c42cf3a6874e4d6d4911717fbd109144,,,c42cf3a6874e4d6d4911717fbd109144.pdf,0,2000-01-01 01:00:00,2016-04-03 02:51:08,1052000/c42cf3a6874e4d6d4911717fbd109144-d.jpg,,
22341381,Windows® 7 Inside Out,,,,"Ed Bott, Carl Siechert, Craig Stinson",2009,Pap/Cdr,Microsoft Press,,1056,0,English,,,0,"0735626650,9780735626652",,,,,,,,,,,0,,,,,,,0,35374590,pdf,50565199d339e3f2f3942cb318073d68,,,50565199d339e3f2f3942cb318073d68.pdf,0,2000-01-01 01:00:00,2016-04-03 02:51:08,1052000/50565199d339e3f2f3942cb318073d68-d.jpg,,
22341382,Excel 2013 For Dummies,,,,Greg Harvey,2013,1,For Dummies,,408,0,English,,,0,"1118510127,9781118510124",,,,,,,,,,,0,,,,,,,,12138461,epub,462969fb2bb210f84a28d1723f3a8267,,,462969fb2bb210f84a28d1723f3a8267.epub,0,2000-01-01 01:00:00,2016-04-03 02:51:08,1052000/462969fb2bb210f84a28d1723f3a8267-d.jpg,,
22341383,Excel 2013 For Dummies,,,,Greg Harvey,2013,1,For Dummies,,408,0,English,,,0,"1118510127,9781118510124",,,,,,,,,,,0,,,,,,,0,17293520,pdf,949cdcc0885952c4956983838204ec53,,,949cdcc0885952c4956983838204ec53.pdf,0,2000-01-01 01:00:00,2016-04-03 02:51:08,1052000/949cdcc0885952c4956983838204ec53-d.jpg,,
22341384,iPhone 5 All-in-One For Dummies,,,,"Joe Hutsko, Barbara Boyd",2013,2,For Dummies,,544,0,English,,,0,"1118407946,9781118407943",,,,,,,,,,,0,,,,,,,,69746682,epub,e35bfc08a80a487e240b6e34a3cb8f16,,,e35bfc08a80a487e240b6e34a3cb8f16.epub,0,2000-01-01 01:00:00,2016-04-03 02:51:08,1052000/e35bfc08a80a487e240b6e34a3cb8f16-d.jpg,,
22341385,Mudras of India: A Comprehensive Guide to the Hand Gestures of Yoga and Indian Dance,,,,Cain Carroll,2013,Updated Edition,Singing Dragon,,336,0,English,,,0,"184819109X,9781848191099",,,,,,,,,,,0,,,,,,,,4489274,epub,b63baed5ccf3e4472a6031481648e5bd,,,b63baed5ccf3e4472a6031481648e5bd.epub,0,2000-01-01 01:00:00,2016-04-03 02:51:08,1052000/b63baed5ccf3e4472a6031481648e5bd-d.jpg,,
22341386,How the Scots Invented the Modern World: The True Story of How Western Europe's Poorest Nation Created Our World and Everything in It,,,,Arthur Herman,2001,1,Crown,,400,0,English,,,0,"0609606352,9780609606353",,,,,,,,,,,0,,,,,,,,2219190,epub,78dab3ffbf4100af8e23eaacc530317a,,,78dab3ffbf4100af8e23eaacc530317a.epub,0,2000-01-01 01:00:00,2016-04-03 02:51:08,1052000/78dab3ffbf4100af8e23eaacc530317a-d.jpg,,
22341387,Advances in Accounting Education: Teaching and Curriculum Innovations,,Advances in Accounting Education Teaching and Curriculum Innovations,,"Dorothy Feldman, Dorothy Feldman, Anthony H. Catanach",2010,,Emerald Group Publishing Limited,,282,0,English,,,0,"0857242911,9780857242914",,,,,,,,,,,0,,,,,,,0,3186533,pdf,43940c513a0895501675f9800c380450,,,43940c513a0895501675f9800c380450.pdf,0,2000-01-01 01:00:00,2016-04-03 02:51:08,1052000/43940c513a0895501675f9800c380450-d.jpg,,
22341388,"Modern Chess Openings, 14th Edition",,Mckay Chess Library,,Nick De Firmian,1999,14 Rev Sub,Crown,,752,0,English,,,0,"0812930835,9780812930832",,,,,,,,,,,0,,,,,,,0,19210846,pdf,5b854c76c24c7f67cb3051e385acaa26,,,5b854c76c24c7f67cb3051e385acaa26.pdf,0,2000-01-01 01:00:00,2016-04-03 02:51:08,1052000/5b854c76c24c7f67cb3051e385acaa26-d.jpg,,
22341389,Engineering Design,,Engineering Series,,"George Dieter, Linda Schmidt",2008,4,McGraw-Hill Science/Engineering/Math,,864,0,English,,,0,"0072837039,9780072837032",,,,,,,,,,,0,,,,,,,0,14268149,pdf,767c22c045d53b10c537b1b689db8a0b,,,767c22c045d53b10c537b1b689db8a0b.pdf,0,2000-01-01 01:00:00,2016-04-03 02:51:08,1052000/767c22c045d53b10c537b1b689db8a0b-d.jpg,,
22341390,"Education for Tomorrow: A Biocentric, Student-Focused Model for Reconstructing Education",,,,"Michael Risku, Letitia Harding",2012,,Sense Publishers,,228,0,English,,,0,"9462091560,9789462091566",,,,,,,,,,,0,,,,,,,0,3157687,pdf,bc8627abf605f4f2bb382e96992f180b,,,bc8627abf605f4f2bb382e96992f180b.pdf,0,2000-01-01 01:00:00,2016-04-03 02:51:08,1052000/bc8627abf605f4f2bb382e96992f180b-d.jpg,,
22341391,"Making Miss India Miss World: Constructing Gender, Power, and the Nation in Postliberalization India",,Gender and Globalization,,Susan Dewey,2008,,Syracuse Univ Pr (Sd),,245,0,English,,,0,"0815631766,9780815631767",,,,,,,,,,,0,,,,,,,0,3428443,pdf,d5ea99ee1f82f44729632949961425d4,,,d5ea99ee1f82f44729632949961425d4.pdf,0,2000-01-01 01:00:00,2016-04-03 02:51:08,1052000/d5ea99ee1f82f44729632949961425d4-d.jpg,,
22341392,"It's Not What You Sign, It's How You Sign It: Politeness in American Sign Language",,,,Jack Hoza,2007,1st,Gallaudet University Press,,248,0,English,,,0,"1563683520,9781563683527",,,,,,,,,,,0,,,,,,,0,3209224,pdf,a034865f8467af6262df3655df647908,,,a034865f8467af6262df3655df647908.pdf,0,2000-01-01 01:00:00,2016-04-03 02:51:08,1052000/a034865f8467af6262df3655df647908-d.jpg,,
22341393,Basic Russian: A Grammar and Workbook,,Grammar Workbooks,,"Sarah Smyth, John Murray",1999,Workbook,Routledge,,256,0,English,,,0,"0415183170,9780415183178",,,,,,,,,,,0,,,,,,,0,3327918,pdf,f987fada7ba1a3ad8fac50d18f3812dc,,,f987fada7ba1a3ad8fac50d18f3812dc.pdf,0,2000-01-01 01:00:00,2016-04-03 02:51:08,1052000/f987fada7ba1a3ad8fac50d18f3812dc-d.jpg,,
22341394,Teacher Professional Development for Improving Quality of Teaching,,,,"Bert Creemers, Leonidas Kyriakides, Panayiotis Antoniou",2012,2013,Springer,,250,0,English,,,0,"9400752067,9789400752061",,,,,,,,,,,0,,,,,,,0,4161404,pdf,b7630493f1313bde94455930cfd71487,,,b7630493f1313bde94455930cfd71487.pdf,0,2000-01-01 01:00:00,2016-04-03 02:51:08,1052000/b7630493f1313bde94455930cfd71487-d.jpg,,
22341395,"Cargo Theft, Loss Prevention, and Supply Chain Security",,,,Dan Burges,2012,1,Butterworth-Heinemann,,392,0,English,,,0,"0124160077,9780124160071",,,,,,,,,,,0,,,,,,,,3708701,epub,b3bb1ced3ef5476ef39f2222b53bc07e,,,b3bb1ced3ef5476ef39f2222b53bc07e.epub,0,2000-01-01 01:00:00,2016-04-03 02:51:08,1052000/b3bb1ced3ef5476ef39f2222b53bc07e-d.jpg,,
22341396,Rabid: Are You Crazy About Your Dog or Just Crazy?,,,,Pamela Redmond Satran,2012,1,Bloomsbury USA,,176,0,English,,,0,"1608198375,9781608198375",,,,,,,,,,,0,,,,,,,,30860051,epub,b70a61929444c6299aa2edeb1a526843,,,b70a61929444c6299aa2edeb1a526843.epub,0,2000-01-01 01:00:00,2016-04-03 02:51:08,1052000/b70a61929444c6299aa2edeb1a526843-d.jpg,,
22341397,Sway: The Irresistible Pull of Irrational Behavior,,,,"Ori Brafman, Rom Brafman",2008,1,Crown Business,,224,0,English,,,0,"0385524382,9780385524384",,,,,,,,,,,0,,,,,,,,3460398,epub,7e8761326311e69d31f9e1482fa7849a,,,7e8761326311e69d31f9e1482fa7849a.epub,0,2000-01-01 01:00:00,2016-04-03 02:51:08,1052000/7e8761326311e69d31f9e1482fa7849a-d.jpg,,
22341398,Introduction to Machine Learning,,Adaptive Computation and Machine Learning series,,Ethem Alpaydin,2009,second edition,The MIT Press,,584,0,English,,,0,"026201243X,9780262012430",,,,,,,,,,,0,,,,,,,0,3610050,pdf,c10a0207a60fc80a97413dea54da4777,,,c10a0207a60fc80a97413dea54da4777.pdf,0,2000-01-01 01:00:00,2016-04-03 02:51:08,1052000/c10a0207a60fc80a97413dea54da4777-d.jpg,,
22341399,"Galois Theory, Third Edition",,Chapman Hall/CRC Mathematics Series,,Ian Stewart,2003,3,Chapman and Hall/CRC,,328,0,English,,,0,"1584883936,9781584883937",,,,,,,,,,,0,,,,,,,0,23726164,pdf,f6fa2f1d2c17aee28a4ea0791c30cef8,,,f6fa2f1d2c17aee28a4ea0791c30cef8.pdf,0,2000-01-01 01:00:00,2016-04-03 02:51:08,1052000/f6fa2f1d2c17aee28a4ea0791c30cef8-d.jpg,,
22341400,iPhone 5 All-in-One For Dummies,,,,"Joe Hutsko, Barbara Boyd",2013,2,For Dummies,,544,0,English,,,0,"1118407946,9781118407943",,,,,,,,,,,0,,,,,,,0,71232629,pdf,8903c4892ca7735049b00ed1f5181b19,,,8903c4892ca7735049b00ed1f5181b19.pdf,0,2000-01-01 01:00:00,2016-04-03 02:51:08,1052000/8903c4892ca7735049b00ed1f5181b19-d.jpg,,
22341401,Blind Descent: The Quest to Discover the Deepest Place on Earth,,,,James M. Tabor,2010,First Edition,Random House,,304,0,English,,,0,"1400067677,9781400067671",,,,,,,,,,,0,,,,,,,,1299032,epub,72d743442906024ad1f228487562c3c8,,,72d743442906024ad1f228487562c3c8.epub,0,2000-01-01 01:00:00,2016-04-03 02:51:08,1052000/72d743442906024ad1f228487562c3c8-d.jpg,,
22341402,Mathematics for Economics and Business,,5th Edition,,Ian Jacques,2006,5,Prentice Hall,,696,0,English,,,0,"0273701959,9780273701958",,,,,,,,,,,0,,,,,,,0,18646126,pdf,8b211656e1459e291371c1eac7022910,,,8b211656e1459e291371c1eac7022910.pdf,0,2000-01-01 01:00:00,2016-04-03 02:51:08,1052000/8b211656e1459e291371c1eac7022910-d.jpg,,
22341403,iOS 6 Application Development For Dummies,,,,"Neal Goldstein, Dave Wilson",2013,1,For Dummies,,576,0,English,,,0,"1118508807,9781118508800",,,,,,,,,,,0,,,,,,,,37733872,epub,0508d2e549b43761849c9370f7bc4914,,,0508d2e549b43761849c9370f7bc4914.epub,0,2000-01-01 01:00:00,2016-04-03 02:51:08,1052000/0508d2e549b43761849c9370f7bc4914-d.jpg,,
22341404,The Design of RijndaeL: AES - The Advanced Encryption Standard,,Information Security and Cryptography,,"Joan Daemen, Vincent Rijmen",2002,2002,Springer,,255,0,English,,,0,"3540425802,9783540425809",,,,,,,,,,,0,,,,,,,0,4284548,pdf,aeb46f876a1c05c33a855e8f16762a78,,,aeb46f876a1c05c33a855e8f16762a78.pdf,0,2000-01-01 01:00:00,2016-04-03 02:51:08,1052000/aeb46f876a1c05c33a855e8f16762a78-d.jpg,,
22341405,Thinking Physics: Practical Lessons in Critical Thinking,,,,Lewis Carroll Epstein,2002,2nd,Insight Press,,561,0,English,,,0,"0935218068,9780935218060",,,,,,,,,,,0,,,,,,,0,24461221,pdf,906ce22ec2c5ce9b018f36960f2a11dd,,,906ce22ec2c5ce9b018f36960f2a11dd.pdf,0,2000-01-01 01:00:00,2016-04-03 02:51:08,1052000/906ce22ec2c5ce9b018f36960f2a11dd-d.jpg,,
22341406,"Devoted: 38 Extraordinary Tales of Love, Loyalty, and Life With Dogs",,,,Rebecca Ascher-Walsh,2013,,National Geographic,,160,0,English,,,0,"1426211589,9781426211584",,,,,,,,,,,0,,,,,,,,19701281,epub,d3d35958c9d995bf8c0af0e774affc2e,,,d3d35958c9d995bf8c0af0e774affc2e.epub,0,2000-01-01 01:00:00,2016-04-03 02:51:08,1052000/d3d35958c9d995bf8c0af0e774affc2e-d.jpg,,
22341407,The Two-Income Trap: Why Middle-Class Parents are Going Broke,,,,"Elizabeth Warren, Amelia Warren Tyagi",2004,Reprint,Basic Books,,255,0,English,,,0,"0465090907,9780465090907",,,,,,,,,,,0,,,,,,,,2577334,epub,83e924f0ebc36da48c1c9d602ae37a05,,,83e924f0ebc36da48c1c9d602ae37a05.epub,0,2000-01-01 01:00:00,2016-04-03 02:51:08,1052000/83e924f0ebc36da48c1c9d602ae37a05-d.jpg,,
22341408,"The Four Levels of Healing: A Guide to Balancing the Spiritual, Mental, Emotional, and Physical Aspects of Life",,"Gawain, Shakti",,Shakti Gawain,1999,First Trade Paper Edition,New World Library,,128,0,English,,,0,"1577310993,9781577310990",,,,,,,,,,,0,,,,,,,0,3411047,pdf,b87576b2190da0ced53e200a224e23d6,,,b87576b2190da0ced53e200a224e23d6.pdf,0,2000-01-01 01:00:00,2016-04-03 02:51:08,1052000/b87576b2190da0ced53e200a224e23d6-d.jpg,,
22341409,"Gravitation, Electromagnetism and Cosmology : Toward a New Synthesis",,,,Konrad Rudnicki,2001,,Apeiron,,177,0,English,,,0,"0968368964,9780968368961",,,,,,,,,,,0,,,,,,,0,4064234,pdf,8ebfaadb20569cd672fc6faae7bc5a16,,,8ebfaadb20569cd672fc6faae7bc5a16.pdf,0,2000-01-01 01:00:00,2016-04-03 02:51:08,1052000/8ebfaadb20569cd672fc6faae7bc5a16-d.jpg,,
22341410,End Procrastination Now!: Get it Done with a Proven Psychological Approach,,,,"Ed.D., William Knaus",2010,1,McGraw-Hill,,256,0,English,,,0,"0071666087,9780071666084",,,,,,,,,,,0,,,,,,,0,3273891,pdf,6537cba0e23d8130957c2e31e99e9f63,,,6537cba0e23d8130957c2e31e99e9f63.pdf,0,2000-01-01 01:00:00,2016-04-03 02:51:08,1052000/6537cba0e23d8130957c2e31e99e9f63-d.jpg,,
22341411,The Halakhah of Jesus of Nazareth according to the Gospel of Matthew,,Studies in Biblical Literature,,Phillip Sigal,2007,,Society of Biblical Literature,,292,0,English,,,0,"1589832825,9781589832824",,,,,,,,,,,0,,,,,,,0,3356456,pdf,a18e819d5fdb40898ee408c7bf6b22dd,,,a18e819d5fdb40898ee408c7bf6b22dd.pdf,0,2000-01-01 01:00:00,2016-04-03 02:51:08,1052000/a18e819d5fdb40898ee408c7bf6b22dd-d.jpg,,
22341412,Spelling It Like It Is,,,,Tori Spelling,2013,,Gallery Books,,320,0,English,,,0,"1451628595,9781451628593",,,,,,,,,,,0,,,,,,,,3255454,mobi,9d857a0bba9a5642f9abc48ee247f6e5,,,9d857a0bba9a5642f9abc48ee247f6e5.mobi,0,2000-01-01 01:00:00,2016-04-03 02:51:08,1052000/9d857a0bba9a5642f9abc48ee247f6e5-d.jpg,,
22341413,The Last Hero: A Life of Henry Aaron,,,,Howard Bryant,2010,1,Pantheon,,624,0,English,,,0,"0375424857,9780375424854",,,,,,,,,,,0,,,,,,,,2075270,epub,d7469e75ecb79941161fd59c2768208b,,,d7469e75ecb79941161fd59c2768208b.epub,0,2000-01-01 01:00:00,2016-04-03 02:51:08,1052000/d7469e75ecb79941161fd59c2768208b-d.jpg,,
22341414,Spelling It Like It Is,,,,Tori Spelling,2013,,Gallery Books,,320,0,English,,,0,"1451628595,9781451628593",,,,,,,,,,,0,,,,,,,,3153291,epub,a2e3a19af12209312b2a9c283457cf3b,,,a2e3a19af12209312b2a9c283457cf3b.epub,0,2000-01-01 01:00:00,2016-04-03 02:51:08,1052000/a2e3a19af12209312b2a9c283457cf3b-d.jpg,,
22341415,Web Design All-in-One For Dummies,,,,Sue Jenkins,2013,2,For Dummies,,688,0,English,,,0,"1118404106,9781118404102",,,,,,,,,,,0,,,,,,,,25198274,epub,38f2c74f5fae35bab3a2322d10ccbc1d,,,38f2c74f5fae35bab3a2322d10ccbc1d.epub,0,2000-01-01 01:00:00,2016-04-03 02:51:08,1052000/38f2c74f5fae35bab3a2322d10ccbc1d-d.jpg,,
22341416,The Outfit,,,,Gus Russo,2003,,Bloomsbury USA,,496,0,English,,,0,"1582342792,9781582342795",,,,,,,,,,,0,,,,,,,,3865133,mobi,0b0ab33844de32337213b6273e2f67a1,,,0b0ab33844de32337213b6273e2f67a1.mobi,0,2000-01-01 01:00:00,2016-04-03 02:51:08,1052000/0b0ab33844de32337213b6273e2f67a1-d.jpg,,
22341417,Essentials of Mathematical Methods in Science and Engineering,,,,S. Selcuk Bayin,2008,1,Wiley-Interscience,,802,0,English,,,0,"0470343796,9780470343791",,,,,,,,,,,0,,,,,,,0,24154922,pdf,4e99fa75872677f33ec1bf9ec2103e0c,,,4e99fa75872677f33ec1bf9ec2103e0c.pdf,0,2000-01-01 01:00:00,2016-04-03 02:51:08,1052000/4e99fa75872677f33ec1bf9ec2103e0c-d.jpg,,
22341418,Pedagogies for the Future: Leading Quality Learning and Teaching in Higher Education,,,,"Robyn Brandenburg, Jacqueline Z. Wilson",2013,,Sense Publishers,,156,0,English,,,0,"9462092761,9789462092761",,,,,,,,,,,0,,,,,,,0,3358274,pdf,c4a95af2c7f9a8f5df08c6df461e3da5,,,c4a95af2c7f9a8f5df08c6df461e3da5.pdf,0,2000-01-01 01:00:00,2016-04-03 02:51:08,1052000/c4a95af2c7f9a8f5df08c6df461e3da5-d.jpg,,
22341419,Modern Masters Volume 2: George Perez,,,,"Eric Nolen-Weathington, George Perez, George Perez",2007,First Printing,TwoMorrows Publishing,,128,0,English,,,0,"189390525X,9781893905252",,,,,,,,,,,0,,,,,,,0,68363009,pdf,2ad1c85c2a0e63ea257c9b933ef1eb89,,,2ad1c85c2a0e63ea257c9b933ef1eb89.pdf,0,2000-01-01 01:00:00,2016-04-03 02:51:08,1052000/2ad1c85c2a0e63ea257c9b933ef1eb89-d.jpg,,
22341420,Introductory Phonology,,,,Bruce Hayes,2008,1,Wiley-Blackwell,,336,0,English,,,0,"1405184116,9781405184113",,,,,,,,,,,0,,,,,,,0,3582428,pdf,d8d178a04e4bd6119602631b8272cdcf,,,d8d178a04e4bd6119602631b8272cdcf.pdf,0,2000-01-01 01:00:00,2016-04-03 02:51:08,1052000/d8d178a04e4bd6119602631b8272cdcf-d.jpg,,
22341421,iPad mini For Dummies,,,,"Edward C. Baig, Bob LeVitus",2012,1,For Dummies,,384,0,English,,,0,"1118583876,9781118583876",,,,,,,,,,,0,,,,,,,0,56193623,pdf,ec1a4a5bada2323ec789871eeba109f8,,,ec1a4a5bada2323ec789871eeba109f8.pdf,0,2000-01-01 01:00:00,2016-04-03 02:51:08,1052000/ec1a4a5bada2323ec789871eeba109f8-d.jpg,,
22341422,Professional JavaScript for Web Developers,,,,Nicholas C. Zakas,2009,2,Wrox,,840,0,English,92,,0,"047022780X,9780470227800",,,,,,,,,,,0,,,,,,,0,5498612,pdf,a651ece1a54d358bad58ae4f655ed701,,,a651ece1a54d358bad58ae4f655ed701.pdf,0,2000-01-01 01:00:00,2016-04-03 02:51:08,1052000/a651ece1a54d358bad58ae4f655ed701-d.jpg,,
22341423,Physical Geology : Earth Revealed,,,,Plummer Carlson,2008,Twelfth Edition,McGraw Hill,,0,0,English,,,0,"0073050938,9780073050935",,,,,,,,,,,0,,,,,,,0,127704958,pdf,a930e79dcb18e8bb75a4640d817c493a,,,a930e79dcb18e8bb75a4640d817c493a.pdf,0,2000-01-01 01:00:00,2016-04-03 02:51:08,1052000/a930e79dcb18e8bb75a4640d817c493a-d.jpg,,
22341424,Confronting Metaphor in Use: An applied linguistic approach,,Pragmatics and Beyond New Series,,"Mara Sophia Zanotto, Lynne Cameron, Marilda C. Cavalcanti",2008,173,John Benjamins Publishing Company,,315,0,English,,,0,"9027254176,9789027254177",,,,,,,,,,,0,,,,,,,0,3212356,pdf,15c1886d5b8e6ebb57ca38cae89c5443,,,15c1886d5b8e6ebb57ca38cae89c5443.pdf,0,2000-01-01 01:00:00,2016-04-03 02:51:08,1052000/15c1886d5b8e6ebb57ca38cae89c5443-d.jpg,,
22341425,Gaza in Crisis: Reflections on Israel's War Against the Palestinians,,,,"Noam Chomsky, Ilan Pappe, Frank Barat",2010,,Haymarket Books,,240,0,English,,,0,"1608460975,9781608460977",,,,,,,,,,,0,,,,,,,,714323,mobi,f64cac8fd29c9d22bd47739761280275,,,f64cac8fd29c9d22bd47739761280275.mobi,0,2000-01-01 01:00:00,2016-04-03 02:51:08,1052000/f64cac8fd29c9d22bd47739761280275-d.jpg,,
22341426,TRENCHLESS TECHNOLOGY PIPING : INSTALLATION AND INSPECTION,,,,Mohammad Najafi,2010,1,McGraw-Hill Professional,,480,0,English,,,0,",",,B003TQM9WE,,,,,,,,,0,,,,,,,0,9186842,pdf,6aa7b501604a915a8e8caff9c982a834,,,6aa7b501604a915a8e8caff9c982a834.pdf,0,2000-01-01 01:00:00,2016-04-03 02:51:08,1052000/6aa7b501604a915a8e8caff9c982a834-d.jpg,,
22341427,What We Really Value: Beyond Rubrics in Teaching and Assessing Writing,,,,Bob Broad,2003,1,Utah State University Press,,180,0,English,,,0,"0874215536,9780874215533",,,,,,,,,,,0,,,,,,,0,3964502,pdf,5c6c4723ca57f7e935bd4455498b585e,,,5c6c4723ca57f7e935bd4455498b585e.pdf,0,2000-01-01 01:00:00,2016-04-03 02:51:08,1052000/5c6c4723ca57f7e935bd4455498b585e-d.jpg,,
22341428,Wrox's Visual Basic 2005 Express Edition Starter Kit,,Programmer to Programmer,,Andrew Parsons,2006,,Wrox,,384,0,English,,,0,"0764595733,9780764595738",,,,,,,,,,,0,,,,,,,0,10779398,pdf,aa5eed0c28bb136dab19fb10232ad0a8,,,aa5eed0c28bb136dab19fb10232ad0a8.pdf,0,2000-01-01 01:00:00,2016-04-03 02:51:08,1052000/aa5eed0c28bb136dab19fb10232ad0a8-d.jpg,,
22341429,"Thinking: The New Science of Decision-Making, Problem-Solving, and Prediction",,,,John Brockman,2013,,Harper Perennial,,432,0,English,,,0,"0062258540,9780062258540",,,,,,,,,,,0,,,,,,,,3444870,epub,e2b1fde329d991da12f16c44a6b8f85f,,,e2b1fde329d991da12f16c44a6b8f85f.epub,0,2000-01-01 01:00:00,2016-04-03 02:51:08,1052000/e2b1fde329d991da12f16c44a6b8f85f-d.jpg,,
22341430,Force: Character Design from Life Drawing,,,,Mike Mattesi,2008,1,Focal Press,,256,0,English,,,0,"0240809939,9780240809939",,,,,,,,,,,0,,,,,,,0,27502400,pdf,4bfa825962fb365da840e178ffc28b52,,,4bfa825962fb365da840e178ffc28b52.pdf,0,2000-01-01 01:00:00,2016-04-03 02:51:08,1052000/4bfa825962fb365da840e178ffc28b52-d.jpg,,
22341431,"Graph-Theoretic Concepts in Computer Science: 37th International Workshop, WG 2011, Teplá Monastery, Czech Republic, June 21-24, 2011, Revised Papers ... Computer Science and General Issues)",,,,"Petr Kolman, Jan Kratochvíl",2011,2011,Springer,,350,0,English,,,0,"9783642258695,9783642258695",,,,,,,,,,,0,,,,,,,0,4205809,pdf,915ee08b1bf7f233eb0f8f9eeb3dc994,,,915ee08b1bf7f233eb0f8f9eeb3dc994.pdf,0,2000-01-01 01:00:00,2016-04-03 02:51:08,1052000/915ee08b1bf7f233eb0f8f9eeb3dc994-d.jpg,,
22341432,Arctic Voices: Resistance at the Tipping Point,,,,Subhankar Banerjee,2012,First Edition,Seven Stories Press,,560,0,English,,,0,"160980385X,9781609803858",,,,,,,,,,,0,,,,,,,,14864471,epub,b12c16892a6eea39143e70b16339392b,,,b12c16892a6eea39143e70b16339392b.epub,0,2000-01-01 01:00:00,2016-04-03 02:51:08,1052000/b12c16892a6eea39143e70b16339392b-d.jpg,,
22341433,TRENCHLESS TECHNOLOGY PIPING : INSTALLATION AND INSPECTION,,,,Mohammad Najafi,2010,1,McGraw-Hill Professional,,480,0,English,,,0,",",,B003TQM9WE,,,,,,,,,0,,,,,,,0,7433911,pdf,2c65243ffe28a2f3f6fef14d97ab6046,,,2c65243ffe28a2f3f6fef14d97ab6046.pdf,0,2000-01-01 01:00:00,2016-04-03 02:51:08,1052000/2c65243ffe28a2f3f6fef14d97ab6046-d.jpg,,
22341434,Working with Female Offenders: A Gender Sensitive Approach,,,,Katherine van Wormer,2010,1,Wiley,,320,0,English,,,0,"0470581530,9780470581537",,,,,,,,,,,0,,,,,,,0,3441849,pdf,974de839926dc8fb25c3aecc5cf51742,,,974de839926dc8fb25c3aecc5cf51742.pdf,0,2000-01-01 01:00:00,2016-04-03 02:51:08,1052000/974de839926dc8fb25c3aecc5cf51742-d.jpg,,
22341435,Gaza in Crisis: Reflections on Israel's War Against the Palestinians,,,,"Noam Chomsky, Ilan Pappe, Frank Barat",2010,,Haymarket Books,,240,0,English,,,0,"1608460975,9781608460977",,,,,,,,,,,0,,,,,,,0,2185774,pdf,9511d58a8e990dd8b6e13a26e397e150,,,9511d58a8e990dd8b6e13a26e397e150.pdf,0,2000-01-01 01:00:00,2016-04-03 02:51:08,1052000/9511d58a8e990dd8b6e13a26e397e150-d.jpg,,
22341436,Selecting Injection Molds,,,,"Herbert Rees, Bruce Catoen",2006,1,Hanser Gardner Publications,,230,0,English,,,0,"1569903891,9781569903896",,,,,,,,,,,0,,,,,,,0,21175815,pdf,a33c0bcb0e5b14502a4663a78e09a283,,,a33c0bcb0e5b14502a4663a78e09a283.pdf,0,2000-01-01 01:00:00,2016-04-03 02:51:08,1052000/a33c0bcb0e5b14502a4663a78e09a283-d.jpg,,
22341437,Talk to the Mirror: Feel Great About Yourself Each and Every Day,,,,"Florine Mark, Maria Scott",2004,1,Wiley,,256,0,English,,,0,"0471630853,9780471630852",,,,,,,,,,,0,,,,,,,0,3293993,pdf,4f921b999687e89bf1e4ba8ae4144393,,,4f921b999687e89bf1e4ba8ae4144393.pdf,0,2000-01-01 01:00:00,2016-04-03 02:51:08,1052000/4f921b999687e89bf1e4ba8ae4144393-d.jpg,,
22341438,Critical Pedagogy for Early Childhood and Elementary Educators,,,,"Lois Christensen, Jerry Aldridge",2012,2013,Springer,,250,0,English,,,0,"9400753942,9789400753945",,,,,,,,,,,0,,,,,,,0,3576920,pdf,259997adc1d8d32dec7c493055087ccf,,,259997adc1d8d32dec7c493055087ccf.pdf,0,2000-01-01 01:00:00,2016-04-03 02:51:08,1052000/259997adc1d8d32dec7c493055087ccf-d.jpg,,
22341439,Windows® Small Business Server 2008 Administrator's Companion,,Pro - Administrator's Companion,,"Charlie Russel, Sharon Crawford",2009,Har/Com,Microsoft Press,,720,0,English,,,0,"0735620709,9780735620704",,,,,,,,,,,0,,,,,,,0,36322354,pdf,2398eb82f9b0e07df0eb4ad7d497e71a,,,2398eb82f9b0e07df0eb4ad7d497e71a.pdf,0,2000-01-01 01:00:00,2016-04-03 02:51:08,1052000/2398eb82f9b0e07df0eb4ad7d497e71a-d.jpg,,
22341440,Small Bites: Mindfulness for Everyday Use,,,,Annabelle Zinser,2013,,Parallax Press,,176,0,English,,,0,"1937006247,9781937006242",,,,,,,,,,,0,,,,,,,,3207329,epub,36671479c283240d50daeda45d64b14a,,,36671479c283240d50daeda45d64b14a.epub,0,2000-01-01 01:00:00,2016-04-03 02:51:08,1052000/36671479c283240d50daeda45d64b14a-d.jpg,,
22341441,Spain and the World Table,,,,"Martha Rose Shulman, Culinary Institute of America",2008,First Edition,DK Publishing,,272,0,English,,,0,"0756633877,9780756633875",,,,,,,,,,,0,,,,,,,0,27522736,pdf,cae8e3dc423707122d70fc76b20fb816,,,cae8e3dc423707122d70fc76b20fb816.pdf,0,2000-01-01 01:00:00,2016-04-03 02:51:08,1052000/cae8e3dc423707122d70fc76b20fb816-d.jpg,,
22341442,Longman English Grammar Practice: Self-study Edition with Key,,Grammar Reference,,L. G. Alexander,1990,,Longman,,304,0,English,,,0,"0582045002,9780582045002",,,,,,,,,,,0,,,,,,,0,6411817,pdf,4ebcae7f504c526ee0b9d32902169d7d,,,4ebcae7f504c526ee0b9d32902169d7d.pdf,0,2000-01-01 01:00:00,2016-04-03 02:51:08,1052000/4ebcae7f504c526ee0b9d32902169d7d-d.jpg,,
22341443,Chess Tactics for Champions: A step-by-step guide to using tactics and combinations the Polgar way,,,,"Susan Polgar, Paul Truong",2006,,Random House Puzzles & Games,,368,0,English,,,0,"081293671X,9780812936711",,,,,,,,,,,0,,,,,,,0,14257380,pdf,d32d99b6f73631841eb343e4e1e6be4f,,,d32d99b6f73631841eb343e4e1e6be4f.pdf,0,2000-01-01 01:00:00,2016-04-03 02:51:08,1052000/d32d99b6f73631841eb343e4e1e6be4f-d.jpg,,
22341444,Gaza in Crisis: Reflections on Israel's War Against the Palestinians,,,,"Noam Chomsky, Ilan Pappe, Frank Barat",2010,,Haymarket Books,,240,0,English,,,0,"1608460975,9781608460977",,,,,,,,,,,0,,,,,,,,395718,epub,b5d97d8dac493df2517c084d7a2eb59a,,,b5d97d8dac493df2517c084d7a2eb59a.epub,0,2000-01-01 01:00:00,2016-04-03 02:51:08,1052000/b5d97d8dac493df2517c084d7a2eb59a-d.jpg,,
22341445,Web Design All-in-One For Dummies,,,,Sue Jenkins,2013,2,For Dummies,,688,0,English,,,0,"1118404106,9781118404102",,,,,,,,,,,0,,,,,,,0,53046577,pdf,b7999d6f41c4904c26351eb3236cac02,,,b7999d6f41c4904c26351eb3236cac02.pdf,0,2000-01-01 01:00:00,2016-04-03 02:51:08,1052000/b7999d6f41c4904c26351eb3236cac02-d.jpg,,
22341446,iPad mini For Dummies,,,,"Edward C. Baig, Bob LeVitus",2012,1,For Dummies,,384,0,English,,,0,"1118583876,9781118583876",,,,,,,,,,,0,,,,,,,,47110359,epub,7434e099e48a59549f0d79d006029c38,,,7434e099e48a59549f0d79d006029c38.epub,0,2000-01-01 01:00:00,2016-04-03 02:51:08,1052000/7434e099e48a59549f0d79d006029c38-d.jpg,,
22341447,Professional SQL Server Analysis Services 2005 with MDX,,,,"Sivakumar Harinath, Stephen R. Quinn",2006,,Wrox,,864,0,English,76,,0,"0764579185,9780764579189",,,,,,,,,,,0,,,,,,,,49937722,epub,bc751ce137d532601b995389d22aaf03,,,bc751ce137d532601b995389d22aaf03.epub,0,2000-01-01 01:00:00,2016-04-03 02:51:08,1052000/bc751ce137d532601b995389d22aaf03-d.jpg,,
22341448,Elementary and Middle School Mathematics: Teaching Developmentally,,7th Edition,,"John Van de Walle, Karen S. Karp, Jennifer M. Bay-Williams",2009,7,Pearson,,576,0,English,,,0,"0205573525,9780205573523",,,,,,,,,,,0,,,,,,,0,14001275,pdf,1d2203dc949d2ad1688e62a62471e2b2,,,1d2203dc949d2ad1688e62a62471e2b2.pdf,0,2000-01-01 01:00:00,2016-04-03 02:51:08,1052000/1d2203dc949d2ad1688e62a62471e2b2-d.jpg,,
22341449,How to Make Injection Molds,,,,"G. Menges, Georg Menges, Menges",2001,3,Hanser Gardner Publications,,632,0,English,,,0,"1569902828,9781569902820",,,,,,,,,,,0,,,,,,,0,31467953,pdf,c8576a8eb900aceb1171af25dda77adc,,,c8576a8eb900aceb1171af25dda77adc.pdf,0,2000-01-01 01:00:00,2016-04-03 02:51:08,1052000/c8576a8eb900aceb1171af25dda77adc-d.jpg,,
22341450,Career Match: Connecting Who You Are with What You'll Love to Do,,,,"Shoya Zichy, Ann Bidou",2007,,AMACOM,,256,0,English,,,0,"0814473644,9780814473641",,,,,,,,,,,0,,,,,,,,4426233,epub,5a7e11498d389429f77621ba9db30112,,,5a7e11498d389429f77621ba9db30112.epub,0,2000-01-01 01:00:00,2016-04-03 02:51:08,1052000/5a7e11498d389429f77621ba9db30112-d.jpg,,
22341451,Citizen Machiavelli,,,,Mark Hulliung,1984,,Princeton Univ Pr,,320,0,English,195,,0,"0691076618,9780691076614",,,,,,,,,,,0,,,,,,,1,12142173,pdf,d97f436f7ee8dd0e73da3aaa61dee680,,,Mark Hulliung Citizen Machiavelli  1983 r,0,2000-01-01 01:00:00,2016-04-03 02:51:08,1052000/d97f436f7ee8dd0e73da3aaa61dee680-g.jpg,,
22341452,,,Progress in Chemical Toxicology 5,,A Stolman,1975,,"Academic Press Inc.,U.S.",,1-389,0,English,,,0,"0125365055,978-0-12-536505-5",0079-6158,,,,,,,,,,0,,,,,,,1,17045259,pdf,64ad1cac204085189107a87351e1a9d7,,,"Progress in Chemical Toxicology, Volume 5",0,2000-01-01 01:00:00,2016-04-03 02:51:08,1052000/64ad1cac204085189107a87351e1a9d7-g.jpg,,
22341453,,,Progress in Chemical Toxicology 4,,Abraham Stolman,1969,,Academic Press,,428,0,English,,,0,"0125365047,9780125365048",0079-6158,,,,,,,,,,0,,,,,,,1,19123761,pdf,3c6abfb0f5190db86c35604411c92d75,,,"Progress in Chemical Toxicology, Volume 4",0,2000-01-01 01:00:00,2016-04-03 02:51:08,1052000/3c6abfb0f5190db86c35604411c92d75-d.jpg,,
22341454,"Metabolic Diseases of Ruminants, An Issue of Veterinary Clinics: Food Animal Practice",,The Clinics: Veterinary Medicine,,Thomas Herdt DVM  MS,2013,1,Elsevier,,0,0,English,,,0,"1455776165,9781455776160",,,,,,,,,,,0,,,,,,,1,4318694,pdf,1a3e682f7a007260612760bc73738b26,,,"Metabolic Diseases of Ruminants, An Issue of Veterinary Clinics ",0,2000-01-01 01:00:00,2016-04-03 02:51:08,1052000/1a3e682f7a007260612760bc73738b26-d.jpg,,
22341455,Malnutrition and the eye,,,,Donald Stewart McLaren,1963,,Academic Press,,390,0,English,,,0,,,,,,,63016967,,ue4tAAAAIAAJ,,,0,,,,,,,1,35573114,pdf,89a2fe882e65556b6fe5d20bb9f82c53,,,Malnutrition and the Eye,0,2000-01-01 01:00:00,2016-04-03 02:51:08,1052000/89a2fe882e65556b6fe5d20bb9f82c53-d.png,,
22341456,Molecular Cell Pathology,,International Review of Experimental Pathology 32,,"G. W. Richter, Kim Solez",1991,,Academic Press,,285,0,English,,,0,"0123649323,9780123649324",1365-2613,,,,,,,,,,0,,,,,,,1,33941285,pdf,f2c47e3b86f9a195851206eb943e9c1f,,,"International Review of Experimental Pathology, Volume 32",0,2000-01-01 01:00:00,2016-04-03 02:51:08,1052000/f2c47e3b86f9a195851206eb943e9c1f-g.jpg,,
22341457,Intelligent Systems and Decision Making for Risk Analysis and Crisis Response: Proceedings of the 4th International Conference on Risk Analysis and ... Science and Engineering - Proceedings),,,,"Chongfu Huang, Cengiz Kahraman",2013,,CRC Press,,966,0,English,,,0,"1138000191,9781138000193",,,,,,,,,,,0,,,,,,,1,74775979,pdf,728de40aefc0c5110931badcc2d968f5,,,Intelligent Systems and Decision Making for Risk Analysis and Crisis Response,0,2000-01-01 01:00:00,2016-04-03 02:51:08,1052000/728de40aefc0c5110931badcc2d968f5-d.jpg,,
22341458,"Equine Clinical Medicine, Surgery and Reproduction",,,,"Graham Munroe, Scott Weese",2011,1,CRC Press,,1056,0,English,,,0,"1840761199,9781840761191",,,,,,,,,,,0,,,,,,,1,81592401,pdf,b3979dec81405f5966cfdd6b8d2922a1,,,"Equine Clinical Medicine, Surgery and Reproduction",0,2000-01-01 01:00:00,2016-04-03 02:51:08,1052000/b3979dec81405f5966cfdd6b8d2922a1-d.jpg,,
22341459,Nonlinear Dynamics and Chaos in Agricultural Systems,,Developments in Agricultural Engineering Volume 12,,K. Sakai,2001,1,Elsevier Science,,220,0,English,,,0,"0444506462,9780444506467",0167-4137,,,,,,,,,,0,,,,,,,1,11076860,pdf,2945fe01f427a15f17e4d0671cf5170d,,,"Developments in Agricultural Engineering, Volume 12",0,2000-01-01 01:00:00,2016-04-03 02:51:08,1052000/2945fe01f427a15f17e4d0671cf5170d-d.jpg,,
22341460,"Encyclopedia of Human Nutrition, Third Edition",,,,"Lindsay H Allen, Andrew Prentice, Benjamin Caballero",2013,3,Academic Press,,2190,0,English,,,0,"0123750830,9780123750839",,,,,,,,,,,0,,,,,,,1,48839434,pdf,8ee9f80f19bdf240fb88c9cb0628c0b1,,,"Encyclopedia of Human Nutrition, 3d Edition",0,2000-01-01 01:00:00,2016-04-03 02:51:08,1052000/8ee9f80f19bdf240fb88c9cb0628c0b1-d.jpg,,
22341461,"Clinical Medicine of the Dog and Cat, Second Edition",,,,Michael Schaer,2009,2,CRC Press,,760,0,English,,,0,"1840761113,9781840761115",,,,,,,,,,,0,,,,,,,0,26193250,pdf,0196580c3a1fbd4e6e1aaa8a91176756,,,"Clinical Medicine of the Dog and Cat, 2nd Edition",0,2000-01-01 01:00:00,2016-04-03 02:51:08,1052000/0196580c3a1fbd4e6e1aaa8a91176756-d.jpg,,
22341462,,,Current topics in experimental endocrinology. Vol.2,,"edited by V.H.T. James, L. Martini.",1974.,,Academic Press,New York ; London,0,0,English,,,0,"012153202X,9780121532024",0091-7397,,,,,,,,,,0,,,,,,,1,13258256,pdf,5f71bdf4e3e5025b08c8e8fbae6ca6b4,,,"Current Topics in Experimental Endocrinology, Volume 2",0,2000-01-01 01:00:00,2016-04-03 02:51:08,1052000/5f71bdf4e3e5025b08c8e8fbae6ca6b4-g.jpg,,
22341463,מודרניות נזילה,Liquid Modernity,,,זיגמונט באומן,2007,,י\ל מאגנס," האוניברסיטה העברית""",ירושלים,197,0,Hebrew,194,,0,,,,,,,,,,,,0,,,,,1,0,1,8537028,pdf,6adc03db4728057c90ab2ecbdc9a28dc,,,באומן - מודרניות נזילה,0,2000-01-01 01:00:00,2016-04-03 02:51:08,1052000/6adc03db4728057c90ab2ecbdc9a28dc-d.jpg,
22341464,Painting with Pastels: Easy Techniques to Master the Medium,,,,Maggie Price,2007,,North Light Bks,,128,0,English,41,,0,"1581808194,9781581808193",,,,,,,,,,,0,,,,,,,,16943917,epub,99dcbc52e511af967fed4d03c35b0fb8,,,painting_with_pastels_maggie_price,0,2000-01-01 01:00:00,2016-04-03 02:51:08,1052000/99dcbc52e511af967fed4d03c35b0fb8-d.jpg,,
22341465,Mathématiques Terminales Es Enseignements Spécifique Et De Spécialité,,,,"Lydia Misset, Claudine Merdy, Michèle Le Bras, Denis Ravaille",2012,,Hachette Éducation,,217,0,Français,113,,0,"2011355850,9782011355850",,,,,,,,,,,0,,,,,,,1,33440013,pdf,692dd67e306747cca6919c4cbc96d079,,,SSS.MathematiquesTermEsEnseignements.SSS,0,2000-01-01 01:00:00,2016-04-03 02:51:08,1052000/692dd67e306747cca6919c4cbc96d079-d.jpg,,
22341466,Unbreakable: My New Autobiography,,,,Sharon Osbourne,2013,,Sphere,,320,0,English,,,0,"1847443052,9781847443052",,,,,,,,,,,0,,,,,,,,3005868,mobi,a27e669676023adcbe35c434e68ab5d6,,,a27e669676023adcbe35c434e68ab5d6.mobi,0,2000-01-01 01:00:00,2016-04-03 02:51:08,1052000/a27e669676023adcbe35c434e68ab5d6-d.jpg,,
22341467,Unbreakable: My New Autobiography,,,,Sharon Osbourne,2013,,Sphere,,320,0,English,,,0,"1847443052,9781847443052",,,,,,,,,,,0,,,,,,,,2914194,epub,a18d5f0d44d67c946ea77f1acfdeb60a,,,a18d5f0d44d67c946ea77f1acfdeb60a.epub,0,2000-01-01 01:00:00,2016-04-03 02:51:08,1052000/a18d5f0d44d67c946ea77f1acfdeb60a-d.jpg,,
22341468,"Number Theory: Sailing on the Sea of Number Theory Proceedings of the 4th China-Japan Seminar, Weihai, China 30 August - 3 September 2006",,Series on Number Theory and Its Applications,,"S. Kanemitsu, J-y Liu",2007,,World Scientific Pub Co Inc,,245,0,English,,,0,"9812708103,9789812708106",,,,,,,,,,,0,,,,,,,0,3285584,pdf,ec144befa5b8a43dd624c7e452076313,,,ec144befa5b8a43dd624c7e452076313.pdf,0,2000-01-01 01:00:00,2016-04-03 02:51:08,1052000/ec144befa5b8a43dd624c7e452076313-d.jpg,,
22341469,Introduction to Non-linear Algebra,,,,"V. Dolotin, A Morozov",2007,,World Scientific Publishing Company,,288,0,English,,,0,"9812708006,9789812708007",,,,,,,,,,,0,,,,,,,0,4081250,pdf,dd5876fb2d3ee9b8385e1ffb72d022a2,,,dd5876fb2d3ee9b8385e1ffb72d022a2.pdf,0,2000-01-01 01:00:00,2016-04-03 02:51:08,1052000/dd5876fb2d3ee9b8385e1ffb72d022a2-d.jpg,,
22341470,Science Fiction: A Very Short Introduction,,,,David Seed,2011,,Oxford University Press,,144,0,English,,,0,"0199557454,9780199557455",,,,,,,,,,,0,,,,,,,0,3286954,pdf,4a7444f3ec4fb68a603e034bed7cbdb4,,,4a7444f3ec4fb68a603e034bed7cbdb4.pdf,0,2000-01-01 01:00:00,2016-04-03 02:51:08,1052000/4a7444f3ec4fb68a603e034bed7cbdb4-d.jpg,,
22341471,Extraordinary Measures: Disability in Music,,,,Joseph N. Straus,2011,1,"Oxford University Press, USA",,224,0,English,,,0,"0199766460,9780199766468",,,,,,,,,,,0,,,,,,,0,3221275,pdf,a5d7770030b29c9eef4cc83692ba0de9,,,a5d7770030b29c9eef4cc83692ba0de9.pdf,0,2000-01-01 01:00:00,2016-04-03 02:51:08,1052000/a5d7770030b29c9eef4cc83692ba0de9-d.jpg,,
22341472,"Privacy, Property and Personality: Civil Law Perspectives on Commercial Appropriation",,Cambridge Intellectual Property and Information Law,,"Huw Beverley-Smith, Ansgar Ohly, Agnes Lucas-Schloetter",2006,,Cambridge University Press,,284,0,English,,,0,"0521820804,9780521820806",,,,,,,,,,,0,,,,,,,0,3254831,pdf,d38b0f084b8e51f2d3e8f111018ae1e3,,,d38b0f084b8e51f2d3e8f111018ae1e3.pdf,0,2000-01-01 01:00:00,2016-04-03 02:51:08,1052000/d38b0f084b8e51f2d3e8f111018ae1e3-d.jpg,,
22341473,Advanced Topics in the Arithmetic of Elliptic Curves,,Graduate Texts in Mathematics,,Joseph H. Silverman,1999,,Springer,,528,0,English,,,0,"0387943285,9780387943282",,,,,,,,,,,0,,,,,,,0,52533222,pdf,6df600b0452d1e4c7dc24781e2d035f1,,,6df600b0452d1e4c7dc24781e2d035f1.pdf,0,2000-01-01 01:00:00,2016-04-03 02:51:08,1052000/6df600b0452d1e4c7dc24781e2d035f1-d.jpg,,
22341474,Extraordinary Dreams and How to Work with Them,,Suny Series in Dream Studies,,"Stanley Krippner, Fariba Bogzaran, Andre Percia de Carvalho",2001,,State University of New York Press,,212,0,English,,,0,"0791452581,9780791452585",,,,,,,,,,,0,,,,,,,0,4101481,pdf,d59f35c4748623f6ad83666221fe9e70,,,d59f35c4748623f6ad83666221fe9e70.pdf,0,2000-01-01 01:00:00,2016-04-03 02:51:08,1052000/d59f35c4748623f6ad83666221fe9e70-d.jpg,,
22341475,How Good Is Your Chess?,,,,Larry Evans,2004,2nd,Cardoza,,144,0,English,,,0,"1580421261,9781580421263",,,,,,,,,,,0,,,,,,,0,1577160,djvu,d5be18fd64c889848ba8cdb6cc340766,,,d5be18fd64c889848ba8cdb6cc340766.djvu,0,2000-01-01 01:00:00,2016-04-03 02:51:08,1052000/d5be18fd64c889848ba8cdb6cc340766-d.jpg,,
22341476,How Good People Make Tough Choices: Resolving the Dilemmas of Ethical Living,,,,Rushworth M. Kidder,2003,,Harper Paperbacks,,240,0,English,,,0,"0688175902,9780688175900",,,,,,,,,,,0,,,,,,,0,3234342,pdf,95c869b5304b7321fb69c1c5690c9c14,,,95c869b5304b7321fb69c1c5690c9c14.pdf,0,2000-01-01 01:00:00,2016-04-03 02:51:08,1052000/95c869b5304b7321fb69c1c5690c9c14-d.jpg,,
22341477,Digital SLR Video and Filmmaking For Dummies,,For Dummies (Computer/Tech),,John Carucci,2013,1,For Dummies,,416,0,English,,,0,"1118365984,9781118365984",,,,,,,,,,,0,,,,,,,0,52994364,pdf,178b789007bc3b5bda44adc6b4df79a5,,,178b789007bc3b5bda44adc6b4df79a5.pdf,0,2000-01-01 01:00:00,2016-04-03 02:51:08,1052000/178b789007bc3b5bda44adc6b4df79a5-d.jpg,,
22341478,Macs For Dummies,,,,Edward C. Baig,2013,12th Edition,John Wiley & Sons,,456,0,English,,,0,"1118517199,9781118517192",,,,,,,,,,,0,,,,,,,,30553851,epub,5413dffdb7192635b584f9bc27d94f7c,,,5413dffdb7192635b584f9bc27d94f7c.epub,0,2000-01-01 01:00:00,2016-04-03 02:51:08,1052000/5413dffdb7192635b584f9bc27d94f7c-d.jpg,,
22341479,M10 and M36 Tank Destroyers 1942-53,,New Vanguard,,"Steven Zaloga, Peter Sarson",2002,,Osprey Publishing,,48,0,English,,,0,"1841764698,9781841764696",,,,,,,,,,,0,,,,,,,0,40417084,pdf,98282ecae9555a43793a4b551fd225e5,,,98282ecae9555a43793a4b551fd225e5.pdf,0,2000-01-01 01:00:00,2016-04-03 02:51:08,1052000/98282ecae9555a43793a4b551fd225e5-d.jpg,,
22341480,Topological Library: Part 1: Cobordisms and Their Applications,,Series on Knots and Everything,,"S. P. Novikov, I A Taimanov, S. P. Novikov, I. A. Taimanov",2007,1,World Scientific Publishing Company,,388,0,English,,,0,"9812705597,9789812705594",,,,,,,,,,,0,,,,,,,0,3328154,pdf,617287a6af81eaef99cff08d7fd0cf35,,,617287a6af81eaef99cff08d7fd0cf35.pdf,0,2000-01-01 01:00:00,2016-04-03 02:51:08,1052000/617287a6af81eaef99cff08d7fd0cf35-d.jpg,,
22341481,Skidboot 'The Smartest Dog In The World',,,,"Cathy Luchetti, Joel Carpenter, Guillermo Machado",2013,1,Naretev,,326,0,English,,,0,"0989417700,9780989417709",,,,,,,,,,,0,,,,,,,,3274583,epub,842663a94b3d6b43405ac9d10c5cab5f,,,842663a94b3d6b43405ac9d10c5cab5f.epub,0,2000-01-01 01:00:00,2016-04-03 02:51:08,1052000/842663a94b3d6b43405ac9d10c5cab5f-d.jpg,,
22341482,How Everything Works: Making Physics Out of the Ordinary,,,,Louis A. Bloomfield,2007,1,Wiley,,736,0,English,,,0,"0470170662,9780470170663",,,,,,,,,,,0,,,,,,,,2029905,epub,1458679797bdc03bc881df2833bab6c8,,,1458679797bdc03bc881df2833bab6c8.epub,0,2000-01-01 01:00:00,2016-04-03 02:51:08,1052000/1458679797bdc03bc881df2833bab6c8-d.jpg,,
22341483,Evaluating Measurement Accuracy: A Practical Approach,,,,Semyon G Rabinovich,2013,2nd ed. 2013,Springer,,260,0,English,,,0,"1461467160,9781461467168",,,,,,,,,,,0,,,,,,,0,3766848,pdf,1567bb1294738a3ac94bf4b651f90921,,,1567bb1294738a3ac94bf4b651f90921.pdf,0,2000-01-01 01:00:00,2016-04-03 02:51:08,1052000/1567bb1294738a3ac94bf4b651f90921-d.jpg,,
22341484,"The Jewelled Kitchen: A Stunning Collection of Lebanese, Moroccan and Persian Recipes",,,,Bethany Kehdy,2013,,Watkins Publishing LTD,,224,0,English,,,0,"1848990626,9781848990623",,,,,,,,,,,0,,,,,,,,8877820,epub,38112ee8e29e1566c72f34f917ae41e4,,,"Jewelled Kitchen_ A stunning collection of Lebaneoroccan and Persian recipes, The - Kehdy, Bethany",0,2000-01-01 01:00:00,2016-04-03 02:51:08,1052000/38112ee8e29e1566c72f34f917ae41e4-d.jpg,,
22341485,Macs For Dummies,,,,Edward C. Baig,2013,12,For Dummies,,456,0,English,,,0,"1118517199,9781118517192",,,,,,,,,,,0,,,,,,,0,40591919,pdf,d64ea3ed7db5f5e3f318292b3f84adb6,,,d64ea3ed7db5f5e3f318292b3f84adb6.pdf,0,2000-01-01 01:00:00,2016-04-03 02:51:08,1052000/d64ea3ed7db5f5e3f318292b3f84adb6-d.jpg,,
22341486,Extraordinary Learning in the Workplace,,Innovation and Change in Professional Education,,Janet P. Hafler,2011,2011,Springer,,200,0,English,,,0,"9400702701,9789400702707",,,,,,,,,,,0,,,,,,,0,4022217,pdf,f1ba3d3f39df6a479703a82887b4993f,,,f1ba3d3f39df6a479703a82887b4993f.pdf,0,2000-01-01 01:00:00,2016-04-03 02:51:08,1052000/f1ba3d3f39df6a479703a82887b4993f-d.jpg,,
22341487,General Dynamics F-111 Aardvark,,Air Vanguard,,"Peter Davies, Henry Morshead",2013,,Osprey Publishing,,64,0,English,,,0,"1780966113,9781780966113",,,,,,,,,,,0,,,,,,,0,2351675,pdf,b55d285a472a5e2ea8e980b2ec871ed9,,,b55d285a472a5e2ea8e980b2ec871ed9.pdf,0,2000-01-01 01:00:00,2016-04-03 02:51:08,1052000/b55d285a472a5e2ea8e980b2ec871ed9-d.jpg,,
22341488,V1 Flying Bomb Aces,,Aircraft of the Aces,,"Andrew Thomas, Chris Davey",2013,,Osprey Publishing,,96,0,English,,,0,"1780962924,9781780962924",,,,,,,,,,,0,,,,,,,0,3631365,pdf,534db711d15d4e0701195694575156a9,,,534db711d15d4e0701195694575156a9.pdf,0,2000-01-01 01:00:00,2016-04-03 02:51:08,1052000/534db711d15d4e0701195694575156a9-d.jpg,,
22341489,Advanced Military Vehicle Modelling,,Modelling Manuals,,Jerry Scutts,1999,,Osprey Publishing,,64,0,English,,,0,"1902579089,9781902579085",,,,,,,,,,,0,,,,,,,0,16966366,pdf,33f63b1ff9ac3634bbe56eb54fe72909,,,33f63b1ff9ac3634bbe56eb54fe72909.pdf,0,2000-01-01 01:00:00,2016-04-03 02:51:08,1052000/33f63b1ff9ac3634bbe56eb54fe72909-d.jpg,,
22341490,Skidboot 'The Smartest Dog In The World',,,,"Cathy Luchetti, Joel Carpenter, Guillermo Machado",2013,1,Naretev,,326,0,English,,,0,"0989417700,9780989417709",,,,,,,,,,,0,,,,,,,,7089031,mobi,a170fac45345442464cb585950b58e4d,,,a170fac45345442464cb585950b58e4d.mobi,0,2000-01-01 01:00:00,2016-04-03 02:51:08,1052000/a170fac45345442464cb585950b58e4d-d.jpg,,
22341491,Our Place in the Universe,,,,Norman K. Glendenning,2007,,World Scientific Publishing Company,,244,0,English,,,0,"9812700684,9789812700681",,,,,,,,,,,0,,,,,,,0,5267806,pdf,cbf3946bcd9b096d76317db002f6568c,,,cbf3946bcd9b096d76317db002f6568c.pdf,0,2000-01-01 01:00:00,2016-04-03 02:51:08,1052000/cbf3946bcd9b096d76317db002f6568c-d.jpg,,
22341492,How Everything Works: Making Physics Out of the Ordinary,,,,Louis A. Bloomfield,2007,1,Wiley,,736,0,English,,,0,"0470170662,9780470170663",,,,,,,,,,,0,,,,,,,,1167532,mobi,11d9d1bf597953a9b0c9659c9f63fb8d,,,11d9d1bf597953a9b0c9659c9f63fb8d.mobi,0,2000-01-01 01:00:00,2016-04-03 02:51:08,1052000/11d9d1bf597953a9b0c9659c9f63fb8d-d.jpg,,
22341493,Moby-Dick in Pictures: One Drawing for Every Page,,,,Matt Kish,2011,First Edition,Tin House Books,,600,0,English,,,0,"1935639137,9781935639138",,,,,,,,,,,0,,,,,,,,84131860,epub,84adfcd7a9f465aea9e013fc4363e4b3,,,84adfcd7a9f465aea9e013fc4363e4b3.epub,0,2000-01-01 01:00:00,2016-04-03 02:51:08,1052000/84adfcd7a9f465aea9e013fc4363e4b3-d.jpg,,
22341494,Perfect Clarity: A Tibetan Buddhist Anthology of Mahamudra and Dzogchen,,,,"Erik Pema Kunsang, Marcia Schmidt, Michael Tweed",2012,,North Atlantic Books,,192,0,English,,,0,"962734169X,9789627341697",,,,,,,,,,,0,,,,,,,,3701676,epub,14496e4a5d43abb440fc3cb52a3ae5b5,,,14496e4a5d43abb440fc3cb52a3ae5b5.epub,0,2000-01-01 01:00:00,2016-04-03 02:51:08,1052000/14496e4a5d43abb440fc3cb52a3ae5b5-d.jpg,,
22341495,Advances in Coding Theory and Crytography,,Series on Coding Theory and Cryptology,,"T. Shaska, W C Huffman, David Joyner, V Ustimenko, T. Shaska, W. C. Huffman",2007,1,World Scientific Publishing Company,,268,0,English,,,0,"9812707018,9789812707017",,,,,,,,,,,0,,,,,,,0,4041394,pdf,e5e85591e120127385625bf09fba76c1,,,e5e85591e120127385625bf09fba76c1.pdf,0,2000-01-01 01:00:00,2016-04-03 02:51:08,1052000/e5e85591e120127385625bf09fba76c1-d.jpg,,
22341496,"Firepower: Weapons Effectiveness On The Battlefield, 1630- 1750",,,,B.p. Hughes,1997,,Da Capo Press,,174,0,English,,,0,"1885119399,9781885119391",,,,,,,,,,,0,,,,,,,0,188834296,pdf,568cbcf09998ae1b725845859fb74162,,,568cbcf09998ae1b725845859fb74162.pdf,0,2000-01-01 01:00:00,2016-04-03 02:51:08,1052000/568cbcf09998ae1b725845859fb74162-d.jpg,,
22341497,Digital SLR Video and Filmmaking For Dummies,,For Dummies (Computer/Tech),,John Carucci,2013,1,For Dummies,,416,0,English,,,0,"1118365984,9781118365984",,,,,,,,,,,0,,,,,,,,64394687,epub,245d00fcc7c2baaf2ce4973c5dcecd24,,,245d00fcc7c2baaf2ce4973c5dcecd24.epub,0,2000-01-01 01:00:00,2016-04-03 02:51:08,1052000/245d00fcc7c2baaf2ce4973c5dcecd24-d.jpg,,
22341498,"Dubliners: Text, Criticism, and Notes",,,,James Joyce,1969,,Penguin Books,,504,0,English,,,0,"0670018058,9780670018055",,,,,,,,,,,600,,1,,,1,1,1,8539478,djvu,74163995ebfda48647e98015cfdafbee,,,"Joyce.Dubliners.Scholes ed. Text, criticism and notes [Viking 1969]",0,2000-01-01 01:00:00,2016-04-03 02:51:08,1052000/74163995ebfda48647e98015cfdafbee-d.jpg,,
22341499,Pythagorean Women: Their History and Writings,,,,Sarah B. Pomeroy,2013,,Johns Hopkins University Press,,197,0,English,64,,0,"1421409569,9781421409566",,,,,,,,,,,0,,,,1,,1,1,3186377,pdf,29d1fe75b1d8ad537f5f9e5fbb83830c,,,1421409569PWomen,0,2000-01-01 01:00:00,2016-04-03 02:51:08,1052000/29d1fe75b1d8ad537f5f9e5fbb83830c-d.jpg,,
22341500,"Logica si metalogica, vol. 1",,,,Cornel Popa,2000,,Editura Fundatiei Romania de Maine,,391,0,Romanian,,,0,,,,,,,,,,,,0,,,,,,,0,9206153,djvu,c0335b88054b73035023e9893c80438e,,,"Cornel Popa - Logica si metalogica, vol. 1",0,2000-01-01 01:00:00,2016-04-03 02:51:08,1052000/c0335b88054b73035023e9893c80438e-g.jpg,,
22341501,"Logica si metalogica, vol. 1",,,,Cornel Popa,2000,,Editura Fundatiei Romania de Maine,,391,0,Romanian,,,0,,,,,,,,,,,,0,,,,,,,1,12307963,pdf,929059e1cdd85eecd01099272f7f8ab4,,,"Cornel Popa - Logica si metalogica, vol. 1",0,2000-01-01 01:00:00,2016-04-03 02:51:08,1052000/929059e1cdd85eecd01099272f7f8ab4-g.jpg,,
22341502,Eseuri,,,,Frederic Bastiat,2011,,Institutul European,,236,0,Romanian,,,0,,,,,,,,,,,,0,,,,,,,1,1401488,pdf,f1cf7e3b10befee2be3b5556ec15dd5c,,,Frederic Bastiat - Eseuri,0,2000-01-01 01:00:00,2016-04-03 02:51:08,1052000/f1cf7e3b10befee2be3b5556ec15dd5c-g.jpg,,
22341503,Limitele puterii,,,,"Mihail Solcan, Adrian-Paul Iliescu",1994,,ALL,,180,0,Romanian,,,0,,,,,,,,,,,,0,,,,,,,0,1604620,djvu,ef5cad6bdc7fec269ff396d6c8dbdc89,,,Solcan _amp; Iliescu - Limitele puterii,0,2000-01-01 01:00:00,2016-04-03 02:51:08,1052000/ef5cad6bdc7fec269ff396d6c8dbdc89-g.jpg,,
22341504,Limitele puterii,,,,"Mihail Solcan, Adrian-Paul Iliescu",1994,,ALL,,180,0,Romanian,,,0,,,,,,,,,,,,0,,,,,,,1,5096071,pdf,7bf1ad5593b0fafc9d05b3fdd5311bc9,,,Solcan _amp; Iliescu - Limitele puterii,0,2000-01-01 01:00:00,2016-04-03 02:51:08,1052000/7bf1ad5593b0fafc9d05b3fdd5311bc9-g.jpg,,
22341505,Filosofia ca mod de viata,,,,Cristian Iftode,2010,,Paralela 45,,271,0,Romanian,,,0,,,,,,,,,,,,0,,,,,,,0,4511424,djvu,557a37e7850dc7b5ad197a519e95c935,,,Cristian Iftode - Filosofia ca mod de viata,0,2000-01-01 01:00:00,2016-04-03 02:51:08,1052000/557a37e7850dc7b5ad197a519e95c935-g.jpg,,
22341506,Filosofia ca mod de viata,,,,Cristian Iftode,2010,,Paralela 45,,271,0,Romanian,,,0,,,,,,,,,,,,0,,,,,,,1,7678364,pdf,4935925c799ce10e6d40131afe10402b,,,Cristian Iftode - Filosofia ca mod de viata,0,2000-01-01 01:00:00,2016-04-03 02:51:08,1052000/4935925c799ce10e6d40131afe10402b-g.jpg,,
22341507,Scrieri de lingvistica generala,,,,Ferdinand de Saussure,2003,,Polirom,,352,0,Romanian,,,0,,,,,,,,,,,,0,,,,,,,1,1415762,pdf,a307cfdd18f50c2dc5436e26725a2361,,,Ferdinand de Saussure - Scrieri de lingvistica generala,0,2000-01-01 01:00:00,2016-04-03 02:51:08,1052000/a307cfdd18f50c2dc5436e26725a2361-g.jpg,,
22341508,Filosofia valorii,,,,Petre Andrei,1945,,Fundatia Regele Mihai I,,238,0,Romanian,,,0,,,,,,,,,,,,0,,,,,,,0,3216922,djvu,8bbfd38f0d64ff786826e0b8116f1317,,,Petre Andrei - Filosofia valorii,0,2000-01-01 01:00:00,2016-04-03 02:51:08,1052000/8bbfd38f0d64ff786826e0b8116f1317-g.jpg,,
22341509,Filosofia valorii,,,,Petre Andrei,1945,,Fundatia Regele Mihai I,,238,0,Romanian,,,0,,,,,,,,,,,,0,,,,,,,1,5151922,pdf,797c1b7fc48bb281137d27de6eba33a6,,,Petre Andrei - Filosofia valorii,0,2000-01-01 01:00:00,2016-04-03 02:51:08,1052000/797c1b7fc48bb281137d27de6eba33a6-g.jpg,,
22341510,Directii in logica contemporana,,,,Petre Botezatu et al.,1974,,Editura Stiintifica,,183,0,Romanian,,,0,,,,,,,,,,,,0,,,,,,,0,2026657,djvu,3227b7a9d115493ff7b98f8423b6a701,,,Petre Botezatu et al. - Directii in logica contemporana,0,2000-01-01 01:00:00,2016-04-03 02:51:08,1052000/3227b7a9d115493ff7b98f8423b6a701-g.jpg,,
22341511,Directii in logica contemporana,,,,Petre Botezatu et al.,1974,,Editura Stiintifica,,183,0,Romanian,,,0,,,,,,,,,,,,0,,,,,,,1,10178698,pdf,cb7fb953e0260357c4ee938a7773ba6f,,,Petre Botezatu et al. - Directii in logica contemporana,0,2000-01-01 01:00:00,2016-04-03 02:51:08,1052000/cb7fb953e0260357c4ee938a7773ba6f-g.jpg,,
22341512,Termenii filozofiei grecesti,,,,Francis E. Peters,1997,,Humanitas,,320,0,Romanian,,,0,,,,,,,,,,,,0,,,,,,,0,4285601,djvu,a0de172266b1e8ded7961f8dc52f2cb5,,,Francis E. Peters - Termenii filozofiei grecesti,0,2000-01-01 01:00:00,2016-04-03 02:51:08,1052000/a0de172266b1e8ded7961f8dc52f2cb5-g.jpg,,
22341513,My Life and Work,,,,"Henry Ford, Samuel Crowther",1923,,"Doubleday, Page & Company","Garden City, New York",290,0,English,68,,0,,,,,,,,,,,,600,,,0,,,0,0,5021650,djvu,fabdaa05face819ec784d524cc598043,,,Ford - My Life and Work,0,2000-01-01 01:00:00,2016-04-03 02:51:08,1052000/fabdaa05face819ec784d524cc598043-g.jpg,,
22341514,Termenii filozofiei grecesti,,,,Francis E. Peters,1997,,Humanitas,,320,0,Romanian,,,0,,,,,,,,,,,,0,,,,,,,1,8913264,pdf,cc4a540f578f2e843d90da0ce9c6492f,,,Francis E. Peters - Termenii filozofiei grecesti,0,2000-01-01 01:00:00,2016-04-03 02:51:08,1052000/cc4a540f578f2e843d90da0ce9c6492f-g.jpg,,
22341515,Diary of an Oxygen Thief,,,,Anonymous,,,,,0,0,,,,0,,,,,,,,,,,,0,,,,,,,,127118,epub,4ceea3de1ef05f54b7ef3312f8972bfa,,,DIARY OF AN OXYGEN THIEF By Ano - Anonymous,0,2000-01-01 01:00:00,2016-04-03 02:51:08,1052000/4ceea3de1ef05f54b7ef3312f8972bfa-g.jpg,,
22341516,Natura conceptului in Logica lui Hegel,,,,Radu Stoichita,1972,,Editura Stiintifica,,177,0,Romanian,,,0,,,,,,,,,,,,0,,,,,,,0,2057621,djvu,09e326bc7428aa79cadb160278c9e1a8,,,Radu Stoichita - Natura conceptului in Logica lui Hegel,0,2000-01-01 01:00:00,2016-04-03 02:51:08,1052000/09e326bc7428aa79cadb160278c9e1a8-g.jpg,,
22341517,Natura conceptului in Logica lui Hegel,,,,Radu Stoichita,1972,,Editura Stiintifica,,177,0,Romanian,,,0,,,,,,,,,,,,0,,,,,,,1,9218341,pdf,86b15fffd391f591bd3f8344e3416517,,,Radu Stoichita - Natura conceptului in Logica lui Hegel,0,2000-01-01 01:00:00,2016-04-03 02:51:08,1052000/86b15fffd391f591bd3f8344e3416517-g.jpg,,
22341518,"Introduction to aircraft flight mechanics: performance, static stability, dynamic stability, and classical feedback control",,AIAA Education,,"Thomas R. Yechout, Steven L. Morris, David E. Bossert, Wayne F. Hallgren",2003,1,American Institute of Aeronautics and Astronautics,,649,0,English,212,,0,"1563475774, 9781563475771, 1600862063, 9781600862069, 1600860788, 9781600860782",,,,,629.132-dc21,TL671.4 .Y43 2003,10.2514/4.862069,TJlTAAAAMAAJ,,,0,,,,,0,1,1,9878001,pdf,44b5a8275f1f3dfa2aba6bdbc8263863,,,Introduction to aircraft flight mechanics (2003),0,2000-01-01 01:00:00,2016-04-03 02:51:08,1052000/44b5a8275f1f3dfa2aba6bdbc8263863-d.jpg,,
22341519,Armies of the Volga Bulgars & Khanate of Kazan: 9th-16th Centuries,,Men-at-Arms,,"Viacheslav Shpakovsky, David Nicolle",2013,,Osprey Publishing,,48,0,English,,Avaxhome,0,"1782000798,9781782000792",,,,,,,,,,,0,,,,,,,1,4812177,pdf,122528bcc5e0a4d4fc7dd153d3edd474,,,MAA_491,0,2000-01-01 01:00:00,2016-04-03 02:51:08,1052000/122528bcc5e0a4d4fc7dd153d3edd474-d.jpg,,
22341520,Asa grait-a Zarathustra (Bottez),,,,Friedrich Nietzsche,,,Antet,,291,0,Romanian,,,0,,,,,,,,,,,,0,,,,,,,0,7467569,djvu,00b746ca562666160621134867d4dfc6,,,Friedrich Nietzsche - Asa grait-a Zarathustra (Bottez),0,2000-01-01 01:00:00,2016-04-03 02:51:08,1052000/00b746ca562666160621134867d4dfc6-g.jpg,,
22341521,Asa grait-a Zarathustra (Bottez),,,,Friedrich Nietzsche,,,Antet,,291,0,Romanian,,,0,,,,,,,,,,,,0,,,,,,,1,32578055,pdf,8f1054c090807016b20e66128ada3c0c,,,Friedrich Nietzsche - Asa grait-a Zarathustra (Bottez),0,2000-01-01 01:00:00,2016-04-03 02:51:08,1052000/8f1054c090807016b20e66128ada3c0c-g.jpg,,
22341522,Gradina desfatarilor,,,,Jacques Delumeau,1997,,Humanitas,,238,0,Romanian,,,0,,,,,,,,,,,,0,,,,,,,0,9931586,djvu,ef994fe807b918403852a8144f0e528a,,,Jacques Delumeau - Gradina desfatarilor,0,2000-01-01 01:00:00,2016-04-03 02:51:08,1052000/ef994fe807b918403852a8144f0e528a-g.jpg,,
22341523,Gradina desfatarilor,,,,Jacques Delumeau,1997,,Humanitas,,238,0,Romanian,,,0,,,,,,,,,,,,0,,,,,,,1,15106895,pdf,913496fd16fb4062e6e3d2fd00d46a64,,,Jacques Delumeau - Gradina desfatarilor,0,2000-01-01 01:00:00,2016-04-03 02:51:08,1052000/913496fd16fb4062e6e3d2fd00d46a64-g.jpg,,
22341524,"Fort William Henry 1757: A battle, two sieges and bloody massacre",,Campaign,,"Ian Castle, Graham Turner",2013,,Osprey Publishing,,96,0,English,,Avaxhome,0,"178200274X,9781782002741",,,,,,,,,,,0,,,,,,,1,6505876,pdf,4ad794e1e425f61d4053732cda4dd680,,,CAM_260,0,2000-01-01 01:00:00,2016-04-03 02:51:08,1052000/4ad794e1e425f61d4053732cda4dd680-d.jpg,,
22341525,Evul Mediu si nasterea Europei,,,,Jacques Le Goff,2005,,Polirom,,338,0,Romanian,,,0,,,,,,,,,,,,0,,,,,,,0,5137403,djvu,6c1dce00dff089aea9283781dbecb813,,,Jacques Le Goff - Evul Mediu si nasterea Europei,0,2000-01-01 01:00:00,2016-04-03 02:51:08,1052000/6c1dce00dff089aea9283781dbecb813-g.jpg,,
22341526,Evul Mediu si nasterea Europei,,,,Jacques Le Goff,2005,,Polirom,,338,0,Romanian,,,0,,,,,,,,,,,,0,,,,,,,1,15454620,pdf,eb39ea5cff5dbdda65f3c0c2abf29239,,,Jacques Le Goff - Evul Mediu si nasterea Europei,0,2000-01-01 01:00:00,2016-04-03 02:51:08,1052000/eb39ea5cff5dbdda65f3c0c2abf29239-g.jpg,,
22341527,Magia si vrajitoria in Europa din Evul Mediu pina astazi,,,,Robert Muchembled,1997,,Humanitas,,355,0,Romanian,,,0,,,,,,,,,,,,0,,,,,,,0,5925934,djvu,05d5547e3c00e8640803c7c5f13da2a6,,,Robert Muchembled - Magia si vrajitoria in Europa din Evul Mediu pina astazi,0,2000-01-01 01:00:00,2016-04-03 02:51:08,1052000/05d5547e3c00e8640803c7c5f13da2a6-g.jpg,,
22341528,Magia si vrajitoria in Europa din Evul Mediu pina astazi,,,,Robert Muchembled,1997,,Humanitas,,355,0,Romanian,,,0,,,,,,,,,,,,0,,,,,,,1,14330149,pdf,e907e87dd5b507cfcbb9c9fff7a860fc,,,Robert Muchembled - Magia si vrajitoria in Europa din Evul Mediu pina astazi,0,2000-01-01 01:00:00,2016-04-03 02:51:08,1052000/e907e87dd5b507cfcbb9c9fff7a860fc-g.jpg,,
22341529,Dictionar al religiilor,,,,"Mircea Eliade, Ioan Petru Culianu",1993,,Humanitas,,337,0,Romanian,,,0,,,,,,,,,,,,0,,,,,,,1,8749664,djvu,80ca50f9c928feded93e093ba9079deb,,,Mircea Eliade _amp; Ioan Petru Culianu - Dictionar al religiilor,0,2000-01-01 01:00:00,2016-04-03 02:51:08,1052000/80ca50f9c928feded93e093ba9079deb-g.jpg,,
22341530,Dictionar al religiilor,,,,"Mircea Eliade, Ioan Petru Culianu",1993,,Humanitas,,337,0,Romanian,,,0,,,,,,,,,,,,0,,,,,,,1,12954311,pdf,f7474f20a960c0b97f49efefeb0b1550,,,Mircea Eliade _amp; Ioan Petru Culianu - Dictionar al religiilor,0,2000-01-01 01:00:00,2016-04-03 02:51:08,1052000/f7474f20a960c0b97f49efefeb0b1550-g.jpg,,
22341531,Italian Soldier in North Africa 1941-43,,Warrior,,"Pier Paolo Battistelli, Piero Crociani",2013,,Osprey Publishing,,64,0,English,,Avaxhome,0,"1780968558,9781780968551",,,,,,,,,,,0,,,,,,,1,4363742,pdf,bc5486b1eb0b2808ca87ccc56f18635f,,,OWAR_169,0,2000-01-01 01:00:00,2016-04-03 02:51:08,1052000/bc5486b1eb0b2808ca87ccc56f18635f-d.jpg,,
22341532,The Jewish Revolt AD 66-74,,Campaign,,"Si Sheppard, Peter Dennis",2013,,Osprey Publishing,,96,0,English,,Avaxhome,0,"1780961839,9781780961835",,,,,,,,,,,0,,,,,,,1,9477856,pdf,bc519cf4a228f9254f83e3d74ae3eb0c,,,CAM_252,0,2000-01-01 01:00:00,2016-04-03 02:51:08,1052000/bc519cf4a228f9254f83e3d74ae3eb0c-d.jpg,,
22341533,Weapons of Mass Destruction,,Library in a Book,,"Mary Byrd Davis, Arthur H. Purcell",2006,,Facts on File,,272,0,English,,,0,"0816060827,9780816060825",,,,,,,,,,,0,,,,,,,0,11312707,pdf,3b8119dce30d203a2c0b0294073527e4,,,3b8119dce30d203a2c0b0294073527e4.pdf,0,2000-01-01 01:00:00,2016-04-03 02:51:08,1052000/3b8119dce30d203a2c0b0294073527e4-d.jpg,,
22341534,US Flamethrower Tanks of World War II,,New Vanguard,,"Steven Zaloga, Richard Chasemore",2013,,Osprey Publishing,,48,0,English,,,0,"1780960263,9781780960265",,,,,,,,,,,0,,,,,,,0,4016804,pdf,fa897ad247289e657c6f2e731a44bfc2,,,fa897ad247289e657c6f2e731a44bfc2.pdf,0,2000-01-01 01:00:00,2016-04-03 02:51:08,1052000/fa897ad247289e657c6f2e731a44bfc2-d.jpg,,
22341535,The Devil's Horsemen: The Mongol Invasion of Europe,,,,James Chambers,1979,,Atheneum,,190,0,English,,,0,"0689109423,9780689109423",,,,,,,,,,,0,,,,,,,0,10730845,pdf,6523cf30f7e1c331e63db27fe9d03ee3,,,6523cf30f7e1c331e63db27fe9d03ee3.pdf,0,2000-01-01 01:00:00,2016-04-03 02:51:08,1052000/6523cf30f7e1c331e63db27fe9d03ee3-d.jpg,,
22341536,Cultures in Motion: Mapping Key Contacts and Their Imprints in World History,,,,Peter N. Stearns,2001,,Yale University Press,,96,0,English,,,0,"0300082282,9780300082289",,,,,,,,,,,0,,,,,,,0,3369377,pdf,bd2b70a3da8d8f496a773e4c2e80c104,,,bd2b70a3da8d8f496a773e4c2e80c104.pdf,0,2000-01-01 01:00:00,2016-04-03 02:51:08,1052000/bd2b70a3da8d8f496a773e4c2e80c104-d.jpg,,
22341537,Trig Or Treat: An Encyclopedia of Trigonometric Identity Proofs With Intellectually Challenging Games,,,,Ning Hong Yeo,2007,,World Scientific Publishing Company,,416,0,English,,,0,"9812776184,9789812776181",,,,,,,,,,,0,,,,,,,0,3407250,pdf,7eeb2b7cd3f39d456f67b1a3905c3ff7,,,7eeb2b7cd3f39d456f67b1a3905c3ff7.pdf,0,2000-01-01 01:00:00,2016-04-03 02:51:08,1052000/7eeb2b7cd3f39d456f67b1a3905c3ff7-d.jpg,,
22341538,Learn Ruby on Rails,,,,Daniel Kehoe,2013,1.b16,,,250,0,English,,,0,,,,,,,,,,,,0,,,,,,,1,1769916,pdf,525b978d93081763cc32639b0916b725,,,learn-rails,0,2000-01-01 01:00:00,2016-04-03 02:51:08,1052000/525b978d93081763cc32639b0916b725-d.jpg,,
22341539,"Knit Pink: 25 Patterns to Knit for Comfort, Gratitude, and Charity",,,,Lorna Miser,2013,,Martingale,,80,0,English,,,0,"1604683376,9781604683370",,,,,,,,,,,0,,,,,,,,3619820,epub,9d8f1c0b2c5d5c671918ab0055e9026d,,,9d8f1c0b2c5d5c671918ab0055e9026d.epub,0,2000-01-01 01:00:00,2016-04-03 02:51:08,1052000/9d8f1c0b2c5d5c671918ab0055e9026d-d.jpg,,
22341540,The User's Approach to Topological Methods in 3D Dynamical Systems,,,,"Maro A. Natiello, HernÃ¡n G Solari",2007,,World Scientific Publishing Company,,144,0,English,,,0,"9812703802,9789812703804",,,,,,,,,,,0,,,,,,,0,3205395,pdf,a943bc28a75d70c30dda08572653df96,,,a943bc28a75d70c30dda08572653df96.pdf,0,2000-01-01 01:00:00,2016-04-03 02:51:08,1052000/a943bc28a75d70c30dda08572653df96-d.jpg,,
22341541,Variational Methods for Strongly Indefinite Problems,,Interdisciplinary Mathematical Sciences,,Ding Yangeng,2007,,World Scientific Publishing Company,,176,0,English,,,0,"9812709622,9789812709622",,,,,,,,,,,0,,,,,,,0,3688363,pdf,c58150d15c67cdd1bc5a044797762c95,,,c58150d15c67cdd1bc5a044797762c95.pdf,0,2000-01-01 01:00:00,2016-04-03 02:51:08,1052000/c58150d15c67cdd1bc5a044797762c95-d.jpg,,
22341542,The Rejected Stone: Al Sharpton and the Path to American Leadership,,,,Al Sharpton,2013,First Edition,Cash Money Content,,272,0,English,,,0,"1936399474,9781936399475",,,,,,,,,,,0,,,,,,,,2039302,epub,e211c6eb2d89051d50980f10c325e0a9,,,e211c6eb2d89051d50980f10c325e0a9.epub,0,2000-01-01 01:00:00,2016-04-03 02:51:08,1052000/e211c6eb2d89051d50980f10c325e0a9-d.jpg,,
22341543,Boundary Values and Convolution in Ultradistribution Spaces,,"Series on Analysis, Applications and Computation ? Vol. 1",,"Richard D. Carmichael, Andrzej Kaminski, Stevan Pilipovic",2007,,World Scientific Publishing Company,,232,0,English,,,0,"9812707697,9789812707697",,,,,,,,,,,0,,,,,,,0,3519196,pdf,ada3d477e8801f7bcb8c8a754b98af5d,,,ada3d477e8801f7bcb8c8a754b98af5d.pdf,0,2000-01-01 01:00:00,2016-04-03 02:51:08,1052000/ada3d477e8801f7bcb8c8a754b98af5d-d.jpg,,
22341544,"Continuous Symmetries, Lie Algebras, Differential Equations and Computer Algebra",,,,Steeb Willi-hans,2007,2nd,World Scientific Publishing Company,,472,0,English,,,0,"981270809X,9789812708090",,,,,,,,,,,0,,,,,,,0,3872814,pdf,a7696cfc8dac569c49ff391e05f82d82,,,a7696cfc8dac569c49ff391e05f82d82.pdf,0,2000-01-01 01:00:00,2016-04-03 02:51:08,1052000/a7696cfc8dac569c49ff391e05f82d82-d.jpg,,
22341545,Build a Game with UDK,,,,Geoff Sholler,2013,,Packt Publishing,,156,0,English,,,0,"1849695806,9781849695800",,,,,,,,,,,0,,,,,,,,12236999,epub,2dc40132e5d3e99eed34dce8f5db967a,,,2dc40132e5d3e99eed34dce8f5db967a.epub,0,2000-01-01 01:00:00,2016-04-03 02:51:08,1052000/2dc40132e5d3e99eed34dce8f5db967a-d.jpg,,
22341546,The Universe And The Atom,,,,Don Lichtenberg,2007,,World Scientific Publishing,,328,0,English,,,0,"9812706062,9789812706065",,,,,,,,,,,0,,,,,,,0,3734901,pdf,3907ec56343e908ad1bbf4ec6b997ff4,,,3907ec56343e908ad1bbf4ec6b997ff4.pdf,0,2000-01-01 01:00:00,2016-04-03 02:51:08,1052000/3907ec56343e908ad1bbf4ec6b997ff4-d.jpg,,
22341547,Lure of the Arcane: The Literature of Cult and Conspiracy,,,,Theodore Ziolkowski,2013,,Johns Hopkins University Press,,248,0,English,,,0,"1421409585,9781421409580",,,,,,,,,,,0,,,,,,,0,3338685,pdf,71c82f58dc083efdd2af63c265856639,,,71c82f58dc083efdd2af63c265856639.pdf,0,2000-01-01 01:00:00,2016-04-03 02:51:08,1052000/71c82f58dc083efdd2af63c265856639-d.jpg,,
22341548,Build a Game with UDK,,,,Geoff Sholler,2013,,Packt Publishing,,156,0,English,,,0,"1849695806,9781849695800",,,,,,,,,,,0,,,,,,,0,4910930,pdf,e7e25a5b6ad16a2021417c4749907ade,,,e7e25a5b6ad16a2021417c4749907ade.pdf,0,2000-01-01 01:00:00,2016-04-03 02:51:08,1052000/e7e25a5b6ad16a2021417c4749907ade-d.jpg,,
22341549,Karl Marx's Theory of Revolution: War and Revolution,,,,"Hal Draper, E. Haberkern",2010,,CreateSpace Independent Publishing Platform,,286,0,English,,,0,"1456303503,9781456303501",,,,,,,,,,,0,,,,,,,0,6039583,pdf,a929b52b64806e8faed2a21b39233398,,,a929b52b64806e8faed2a21b39233398.pdf,0,2000-01-01 01:00:00,2016-04-03 02:51:08,1052000/a929b52b64806e8faed2a21b39233398-d.jpg,,
22341550,C# 5.0 All-in-One For Dummies,,,,"Bill Sempf, Chuck Sphar, Stephen R. Davis",2013,1,For Dummies,,840,0,English,92,,0,"1118385365,9781118385364",,,,,,,,,,,0,,,,,,,,12305215,epub,45b7c0ad9e717fae7a4d520fa2deba6e,,,45b7c0ad9e717fae7a4d520fa2deba6e.epub,0,2000-01-01 01:00:00,2016-04-03 02:51:08,1052000/45b7c0ad9e717fae7a4d520fa2deba6e-d.jpg,,
22341551,"The Founders and Finance: How Hamilton, Gallatin, and Other Immigrants Forged a New Economy",,,,Thomas K. McCraw,2012,First Edition,Belknap Press,,496,0,English,,,0,"0674066928,9780674066922",,,,,,,,,,,0,,,,,,,0,3421731,pdf,70ecfe1268d6ef82ea90bec6c61e634a,,,70ecfe1268d6ef82ea90bec6c61e634a.pdf,0,2000-01-01 01:00:00,2016-04-03 02:51:08,1052000/70ecfe1268d6ef82ea90bec6c61e634a-d.jpg,,
22341552,US Army and Marine Corps MRAPs: Mine Resistant Ambush Protected Vehicles,,New Vanguard,,"Mike Guardia, Henry Morshead",2013,,Osprey Publishing,,48,0,English,,Avaxhome,0,"178096255X,9781780962559",,,,,,,,,,,0,,,,,,,1,3154893,pdf,62b9c5adebb023e033f6e357d06bf7d9,,,ONVG_206,0,2000-01-01 01:00:00,2016-04-03 02:51:08,1052000/62b9c5adebb023e033f6e357d06bf7d9-d.jpg,,
22341553,Saint Vith: US 106 Infantry Division,,Battleground Europe,,Mike Tolhurst,1999,,Pen & Sword Books Ltd,,144,0,English,,,0,"0850526655,9780850526653",,,,,,,,,,,0,,,,,,,0,44113241,pdf,5e356037f7f49e3489e6e3c7b03f5745,,,5e356037f7f49e3489e6e3c7b03f5745.pdf,0,2000-01-01 01:00:00,2016-04-03 02:51:08,1052000/5e356037f7f49e3489e6e3c7b03f5745-d.jpg,,
22341554,Europe's Last Summer: Why the World Went to War in 1914,,,,David Fromkin,2005,New Ed,Vintage Books USA,,368,0,English,,,0,"0099430843,9780099430841",,,,,,,,,,,0,,,,,,,,4562958,epub,784536c9b0aa12bfa3c5f07d67544587,,,784536c9b0aa12bfa3c5f07d67544587.epub,0,2000-01-01 01:00:00,2016-04-03 02:51:08,1052000/784536c9b0aa12bfa3c5f07d67544587-d.jpg,,
22341555,The ADHD-Autism Connection: A Step Toward More Accurate Diagnoses and Effective Treatment,,,,"Diane M. Kennedy, Temple Grandin, Rebecca S. Banks, Paul T. Elliott, Carl Daisy",2002,,WaterBrook Press,,224,0,English,,,0,"1578564980,9781578564989",,,,,,,,,,,0,,,,,,,,3339567,epub,0ce01d830465fbd9e1ec337767612d0c,,,0ce01d830465fbd9e1ec337767612d0c.epub,0,2000-01-01 01:00:00,2016-04-03 02:51:08,1052000/0ce01d830465fbd9e1ec337767612d0c-d.jpg,,
22341556,The Jewelled Kitchen,,,,Bethany Kehdy,2013,,Duncan Baird Publishers,,0,0,English,,,0,"1848990626,9781848990623",,,,,,,,,,,0,,,,,,,,9076315,mobi,c8dd039f66385f2f2920d59b8eb8b5b6,,,c8dd039f66385f2f2920d59b8eb8b5b6.mobi,0,2000-01-01 01:00:00,2016-04-03 02:51:08,1052000/c8dd039f66385f2f2920d59b8eb8b5b6-d.jpg,,
22341557,"Crochet Pink: 26 Patterns to Crochet for Comfort, Gratitude, and Charity",,,,Janet Rehfeldt,2013,,Martingale & Co Inc,,96,0,English,,,0,"1604683538,9781604683530",,,,,,,,,,,0,,,,,,,,4083301,epub,d59938aa3ca8b2e688e83c12ac507d5e,,,d59938aa3ca8b2e688e83c12ac507d5e.epub,0,2000-01-01 01:00:00,2016-04-03 02:51:08,1052000/d59938aa3ca8b2e688e83c12ac507d5e-d.jpg,,
22341558,Nonparametric Inference,,,,Z. Govindarajulu,2007,,World Scientific Publishing Company,,692,0,English,,,0,"981270034X,9789812700346",,,,,,,,,,,0,,,,,,,0,3849046,pdf,594a14e9b94cbfbc1c5a9759b7d31fe3,,,594a14e9b94cbfbc1c5a9759b7d31fe3.pdf,0,2000-01-01 01:00:00,2016-04-03 02:51:08,1052000/594a14e9b94cbfbc1c5a9759b7d31fe3-d.jpg,,
22341559,Teamster Bureaucracy,,,,Farrell Dobbs,2002,Third Printing,Pathfinder,,411,0,English,,,0,"0873488636,9780873488631",,,,,,,,,,,0,,,,,,,0,10362542,pdf,e29c289478660859fddee40fc8bc6690,,,e29c289478660859fddee40fc8bc6690.pdf,0,2000-01-01 01:00:00,2016-04-03 02:51:08,1052000/e29c289478660859fddee40fc8bc6690-d.jpg,,
22341560,Shakespeare Saved My Life: Ten Years in Solitary with the Bard,,,,Laura Bates,2013,,Sourcebooks,,304,0,English,,,0,"1402273142,9781402273148",,,,,,,,,,,0,,,,,,,,3396945,epub,d56f4ac891ff62ad5ef1926616f0d997,,,d56f4ac891ff62ad5ef1926616f0d997.epub,0,2000-01-01 01:00:00,2016-04-03 02:51:08,1052000/d56f4ac891ff62ad5ef1926616f0d997-d.jpg,,
22341561,The Rejected Stone: Al Sharpton and the Path to American Leadership,,,,Al Sharpton,2013,First Edition,Cash Money Content,,272,0,English,,,0,"1936399474,9781936399475",,,,,,,,,,,0,,,,,,,,542353,mobi,27268a9c0c9164f183da0cec18ba1fec,,,27268a9c0c9164f183da0cec18ba1fec.mobi,0,2000-01-01 01:00:00,2016-04-03 02:51:08,1052000/27268a9c0c9164f183da0cec18ba1fec-d.jpg,,
22341562,Localized Excitations in Nonlinear Complex Systems: Current State of the Art and Future Perspectives,,Nonlinear Systems and Complexity,,"Ricardo Carretero-González, Jesús Cuevas-Maraver, Dimitris Frantzeskakis, Nikos Karachalios, Panayotis Kevrekidis, Faustino Palmero-Acebedo",2013,2014,Springer,,400,0,English,,,0,"3319020560,9783319020563",,,,,,,,,,,0,,,,,,,1,22771072,pdf,7a0a39754955866341687ad5c2f59a84,,,3abca9a0e2e36c834c7100fa4b2bf91b,0,2000-01-01 01:00:00,2016-04-03 02:51:08,1052000/7a0a39754955866341687ad5c2f59a84-d.jpg,,
22341563,Nonlinear Waves in Fluids: Recent Advances and Modern Applications,,CISM International Centre for Mechanical Sciences,,Roger Grimshaw,2005,,Springer Vienna,,196,0,English,113,,0,"3211252592,9783211252598",,,,,,,,,,,0,,,,,,,1,9703759,pdf,62da54a218382e39923c9e9dcb2a2237,,,ed730abb991468d660d88779a5adb04f,0,2000-01-01 01:00:00,2016-04-03 02:51:08,1052000/62da54a218382e39923c9e9dcb2a2237-d.jpg,,
22341564,Fightback!: The American Workers' Movement in the 1930s,,,,John Newsinger,2012,,Bookmarks,,288,0,English,,,0,"1905192932,9781905192939",,,,,,,,,,,0,,,,,,,0,4763403,pdf,a76b1a9a82222715deeebf4d3fa6023b,,,a76b1a9a82222715deeebf4d3fa6023b.pdf,0,2000-01-01 01:00:00,2016-04-03 02:51:08,1052000/a76b1a9a82222715deeebf4d3fa6023b-d.jpg,,
22341565,"Karl Marx's Theory of Revolution, Vol. 1: The State and Bureaucracy",,,,Hal Draper,1977,"First Edition, First Printing",Monthly Review Press,,272,0,English,,,0,"0853454612,9780853454618",,,,,,,,,,,0,,,,,,,0,21126354,pdf,94605a8859856d572970c12e5392cbdb,,,94605a8859856d572970c12e5392cbdb.pdf,0,2000-01-01 01:00:00,2016-04-03 02:51:08,1052000/94605a8859856d572970c12e5392cbdb-d.jpg,,
22341566,Karl Marx's Theory of Revolution: Critique of Other Socialisms,,Volume 4,,Hal Draper,1990,,Monthly Review Press,,373,0,English,,,0,"0853457980,9780853457985",,,,,,,,,,,0,,,,,,,0,7173292,pdf,1f569f6b85725a9c53a97e1dbb5ea319,,,1f569f6b85725a9c53a97e1dbb5ea319.pdf,0,2000-01-01 01:00:00,2016-04-03 02:51:08,1052000/1f569f6b85725a9c53a97e1dbb5ea319-d.jpg,,
22341567,Three Simple Steps: A Map to Success in Business and Life,,,,Trevor G Blake,2012,1,BenBella Books,,256,0,English,,,0,"1936661713,9781936661718",,,,,,,,,,,0,,,,,,,1,884617,pdf,83a412935b1d4838c4baac73dda9b158,,,Trevor G Blake - Three Simple Steps to Success,0,2000-01-01 01:00:00,2016-04-03 02:51:08,1052000/83a412935b1d4838c4baac73dda9b158-d.jpg,,
22341568,Radioactivity  Radionuclides  Radiation,,,,"Joseph Magill, Jean Galy",2004,2005,Springer,,259,0,English,,,0,"3540211160,9783540211167",,,,,,,,,,,0,,,,,,,0,9694840,pdf,c8f1cc6c04fc619fbdfb60091bd13b54,,,c8f1cc6c04fc619fbdfb60091bd13b54.pdf,0,2000-01-01 01:00:00,2016-04-03 02:51:08,1052000/c8f1cc6c04fc619fbdfb60091bd13b54-d.jpg,,
22341569,Adult Development and Aging,,,,"John C. Cavanaugh, Fredda Blanchard-Fields",2010,6,Cengage Learning,,640,0,English,,,0,"0495601748,9780495601746",,,,,,,,,,,0,,,,,,,0,12969314,pdf,7977c860e12a8b372afbea8cca78c4f8,,,7977c860e12a8b372afbea8cca78c4f8.pdf,0,2000-01-01 01:00:00,2016-04-03 02:51:08,1052000/7977c860e12a8b372afbea8cca78c4f8-d.jpg,,
22341570,Introduction to Local Spectral Theory,,,,"Kjeld B. Laursen, Michael M. Neuman",2000,,"Oxford University Press, USA",,606,0,English,142,,0,"0198523815,9780198523819",,,,,,,,,,,0,,,,,,,1,9352310,pdf,e872a8bc9ecdfc9cf2704051408331b2,,,Binder111,0,2000-01-01 01:00:00,2016-04-03 02:51:08,1052000/e872a8bc9ecdfc9cf2704051408331b2-d.jpg,,
22341571,Nikon D3000: From Snapshots to Great Shots,,,,Jeff Revell,2010,1,Peachpit Press,,312,0,English,,,0,"0321713087,9780321713087",,,,,,,,,,,0,,,,,,,0,28424508,pdf,f03652a5dd91a9c3e47e63d2e169e2d1,,,f03652a5dd91a9c3e47e63d2e169e2d1.pdf,0,2000-01-01 01:00:00,2016-04-03 02:51:08,1052000/f03652a5dd91a9c3e47e63d2e169e2d1-d.jpg,,
22341572,Dreamweaver CS5 for Windows and Macintosh: Visual QuickStart Guide,,,,"Tom Negrino, Dori Smith",2010,1,Peachpit Press,,576,0,English,,,0,"032170357X,9780321703576",,,,,,,,,,,0,,,,,,,0,16586403,pdf,65dea3a28075d7040078754864bcb530,,,65dea3a28075d7040078754864bcb530.pdf,0,2000-01-01 01:00:00,2016-04-03 02:51:08,1052000/65dea3a28075d7040078754864bcb530-d.jpg,,
22341573,Access 2013 All-in-One For Dummies,,,,"Alison Barrows, Joseph C. Stockman, Allen G. Taylor",2013,1,For Dummies,,792,0,English,,,0,"1118510550,9781118510551",,,,,,,,,,,0,,,,,,,,17073856,epub,d2bd7bafa4cc9ad5b252063a1f768fd7,,,d2bd7bafa4cc9ad5b252063a1f768fd7.epub,0,2000-01-01 01:00:00,2016-04-03 02:51:08,1052000/d2bd7bafa4cc9ad5b252063a1f768fd7-d.jpg,,
22341574,C# 5.0 All-in-One For Dummies,,,,"Bill Sempf, Chuck Sphar, Stephen R. Davis",2013,1,For Dummies,,840,0,English,92,,0,"1118385365,9781118385364",,,,,,,,,,,0,,,,,,,0,25167406,pdf,96b8ccb403067a95818dcf915ab51a4e,,,96b8ccb403067a95818dcf915ab51a4e.pdf,0,2000-01-01 01:00:00,2016-04-03 02:51:08,1052000/96b8ccb403067a95818dcf915ab51a4e-d.jpg,,
22341575,Access 2013 All-in-One For Dummies,,,,"Alison Barrows, Joseph C. Stockman, Allen G. Taylor",2013,1,For Dummies,,792,0,English,,,0,"1118510550,9781118510551",,,,,,,,,,,0,,,,,,,0,27639379,pdf,00263cc23fc1a253fe004a8f5535fcfa,,,00263cc23fc1a253fe004a8f5535fcfa.pdf,0,2000-01-01 01:00:00,2016-04-03 02:51:08,1052000/00263cc23fc1a253fe004a8f5535fcfa-d.jpg,,
22341576,"Dishonoured: The Colonels' Surrender at St.Quentin, the Retreat from Mons, August 1914",,,,Peter T. Scott,1994,First Edition,Tom Donovan Publishing Ltd,,96,0,English,,,0,"1871085241,9781871085242",,,,,,,,,,,0,,,,,,,0,33636784,pdf,292b41ccc7bc7b4b343e6caaa15f421f,,,292b41ccc7bc7b4b343e6caaa15f421f.pdf,0,2000-01-01 01:00:00,2016-04-03 02:51:08,1052000/292b41ccc7bc7b4b343e6caaa15f421f-g.jpg,,
22341577,"Karl Marx's Theory of Revolution, Vol. 2: The Politics of Social Classes",,,,Hal Draper,1978,,CreateSpace Independent Publishing Platform,,768,0,English,,,0,"085345566X,9780853455660",,,,,,,,,,,0,,,,,,,0,71988585,pdf,912e9879603551b7bf48c1ba2d945e84,,,912e9879603551b7bf48c1ba2d945e84.pdf,0,2000-01-01 01:00:00,2016-04-03 02:51:08,1052000/912e9879603551b7bf48c1ba2d945e84-d.jpg,,
22341578,"Automotive Engines: Diagnosis, Repair, Rebuilding",,,,Tim Gilles,2010,6,Cengage Learning,,752,0,English,,,0,"1435486412,9781435486416",,,,,,,,,,,0,,,,,,,0,106034278,pdf,2913b051175b366e80562599f488cde1,,,2913b051175b366e80562599f488cde1.pdf,0,2000-01-01 01:00:00,2016-04-03 02:51:08,1052000/2913b051175b366e80562599f488cde1-d.jpg,,
22341579,Blut muss fließen: Undercover unter Nazis,,,,Thomas Kuban,2012,,Campus Verlag,,317,0,German,,,0,"3593398028,9783593398020",,B009XO1VF2,,,,,,,,,0,,,,,,,1,4386636,epub,a38151015bd4870719ef5d226038bb32,,,"Blut muss fliessen - Kuban, Thomas",0,2000-01-01 01:00:00,2016-04-03 02:51:08,1052000/a38151015bd4870719ef5d226038bb32-d.jpg,,
22341580,Mysticism in Shaivism and Christianity,,,,Bettina Baumer,1997,1,DK Print World,,365,0,English,,,0,"8124600961,9788124600962",,,,,,,,,,,0,,,,,,,1,12017920,pdf,b1e3717e4ca080a0d6511f6a9b43eb3e,,,Bettina Baumer - Mysticism in Shaivism and Christianity,0,2000-01-01 01:00:00,2016-04-03 02:51:08,1052000/b1e3717e4ca080a0d6511f6a9b43eb3e-d.jpg,,
22341581,Chick Lit: The New Woman's Fiction,,,,"Suzanne Ferriss, Mallory Young",2005,New edition,Routledge,,288,0,English,,,0,"0415975034,9780415975032",,,,,,,,,,,0,,,,,,,1,115660311,pdf,10db363aa4ccb733e3986215dfc4e3b8,,,Chick Lit_nodrm,0,2000-01-01 01:00:00,2016-04-03 02:51:08,1052000/10db363aa4ccb733e3986215dfc4e3b8-d.jpg,,
22341582,Temple Grandin: How the Girl Who Loved Cows Embraced Autism and Changed the World,,,,"Sy Montgomery, Temple Grandin",2012,1,HMH Books for Young Readers,,148,0,English,,,0,"0547443153,9780547443157",,,,,,,,,,,0,,,,,,,,168706973,epub,7f9561c59f5ae5a8fdf6b5c3d9ac1b51,,,7f9561c59f5ae5a8fdf6b5c3d9ac1b51.epub,0,2000-01-01 01:00:00,2016-04-03 02:51:08,1052000/7f9561c59f5ae5a8fdf6b5c3d9ac1b51-d.jpg,,
22341583,Digital Engagement: Internet Marketing That Captures Customers and Builds Intense Brand Loyalty,,,,"Leland Harden, Bob Heyman",2009,,AMACOM,,256,0,English,,,0,"0814410723,9780814410721",,,,,,,,,,,0,,,,,,,0,3743051,pdf,33963127d7c62f9abd74952c561a9705,,,33963127d7c62f9abd74952c561a9705.pdf,0,2000-01-01 01:00:00,2016-04-03 02:51:08,1052000/33963127d7c62f9abd74952c561a9705-d.jpg,,
22341584,"Baptism, Peace and the State in the Reformed and Mennonite Traditions",,,,"Ross T. Bender, Alan P. F. Sell",1991,,Calgary Institute,,260,0,English,,,0,"0889202044,9780889202047",,,,,,,,,,,0,,,,,,,0,14153195,pdf,fc8b455630c7968a103ff2befba5115e,,,fc8b455630c7968a103ff2befba5115e.pdf,0,2000-01-01 01:00:00,2016-04-03 02:51:08,1052000/fc8b455630c7968a103ff2befba5115e-d.jpg,,
22341585,The 100 Best Ways to Stop Aging and Stay Young: Scientifically Proven Strategies for Taking Years Off Your Body,,,,Julia Maranan,2011,1,Fair Winds Press,,240,0,English,,,0,"1592334490,9781592334490",,,,,,,,,,,0,,,,,,,,9598754,mobi,bcf5d54680e4f982397d6ad908d2978e,,,bcf5d54680e4f982397d6ad908d2978e.mobi,0,2000-01-01 01:00:00,2016-04-03 02:51:08,1052000/bcf5d54680e4f982397d6ad908d2978e-d.jpg,,
22341586,Leading the Fundraising Charge: The Role of the Nonprofit Executive,,The AFP/Wiley Fund Development Series,,Karla A. Williams,2013,1,Wiley,,262,0,English,,,0,"0470621982,9780470621981",,,,,,,,,,,0,,,,,,,0,4025367,pdf,2db954d307b0c1163c9a6c69a080f723,,,2db954d307b0c1163c9a6c69a080f723.pdf,0,2000-01-01 01:00:00,2016-04-03 02:51:08,1052000/2db954d307b0c1163c9a6c69a080f723-d.jpg,,
22341587,Just Listen: Discover the Secret to Getting Through to Absolutely Anyone,,,,"Mark Goulston M.D., Keith Ferrazzi",2009,1,AMACOM,,256,0,English,,,0,"0814414036,9780814414033",,,,,,,,,,,0,,,,,,,0,3944938,pdf,89c75df0003127dd65e48920fecda950,,,89c75df0003127dd65e48920fecda950.pdf,0,2000-01-01 01:00:00,2016-04-03 02:51:08,1052000/89c75df0003127dd65e48920fecda950-d.jpg,,
22341588,Ancient Israel: Highlights from the Collections of the Oriental Institute of the University of Chicago,,Oriental Institute Museum Publications,,Gabrielle V. Novacek,2010,,Oriental Institute of the University of Chicago,,130,0,English,,,0,"1885923651,9781885923653",,,,,,,,,,,0,,,,,,,0,4141114,pdf,93401bd21e9cf86ddcf0e14ec720897c,,,93401bd21e9cf86ddcf0e14ec720897c.pdf,0,2000-01-01 01:00:00,2016-04-03 02:51:08,1052000/93401bd21e9cf86ddcf0e14ec720897c-d.jpg,,
22341589,Schizotypy and Schizophrenia: The View from Experimental Psychopathology,,,,Mark F. Lenzenweger Phd,2010,1,The Guilford Press,,444,0,English,,,0,"1606238655,9781606238653",,,,,,,,,,,0,,,,,,,0,3391060,pdf,1fd31bd32a2e5f7c52ab9288c0728197,,,1fd31bd32a2e5f7c52ab9288c0728197.pdf,0,2000-01-01 01:00:00,2016-04-03 02:51:08,1052000/1fd31bd32a2e5f7c52ab9288c0728197-d.jpg,,
22341590,Hip to Knit,,Hip to . . . Series,,Judith L Swartz,2002,,Interweave,,96,0,English,,,0,"1931499217,9781931499217",,,,,,,,,,,0,,,,,,,,7803625,epub,ee4ee199eeb8a9baaedc54b27706edf3,,,ee4ee199eeb8a9baaedc54b27706edf3.epub,0,2000-01-01 01:00:00,2016-04-03 02:51:08,1052000/ee4ee199eeb8a9baaedc54b27706edf3-d.jpg,,
22341591,The 100 Best Ways to Stop Aging and Stay Young: Scientifically Proven Strategies for Taking Years Off Your Body,,,,Julia Maranan,2011,1,Fair Winds Press,,240,0,English,,,0,"1592334490,9781592334490",,,,,,,,,,,0,,,,,,,,10593297,epub,a0c503fec5f039e3d4ea3d1e6c3ee072,,,a0c503fec5f039e3d4ea3d1e6c3ee072.epub,0,2000-01-01 01:00:00,2016-04-03 02:51:08,1052000/a0c503fec5f039e3d4ea3d1e6c3ee072-d.jpg,,
22341592,The BurdaStyle Sewing Handbook,,,,"Nora Abousteit, Alison Kelly, BurdaStyle",2011,1 Spi,Potter Craft,,208,0,English,,,0,"030758674X,9780307586742",,,,,,,,,,,0,,,,,,,,6167308,epub,e2defd751ad9537cff0f6d18ab25b658,,,e2defd751ad9537cff0f6d18ab25b658.epub,0,2000-01-01 01:00:00,2016-04-03 02:51:08,1052000/e2defd751ad9537cff0f6d18ab25b658-d.jpg,,
22341593,Programming ArcGIS 10.1 with Python Cookbook,,,,Eric Pimpler,2013,,Packt Publishing,,304,0,English,87,,0,"1849694443,9781849694445",,,,,,,,,,,0,,,,,,,0,6124342,pdf,68f6528824dd595bd7d72ea2f3c7476d,,,68f6528824dd595bd7d72ea2f3c7476d.pdf,0,2000-01-01 01:00:00,2016-04-03 02:51:08,1052000/68f6528824dd595bd7d72ea2f3c7476d-d.jpg,,
22341594,Critical Moments During Competition: A Mind-Body Model of Sport Performance When It Counts the Most,,,,Roland A. Carlstedt,2004,,Psychology Press,,280,0,English,,,0,"1841690929,9781841690926",,,,,,,,,,,0,,,,,,,0,7366933,pdf,35fea3c38f0412fe80b32a263a1b56d3,,,35fea3c38f0412fe80b32a263a1b56d3.pdf,0,2000-01-01 01:00:00,2016-04-03 02:51:08,1052000/35fea3c38f0412fe80b32a263a1b56d3-d.jpg,,
22341595,Le Corbusier in Detail,,,,Flora Samuel,2007,,Routledge,,264,0,English,,,0,"0750663545,9780750663540",,,,,,,,,,,0,,,,,,,0,9911094,pdf,aae6535aedd12a8cb9041e8c0f4b8b68,,,aae6535aedd12a8cb9041e8c0f4b8b68.pdf,0,2000-01-01 01:00:00,2016-04-03 02:51:08,1052000/aae6535aedd12a8cb9041e8c0f4b8b68-d.jpg,,
22341596,Encyclopedia of Aging and Public Health,,Springer Reference,,"Sana Loue, Martha Sajatovic",2007,2008,Springer,,843,0,English,,,0,"0387337539,9780387337531",,,,,,,,,,,0,,,,,,,0,9433332,pdf,af18ae3a8a27dc25ebfd4aade8c23f61,,,af18ae3a8a27dc25ebfd4aade8c23f61.pdf,0,2000-01-01 01:00:00,2016-04-03 02:51:08,1052000/af18ae3a8a27dc25ebfd4aade8c23f61-d.jpg,,
22341597,Raising Freethinkers: A Practical Guide for Parenting Beyond Belief,,,,"Dale McGowan, Molleen Matsumura, Amanda Metskas, Jan Devor",2009,,AMACOM,,288,0,English,,,0,"0814410960,9780814410967",,,,,,,,,,,0,,,,,,,1,3471359,pdf,43ce1fb27c5dc00443766b40dcc418c5,,,43ce1fb27c5dc00443766b40dcc418c5.pdf,0,2000-01-01 01:00:00,2016-04-03 02:51:08,1052000/43ce1fb27c5dc00443766b40dcc418c5-d.jpg,,
22341598,Paul and the Rhetoric of Reversal in 1 Corinthians: Volume 155: The Impact of Paul's Gospel on his Macro-Rhetoric,,Society for New Testament Studies Monograph Series,,Matthew R. Malcolm,2013,,Cambridge University Press,,321,0,English,,,0,"1107032091,9781107032095",,,,,,,,,,,0,,,,,,,0,4349194,pdf,16e1552e3e503d3b38e2be67f32028e8,,,16e1552e3e503d3b38e2be67f32028e8.pdf,0,2000-01-01 01:00:00,2016-04-03 02:51:08,1052000/16e1552e3e503d3b38e2be67f32028e8-d.jpg,,
22341599,The Nonprofit Development Companion: A Workbook for Fundraising Success,,The AFP/Wiley Fund Development Series,,Brydon M. DeWitt,2010,1,Wiley,,224,0,English,,,0,"0470586982,9780470586983",,,,,,,,,,,0,,,,,,,0,3394912,pdf,6e9478279a927edf542f56d1f3aa32c2,,,6e9478279a927edf542f56d1f3aa32c2.pdf,0,2000-01-01 01:00:00,2016-04-03 02:51:08,1052000/6e9478279a927edf542f56d1f3aa32c2-d.jpg,,
22341600,Vijnanabhairava or Divine Consciousness,,,,Jaideva Singh,1979,,Motilal Banarsidass,,210,0,English,,,0,",",,,,,,,,,,,0,,,,,,,1,5773934,pdf,648480b129bc305585cfb43242a5f792,,,Jaideva Singh - Vijnanabhairava or Divine Consciousness,0,2000-01-01 01:00:00,2016-04-03 02:51:08,1052000/648480b129bc305585cfb43242a5f792-d.jpg,,
22341601,Crisis and Command: A History of Executive Power from George Washington to the Present,,,,John Yoo,2011,,Kaplan Trade,,560,0,English,,,0,"1607148560,9781607148562",,,,,,,,,,,0,,,,,,,,2647663,epub,bf60d441d4ed10af6d9e56ed47dcc4b6,,,bf60d441d4ed10af6d9e56ed47dcc4b6.epub,0,2000-01-01 01:00:00,2016-04-03 02:51:08,1052000/bf60d441d4ed10af6d9e56ed47dcc4b6-d.jpg,,
22341602,iPhoto '09 For Dummies,,,,Angelo Micheletti,2009,1,For Dummies,,288,0,English,,,0,"047043371X,9780470433713",,,,,,,,,,,0,,,,,,,0,25303961,pdf,3d68975e063030c822125bd794c2060e,,,3d68975e063030c822125bd794c2060e.pdf,0,2000-01-01 01:00:00,2016-04-03 02:51:08,1052000/3d68975e063030c822125bd794c2060e-d.jpg,,
22341603,Software Solutions for Rapid Prototyping,,,,Ian Gibson,2002,1,Wiley,,380,0,English,,,0,"1860583601,9781860583605",,,,,,,,,,,0,,,,,,,0,13065528,pdf,f3d1ced10b10d09fe2c8f3f135040d30,,,f3d1ced10b10d09fe2c8f3f135040d30.pdf,0,2000-01-01 01:00:00,2016-04-03 02:51:08,1052000/f3d1ced10b10d09fe2c8f3f135040d30-d.jpg,,
22341604,UNSOLVED LONDON MURDERS: THE 1920S AND 1930S,,True Crime from Wharncliffe,,Jonathan Oates,2009,,Pen and Sword,,160,0,English,,,0,"1845630750,9781845630751",,,,,,,,,,,0,,,,,,,,18245636,mobi,b4ae8f0b8aa357c94c1f604a04866f41,,,b4ae8f0b8aa357c94c1f604a04866f41.mobi,0,2000-01-01 01:00:00,2016-04-03 02:51:08,1052000/b4ae8f0b8aa357c94c1f604a04866f41-d.jpg,,
22341605,Tales of the Barbarians: Ethnography and Empire in the Roman West,,,,Greg Woolf,2011,1,Wiley-Blackwell,,176,0,English,,,0,"140516073X,9781405160735",,,,,,,,,,,0,,,,,,,0,3852759,pdf,08eef9350301a824b6e760fe90f8851c,,,08eef9350301a824b6e760fe90f8851c.pdf,0,2000-01-01 01:00:00,2016-04-03 02:51:08,1052000/08eef9350301a824b6e760fe90f8851c-d.jpg,,
22341606,Skinny Bitch: Ultimate Everyday Cookbook: Crazy Delicious Recipes that Are Good to the Earth and Great for Your Bod,,,,Kim Barnouin,2010,1,Running Press,,304,0,English,,,0,"0762439378,9780762439379",,,,,,,,,,,0,,,,,,,0,10058777,pdf,9efe10d7d6a5e11edc280ae9e06260dc,,,9efe10d7d6a5e11edc280ae9e06260dc.pdf,0,2000-01-01 01:00:00,2016-04-03 02:51:08,1052000/9efe10d7d6a5e11edc280ae9e06260dc-d.jpg,,
22341607,Power Conversion and Control of Wind Energy Systems,,IEEE Press Series on Power Engineering,,"Bin Wu, Yongqiang Lang, Navid Zargari, Samir Kouro",2011,1,Wiley-IEEE Press,,480,0,English,,,0,"0470593652,9780470593653",,,,,,,,,,,0,,,,,,,0,19766048,pdf,0c0a47c0f20c2cf99af7161f53132998,,,0c0a47c0f20c2cf99af7161f53132998.pdf,0,2000-01-01 01:00:00,2016-04-03 02:51:08,1052000/0c0a47c0f20c2cf99af7161f53132998-d.jpg,,
22341608,"Whistleblowers: Incentives, Disincentives, and Protection Strategies",,Wiley Corporate F&A,,Frederick D. Lipman,2011,1,Wiley,,272,0,English,,,0,"1118094034,9781118094037",,,,,,,,,,,0,,,,,,,0,3669374,pdf,c1cd7888dcec73a834c8e46e03fc4dae,,,c1cd7888dcec73a834c8e46e03fc4dae.pdf,0,2000-01-01 01:00:00,2016-04-03 02:51:08,1052000/c1cd7888dcec73a834c8e46e03fc4dae-d.jpg,,
22341609,"Mary Berry's Supper for Friends: Impressive, Easy-To-Prepare Dishes for Informal Entertaining.",,,,Mary Berry,2011,PB re-issue,DK Publishing (Dorling Kindersley),,256,0,English,,,0,"1405373504,9781405373500",,,,,,,,,,,0,,,,,,,0,53196698,pdf,196251062f8e01c629830de252051b78,,,196251062f8e01c629830de252051b78.pdf,0,2000-01-01 01:00:00,2016-04-03 02:51:08,1052000/196251062f8e01c629830de252051b78-d.jpg,,
22341610,Rough Guides San Francisco Directions,,,,"Mark Ellwood, Rough Guides",2004,,Rough Guides,,128,0,English,,,0,"1843533189,9781843533184",,,,,,,,,,,0,,,,,,,0,6561076,pdf,1437c5de33c736991b3207f1467b3566,,,1437c5de33c736991b3207f1467b3566.pdf,0,2000-01-01 01:00:00,2016-04-03 02:51:08,1052000/1437c5de33c736991b3207f1467b3566-d.jpg,,
22341611,SEC Football: 75 Years of Pride and Passion,,,,Richard Scott,2008,1st,MVP Books,,240,0,English,,,0,"0760332487,9780760332481",,,,,,,,,,,0,,,,,,,0,122332175,pdf,a1894725df6d1c7a970d9295ee6daf26,,,a1894725df6d1c7a970d9295ee6daf26.pdf,0,2000-01-01 01:00:00,2016-04-03 02:51:08,1052000/a1894725df6d1c7a970d9295ee6daf26-d.jpg,,
22341612,Boost.Asio C++ Network Programming,,,,John Torjo,2013,,Packt Publishing,,156,0,English,87,,0,"1782163263,9781782163268",,,,,,,,,,,0,,,,,,,,1163080,epub,8b9e46aef0499a9bda54207bb9fe14f9,,,8b9e46aef0499a9bda54207bb9fe14f9.epub,0,2000-01-01 01:00:00,2016-04-03 02:51:08,1052000/8b9e46aef0499a9bda54207bb9fe14f9-d.jpg,,
22341613,"Coaching, Counseling & Mentoring: How to Choose & Use the Right Technique to Boost Employee Performance",,,,Florence M. Stone,2007,Second Edition,AMACOM,,240,0,English,,,0,"0814473857,9780814473856",,,,,,,,,,,0,,,,,,,0,3542008,pdf,42171020137794a11ec9b1a7a64f863a,,,42171020137794a11ec9b1a7a64f863a.pdf,0,2000-01-01 01:00:00,2016-04-03 02:51:08,1052000/42171020137794a11ec9b1a7a64f863a-d.jpg,,
22341614,The Making of Markova: Diaghilev's Baby Ballerina to Groundbreaking Icon,,,,Tina Sutton,2013,1,Pegasus,,682,0,English,,,0,"1605984566,9781605984568",,,,,,,,,,,0,,,,,,,,10987130,mobi,6e35484889abeff337cedf9ba8785414,,,6e35484889abeff337cedf9ba8785414.mobi,0,2000-01-01 01:00:00,2016-04-03 02:51:08,1052000/6e35484889abeff337cedf9ba8785414-d.jpg,,
22341615,"Gender and Social Computing: Interactions, Differences and Relationships",,Premier Reference Source,,"Celia Romm Livermore, Celia Romm Livermore",2011,1,IGI Global,,343,0,English,,,0,"1609607597,9781609607593",,,,,,,,,,,0,,,,,,,0,8293270,pdf,f05b39aa092734871331d45342e4e323,,,f05b39aa092734871331d45342e4e323.pdf,0,2000-01-01 01:00:00,2016-04-03 02:51:08,1052000/f05b39aa092734871331d45342e4e323-d.jpg,,
22341616,Voice over LTE,,VoLTE,,"Miikka Poikselkä, Harri Holma, Jukka Hongisto, Juha Kallio, Antti Toskala",2012,1,Wiley,,266,0,English,,,0,"1119951682,9781119951681",,,,,,,,,,,0,,,,,,,0,4575489,pdf,2b435fed9ca6794c95dee6545614f6f9,,,2b435fed9ca6794c95dee6545614f6f9.pdf,0,2000-01-01 01:00:00,2016-04-03 02:51:08,1052000/2b435fed9ca6794c95dee6545614f6f9-d.jpg,,
22341617,Wilson,,,,A. Scott Berg,2013,First Edition,Putnam Adult,,832,0,English,,,0,"0399159215,9780399159213",,,,,,,,,,,0,,,,,,,,11564229,epub,bbc207f64797ac291d6a0d3257cfaafb,,,bbc207f64797ac291d6a0d3257cfaafb.epub,0,2000-01-01 01:00:00,2016-04-03 02:51:08,1052000/bbc207f64797ac291d6a0d3257cfaafb-d.jpg,,
22341618,Oracle WebLogic Server 12c Advanced Administration Cookbook,,,,Dalton Iwazaki,2013,,Packt Publishing,,284,0,English,,,0,"184968684X,9781849686846",,,,,,,,,,,0,,,,,,,0,3066659,pdf,b1cdc9ca441044e5573af42eec4b1f90,,,b1cdc9ca441044e5573af42eec4b1f90.pdf,0,2000-01-01 01:00:00,2016-04-03 02:51:08,1052000/b1cdc9ca441044e5573af42eec4b1f90-d.jpg,,
22341619,Methods in Insect Sensory Neuroscience,,Frontiers in Neuroscience,,Thomas A. Christensen,2004,1,CRC Press,,464,0,English,,,0,"0849320240,9780849320248",,,,,,,,,,,0,,,,,,,0,8721819,pdf,9b71b019660eb79b4308667e7805f305,,,9b71b019660eb79b4308667e7805f305.pdf,0,2000-01-01 01:00:00,2016-04-03 02:51:08,1052000/9b71b019660eb79b4308667e7805f305-d.jpg,,
22341620,The First World War,,,,A J P Taylor,1963,1st ed,Hamish Hamilton,,0,0,English,,,0,"0241901871,9780241901878",,,,,,,,,,,0,,,,,,,,21111075,epub,abcfa3b421ca2c794bf8ec5c72abd34f,,,abcfa3b421ca2c794bf8ec5c72abd34f.epub,0,2000-01-01 01:00:00,2016-04-03 02:51:08,1052000/abcfa3b421ca2c794bf8ec5c72abd34f-d.jpg,,
22341621,Hacking For Dummies,,,,Kevin Beaver,2010,3,For Dummies,,408,0,English,,,0,"0470550937,9780470550939",,,,,,,,,,,0,,,,,,,,5535200,epub,390d9dc5a6b4b85ec6e3e531b645c917,,,390d9dc5a6b4b85ec6e3e531b645c917.epub,0,2000-01-01 01:00:00,2016-04-03 02:51:08,1052000/390d9dc5a6b4b85ec6e3e531b645c917-d.jpg,,
22341622,Handbook of Real-World Applications in Modeling and Simulation,,Wiley Handbooks in Operations Research and Management Science,,"John A. Sokolowski, Catherine M. Banks",2012,1,Wiley,,352,0,English,,,0,"1118117778,9781118117774",,,,,,,,,,,0,,,,,,,0,3160470,pdf,fc3a7a0ffcd34d887d7253f4ea25da17,,,fc3a7a0ffcd34d887d7253f4ea25da17.pdf,0,2000-01-01 01:00:00,2016-04-03 02:51:08,1052000/fc3a7a0ffcd34d887d7253f4ea25da17-d.jpg,,
22341623,Be Happy!: Release the Power of Happiness in YOU,,,,Robert Holden Ph.D.,2009,First Edition,Hay House,,312,0,English,,,0,"1401921809,9781401921804",,,,,,,,,,,0,,,,,,,,2971420,epub,ce09845205e6873b6ba5c3b6571b8b34,,,ce09845205e6873b6ba5c3b6571b8b34.epub,0,2000-01-01 01:00:00,2016-04-03 02:51:08,1052000/ce09845205e6873b6ba5c3b6571b8b34-d.jpg,,
22341624,Enterprise Security: A Data-Centric Approach to Securing the Enterprise,,,,Aaron Woody,2013,,Packt Publishing,,324,0,English,,,0,"1849685967,9781849685962",,,,,,,,,,,0,,,,,,,,4897594,epub,96ad0a91b3d24d4c0ddef44f42301c55,,,96ad0a91b3d24d4c0ddef44f42301c55.epub,0,2000-01-01 01:00:00,2016-04-03 02:51:08,1052000/96ad0a91b3d24d4c0ddef44f42301c55-d.jpg,,
22341625,Exposure Therapy for Anxiety: Principles and Practice,,,,"Jonathan S. Abramowitz PhD, Brett J. Deacon PhD, Stephen P. H. Whiteside PhD  ABPP",2010,1,The Guilford Press,,398,0,English,,,0,"160918016X,9781609180164",,,,,,,,,,,0,,,,,,,,4713634,mobi,d9df788b1734fcd5c1a79efd8667ce8c,,,d9df788b1734fcd5c1a79efd8667ce8c.mobi,0,2000-01-01 01:00:00,2016-04-03 02:51:08,1052000/d9df788b1734fcd5c1a79efd8667ce8c-d.jpg,,
22341626,Applications of Data Mining in E-Business and Finance,,Frontiers in Artificial Intelligence and Applications,,Z.-H. Zhou,2008,,IOS Press,,120,0,English,,,0,"1586038907,9781586038908",,,,,,,,,,,0,,,,,,,0,4801345,pdf,70600ef30f12dccede4c9a5819d7623c,,,70600ef30f12dccede4c9a5819d7623c.pdf,0,2000-01-01 01:00:00,2016-04-03 02:51:08,1052000/70600ef30f12dccede4c9a5819d7623c-d.jpg,,
22341627,Before the God in This Place for Good Remembrance: A Comparative Analysis of the Aramaic Votive Inscriptions from Mount Gerizim,,Beihefte Zur Zeitschrift Fur Die Alttestamentliche Wissenschaft,,Anne Katrine De Hemmer Gudme,2013,,Walter De Gruyter Inc,,181,0,English,,,0,"3110301180,9783110301182",,,,,,,,,,,0,,,,,,,0,3931613,pdf,1fb32209ac74885d475761a977756feb,,,1fb32209ac74885d475761a977756feb.pdf,0,2000-01-01 01:00:00,2016-04-03 02:51:08,1052000/1fb32209ac74885d475761a977756feb-d.jpg,,
22341628,Challenging Problems in Algebra,,Dover Books on Mathematics,,"Alfred S. Posamentier, Charles T. Salkind",1996,Dover ed,Dover Publications,,288,0,English,,,0,"0486691489,9780486691480",,,,,,,,,,,0,,,,,,,0,8127921,pdf,b295dfc2d3cc714cbba3639730b7a776,,,b295dfc2d3cc714cbba3639730b7a776.pdf,0,2000-01-01 01:00:00,2016-04-03 02:51:08,1052000/b295dfc2d3cc714cbba3639730b7a776-d.jpg,,
22341629,"GRE For Dummies, Premier 7th Edition, with CD",,,,"Ron Woldoff, Joe Kraynak",2012,7,For Dummies,,384,0,English,,,0,"0470889268,9780470889268",,,,,,,,,,,0,,,,,,,,14308713,mobi,b8ad48ac30e93698e6cb3cb86e49290a,,,b8ad48ac30e93698e6cb3cb86e49290a.mobi,0,2000-01-01 01:00:00,2016-04-03 02:51:08,1052000/b8ad48ac30e93698e6cb3cb86e49290a-d.jpg,,
22341630,Ocean Breezes: Knitted Scarves Inspired by the Sea,,,,Sheryl Thies,2007,,That Patchwork Place,,80,0,English,,,0,"1564778010,9781564778017",,,,,,,,,,,0,,,,,,,0,108878884,pdf,d6b61f4b5563ab65b9298b2a0bbb255f,,,d6b61f4b5563ab65b9298b2a0bbb255f.pdf,0,2000-01-01 01:00:00,2016-04-03 02:51:08,1052000/d6b61f4b5563ab65b9298b2a0bbb255f-d.jpg,,
22341631,Bead & Wire Art Jewelry: Techniques & Designs for all Skill Levels,,,,J. Marsha Michler,2006,3,Krause Publ,,128,0,English,,,0,"087349976X,9780873499767",,,,,,,,,,,0,,,,,,,,6331135,epub,50d61ba32a4ecbe3277805155b3c1db9,,,50d61ba32a4ecbe3277805155b3c1db9.epub,0,2000-01-01 01:00:00,2016-04-03 02:51:08,1052000/50d61ba32a4ecbe3277805155b3c1db9-d.jpg,,
22341632,China and the Developing World: Beijing's Strategy for the Twenty-First Century,,,,"Joshua Eisenman, Eric Heginbotham, Derek Mitchell",2007,,M.E.Sharpe,,232,0,English,,,0,"0765617129,9780765617125",,,,,,,,,,,0,,,,,,,0,7203746,pdf,e5ba94033c4a285a2a1057220c189460,,,e5ba94033c4a285a2a1057220c189460.pdf,0,2000-01-01 01:00:00,2016-04-03 02:51:08,1052000/e5ba94033c4a285a2a1057220c189460-d.jpg,,
22341633,HTML5 Enterprise Application Development,,,,"Nehal Shah, Gabriel José Balda Ortíz",2013,,Packt Publishing,,332,0,English,87,,0,"1849685681,9781849685689",,,,,,,,,,,0,,,,,,,0,8224248,pdf,3be8c01e4f8ecb2c9da7957d791edc6f,,,3be8c01e4f8ecb2c9da7957d791edc6f.pdf,0,2000-01-01 01:00:00,2016-04-03 02:51:08,1052000/3be8c01e4f8ecb2c9da7957d791edc6f-d.jpg,,
22341634,Design of Digital Systems and Devices,,Lecture Notes in Electrical Engineering,,"Marian Adamski, Alexander Barkalov, Marek Wegrzyn",2011,2011,Springer,,384,0,English,,,0,"3642175449,9783642175442",,,,,,,,,,,0,,,,,,,0,5037321,pdf,3fb3abfa550646106a16b3934f60db0d,,,3fb3abfa550646106a16b3934f60db0d.pdf,0,2000-01-01 01:00:00,2016-04-03 02:51:08,1052000/3fb3abfa550646106a16b3934f60db0d-d.jpg,,
22341635,Blow-up in Nonlinear Sobolev Type Equations,,De Gruyter Series in Nonlinear Analysis and Applications,,Alexander B. Al'shin,2011,1,De Gruyter,,648,0,English,,,0,"3110255278,9783110255270",,,,,,,,,,,0,,,,,,,0,3280410,pdf,1d7aa7b094e1863d2ac9eadad34ead32,,,1d7aa7b094e1863d2ac9eadad34ead32.pdf,0,2000-01-01 01:00:00,2016-04-03 02:51:08,1052000/1d7aa7b094e1863d2ac9eadad34ead32-d.jpg,,
22341636,Digital Sculpting with Mudbox: Essential Tools and Techniques for Artists,,,,"Mike de la Flor, Bridgette Mongeon",2010,1,Focal Press,,288,0,English,,,0,"0240812034,9780240812038",,,,,,,,,,,0,,,,,,,0,15851619,pdf,8d61d21c30a469a0d411e73fb4a47ff6,,,8d61d21c30a469a0d411e73fb4a47ff6.pdf,0,2000-01-01 01:00:00,2016-04-03 02:51:08,1052000/8d61d21c30a469a0d411e73fb4a47ff6-d.jpg,,
22341637,Risk Propagation Assessment for Network Security: Application to Airport Communication Network Design,,FOCUS Series,,"Mohamed Slim Ben Mahmoud, Nicolas Larrieu, Aliain Pirovano",2013,1,Wiley-ISTE,,144,0,English,,,0,"1848214545,9781848214545",,,,,,,,,,,0,,,,,,,0,4199981,pdf,6d67aa0c7c57ee6f5e5db03f096f04ac,,,6d67aa0c7c57ee6f5e5db03f096f04ac.pdf,0,2000-01-01 01:00:00,2016-04-03 02:51:08,1052000/6d67aa0c7c57ee6f5e5db03f096f04ac-d.jpg,,
22341638,What They Don't Tell You About Alzheimer's,,,,"Robert \B.G.\"" Bernstein""",2012,,CreateSpace Independent Publishing Platform,,174,0,English,,,0,"1468181483,9781468181487",,,,,,,,,,,0,,,,,,,,1769480,mobi,4273a6aa1f39f754c655e5318fc350e9,,,4273a6aa1f39f754c655e5318fc350e9.mobi,0,2000-01-01 01:00:00,2016-04-03 02:51:08,1052000/4273a6aa1f39f754c655e5318fc350e9-d.jpg,,
22341639,Constituent Interests and U.S. Trade Policies,,Studies in International Economics,,"Alan Verne Deardorff, Robert Mitchell Stern",1999,,University of Michigan Press,,344,0,English,,,0,"0472109324,9780472109326",,,,,,,,,,,0,,,,,,,0,18088308,pdf,bc6e227bf863790035c01e54f9c62d6a,,,bc6e227bf863790035c01e54f9c62d6a.pdf,0,2000-01-01 01:00:00,2016-04-03 02:51:08,1052000/bc6e227bf863790035c01e54f9c62d6a-d.jpg,,
22341640,"The Making of the British Landscape: How We Have Transformed the Land, from Prehistory to Today",,,,Francis Pryor,2010,,Allen Lane,,848,0,English,,,0,"1846142059,9781846142055",,,,,,,,,,,0,,,,,,,,68101065,epub,407c51c45496abba90610460f81af761,,,407c51c45496abba90610460f81af761.epub,0,2000-01-01 01:00:00,2016-04-03 02:51:08,1052000/407c51c45496abba90610460f81af761-d.jpg,,
22341641,Applied Meta-Analysis with R,,Chapman & Hall/CRC Biostatistics Series,,"Ding-Geng (Din) Chen, Karl E. Peace",2013,1,Chapman and Hall/CRC,,342,0,English,,,0,"1466505990,9781466505995",,,,,,,,,,,0,,,,,,,0,3398086,pdf,d645589ea0294f84f85c6240c41616ca,,,d645589ea0294f84f85c6240c41616ca.pdf,0,2000-01-01 01:00:00,2016-04-03 02:51:08,1052000/d645589ea0294f84f85c6240c41616ca-d.jpg,,
22341642,"Neverisms: A Quotation Lover's Guide to Things You Should Never Do, Never Say, or Never Forget",,,,Mardy Grothe,2011,First Edition,Collins Reference,,384,0,English,,,0,"0061970654,9780061970658",,,,,,,,,,,0,,,,,,,,2675513,epub,c78261cbe7ef2eb69297048c99fb1431,,,c78261cbe7ef2eb69297048c99fb1431.epub,0,2000-01-01 01:00:00,2016-04-03 02:51:08,1052000/c78261cbe7ef2eb69297048c99fb1431-d.jpg,,
22341643,"Advances in Chemical Physics, Kinetics and Thermodynamics of Multistep Nucleation and Self-Assembly in Nanoscale Materials",,Volume 151,,"Gregoire Nicolis, Dominique Maes",2012,Volume 151,Wiley,,352,0,English,,,0,"111816783X,9781118167830",,,,,,,,,,,0,,,,,,,0,5392765,pdf,fe7979fa4bafa719b06067778caff5ab,,,fe7979fa4bafa719b06067778caff5ab.pdf,0,2000-01-01 01:00:00,2016-04-03 02:51:08,1052000/fe7979fa4bafa719b06067778caff5ab-d.jpg,,
22341644,"Equine Clinical Medicine, Surgery and Reproduction",,,,"Graham Munroe, Scott Weese",2011,1,CRC Press,,1056,0,English,,,0,"1840761199,9781840761191",,,,,,,,,,,0,,,,,,,0,81630992,pdf,1fdcc90440f976b3de8831238f196505,,,1fdcc90440f976b3de8831238f196505.pdf,0,2000-01-01 01:00:00,2016-04-03 02:51:08,1052000/1fdcc90440f976b3de8831238f196505-d.jpg,,
22341645,Coolhunting: Chasing Down the Next Big Thing,,,,"Peter Gloor, Scott Cooper",2007,First Edition,AMACOM,,256,0,English,,,0,"0814473865,9780814473863",,,,,,,,,,,0,,,,,,,0,4478584,pdf,6f6372601583396575d41af16b079187,,,6f6372601583396575d41af16b079187.pdf,0,2000-01-01 01:00:00,2016-04-03 02:51:08,1052000/6f6372601583396575d41af16b079187-d.jpg,,
22341646,The Asian Tsunami: Aid and Reconstruction After a Disaster,,,,"Sisira Jayasuriya, Peter McCawley, Bhanupong Nidhiprabha, Budy P. Resosudarmo, Dushmi Weerakoon",2011,,Edward Elgar Pub,,272,0,English,,,0,"1848446926,9781848446922",,,,,,,,,,,0,,,,,,,0,3200508,pdf,e3a23b14ed24f15aa296d725cad4c117,,,e3a23b14ed24f15aa296d725cad4c117.pdf,0,2000-01-01 01:00:00,2016-04-03 02:51:08,1052000/e3a23b14ed24f15aa296d725cad4c117-d.jpg,,
22341647,Colorific: Unlock the Secrets of Fabric Selection for Dynamic Quilts,,,,Pam Goecke Dinndorf,2013,,C&T Publishing,,64,0,English,,,0,"1607053632,9781607053637",,,,,,,,,,,0,,,,,,,0,83430318,pdf,6ecbd7537d89c1cb5eb657dd1d9df977,,,6ecbd7537d89c1cb5eb657dd1d9df977.pdf,0,2000-01-01 01:00:00,2016-04-03 02:51:08,1052000/6ecbd7537d89c1cb5eb657dd1d9df977-d.jpg,,
22341648,"Netter's Orthopaedics, 1e",,Netter Clinical Science,,Walter Greene MD,2005,1,Saunders,,512,0,English,,,0,"1929007027,9781929007028",,,,,,,,,,,0,,,,,,,0,36176301,pdf,db3f51d54ca9661e9188838ae3afed52,,,db3f51d54ca9661e9188838ae3afed52.pdf,0,2000-01-01 01:00:00,2016-04-03 02:51:08,1052000/db3f51d54ca9661e9188838ae3afed52-d.jpg,,
22341649,Atlas of Musculoskeletal Ultrasound Anatomy,,,,"Mike Bradley, Paul O'Donnell",2004,,Greenwich Medical Media,,260,0,English,,,0,"1841101184,9781841101187",,,,,,,,,,,0,,,,,,,0,6913253,pdf,548a5d18b22c6eb8f9d6aa66079236c3,,,548a5d18b22c6eb8f9d6aa66079236c3.pdf,0,2000-01-01 01:00:00,2016-04-03 02:51:08,1052000/548a5d18b22c6eb8f9d6aa66079236c3-d.jpg,,
22341650,The New Economics of Sovereign Wealth Funds,,The Wiley Finance Series,,"Massimiliano Castelli, Fabio Scacciavillani",2012,1,Wiley,,228,0,English,,,0,"1119971926,9781119971924",,,,,,,,,,,0,,,,,,,0,3197216,pdf,1ce5485d8982f20d1b402eb3a273cad6,,,1ce5485d8982f20d1b402eb3a273cad6.pdf,0,2000-01-01 01:00:00,2016-04-03 02:51:08,1052000/1ce5485d8982f20d1b402eb3a273cad6-d.jpg,,
22341651,Winter Harvest Cookbook: How to Select and Prepare Fresh Seasonal Produce All Winter Long,,,,Lane Morgan,2010,20th Anniversary Edition,New Society Publishers,,288,0,English,,,0,"086571679X,9780865716797",,,,,,,,,,,0,,,,,,,0,5023641,pdf,e38ae110234bd3d4aac14aa9e0cdc3ba,,,e38ae110234bd3d4aac14aa9e0cdc3ba.pdf,0,2000-01-01 01:00:00,2016-04-03 02:51:08,1052000/e38ae110234bd3d4aac14aa9e0cdc3ba-d.jpg,,
22341652,"Gifts, Talents and Education: A Living Theory Approach",,,,"Barry Hymer, Jack Whitehead, Marie Huxtable",2008,,Wiley,,194,0,English,,,0,"0470725397,9780470725399",,,,,,,,,,,0,,,,,,,0,3604767,pdf,aff9e2395de73a54a3eceea903a67b8f,,,aff9e2395de73a54a3eceea903a67b8f.pdf,0,2000-01-01 01:00:00,2016-04-03 02:51:08,1052000/aff9e2395de73a54a3eceea903a67b8f-d.jpg,,
22341653,The Real MCTS/MCITP  Exam 70-620 Prep Kit: Independent and Complete Self-Paced Solutions,,,,"Jesse Varsalone, Kelly Brown, Robert J. Shimonski, Jan Kanclirz, Ron Barrett, Mitch Garvis, Tony Piltzecker",2008,,Syngress,,600,0,English,,,0,"1597492337,9781597492331",,,,,,,,,,,0,,,,,,,0,29535502,pdf,39641f9ebb90eb73c5a7ba4605175280,,,39641f9ebb90eb73c5a7ba4605175280.pdf,0,2000-01-01 01:00:00,2016-04-03 02:51:08,1052000/39641f9ebb90eb73c5a7ba4605175280-d.jpg,,
22341654,Happy This Year!: The Secret to Getting Happy Once and for All,,,,Will Bowen,2013,Unabridged,Grand Harbor Press,,215,0,English,,,0,"1611098955,9781611098952",,,,,,,,,,,0,,,,,,,,3207828,epub,19b5bae0e7cc67a8aa7c7ef9fa276a26,,,19b5bae0e7cc67a8aa7c7ef9fa276a26.epub,0,2000-01-01 01:00:00,2016-04-03 02:51:08,1052000/19b5bae0e7cc67a8aa7c7ef9fa276a26-d.jpg,,
22341655,International Handbook of Workplace Trauma Support,,,,"Rick Hughes, Andrew Kinder, Cary L. Cooper",2012,1,Wiley-Blackwell,,544,0,English,,,0,"0470974133,9780470974131",,,,,,,,,,,0,,,,,,,0,5372460,pdf,ba0b55c02523651d15f7b9838d60275c,,,ba0b55c02523651d15f7b9838d60275c.pdf,0,2000-01-01 01:00:00,2016-04-03 02:51:08,1052000/ba0b55c02523651d15f7b9838d60275c-d.jpg,,
22341656,"Goddesses, Whores, Wives, and Slaves: Women in Classical Antiquity",,,,Sarah Pomeroy,1995,,Schocken,,304,0,English,,,0,"080521030X,9780805210309",,,,,,,,,,,0,,,,,,,,2914465,mobi,06b62d0817f76284cc151c0790c7b45c,,,06b62d0817f76284cc151c0790c7b45c.mobi,0,2000-01-01 01:00:00,2016-04-03 02:51:08,1052000/06b62d0817f76284cc151c0790c7b45c-d.jpg,,
22341657,"Plato's \\""Sophist\""\"" Revisited""",,Trends in Classics,,Beatriz Bossi,2013,,de Gruyter,,312,0,English,,,0,"3110286955,9783110286953",,,,,,,,,,,0,,,,,,,0,3454965,pdf,077fe4cca2a955dacbc4405b8a1aac59,,,077fe4cca2a955dacbc4405b8a1aac59.pdf,0,2000-01-01 01:00:00,2016-04-03 02:51:08,1052000/077fe4cca2a955dacbc4405b8a1aac59-d.jpg,,
22341658,"Web Application Architecture: Principles, Protocols and Practices",,,,"Leon Shklar, Rich Rosen",2009,2,Wiley,,440,0,English,,,0,"047051860X,9780470518601",,,,,,,,,,,0,,,,,,,,10531514,mobi,b5831e64ef0787f686d7c1b811991381,,,b5831e64ef0787f686d7c1b811991381.mobi,0,2000-01-01 01:00:00,2016-04-03 02:51:08,1052000/b5831e64ef0787f686d7c1b811991381-d.jpg,,
22341659,International Migration: A Very Short Introduction,,,,Khalid Koser,2007,,Oxford University Press,,138,0,English,,,0,"0199298017,9780199298013",,,,,,,,,,,0,,,,,,,0,3190364,pdf,7ac78258ce1b1fec9382130393c8dfa9,,,7ac78258ce1b1fec9382130393c8dfa9.pdf,0,2000-01-01 01:00:00,2016-04-03 02:51:08,1052000/7ac78258ce1b1fec9382130393c8dfa9-d.jpg,,
22341660,Palliative Nursing: Across the Spectrum of Care,,,,"Elaine Stevens, Susan Jackson, Stuart Milligan",2009,1,Wiley-Blackwell,,352,0,English,,,0,"1405169974,9781405169974",,,,,,,,,,,0,,,,,,,0,3401480,pdf,38ba52caf39bcfe024ba69f38eea9c2d,,,38ba52caf39bcfe024ba69f38eea9c2d.pdf,0,2000-01-01 01:00:00,2016-04-03 02:51:08,1052000/38ba52caf39bcfe024ba69f38eea9c2d-d.jpg,,
22341661,For the Love of Physics: From the End of the Rainbow to the Edge Of Time - A Journey Through the Wonders of Physics,,,,"Walter Lewin, Warren Goldstein",2011,1,Free Press,,320,0,English,,,0,"1439108277,9781439108277",,,,,,,,,,,0,,,,,,,,2749841,mobi,a9cee49c4ff4db011595cd041e68c903,,,a9cee49c4ff4db011595cd041e68c903.mobi,0,2000-01-01 01:00:00,2016-04-03 02:51:08,1052000/a9cee49c4ff4db011595cd041e68c903-d.jpg,,
22341662,The Cambridge History of Hellenistic Philosophy,,,,"Keimpe Algra, Jonathan Barnes, Jaap Mansfeld, Malcolm Schofield",2000,,Cambridge University Press,,936,0,English,,,0,"0521250285,9780521250283",,,,,,,,,,,0,,,,,,,0,4297559,pdf,71e03e1f244eb2999316c9a8a0fed2bb,,,71e03e1f244eb2999316c9a8a0fed2bb.pdf,0,2000-01-01 01:00:00,2016-04-03 02:51:08,1052000/71e03e1f244eb2999316c9a8a0fed2bb-d.jpg,,
22341663,Taming the Money Sharks: 8 Super-Easy Stock Investment Maxims,,,,Philip Shu-Ying Cheng,2013,1,Wiley,,200,0,English,,,0,"1118550420,9781118550427",,,,,,,,,,,0,,,,,,,0,3178802,pdf,53b14453b743d83ddc05fc3e6851afaf,,,53b14453b743d83ddc05fc3e6851afaf.pdf,0,2000-01-01 01:00:00,2016-04-03 02:51:08,1052000/53b14453b743d83ddc05fc3e6851afaf-d.jpg,,
22341664,Professional Refactoring in C# & ASP.NET,,,,Danijel Arsenovski,2009,1,Wrox,,517,0,English,92,,0,"047043452X,9780470434529",,,,,,,,,,,0,,,,,,,0,4399051,pdf,400024c0c09f5c8099ba8268524e16d8,,,400024c0c09f5c8099ba8268524e16d8.pdf,0,2000-01-01 01:00:00,2016-04-03 02:51:08,1052000/400024c0c09f5c8099ba8268524e16d8-d.jpg,,
22341665,"Daily Science, Grade 4",,,,Evan-Moor Educational Publishers,2009,Tch,Evan-Moor Educational Publishers,,192,0,English,,,0,"1596739282,9781596739284",,,,,,,,,,,0,,,,,,,0,20396539,pdf,5ad58256a0ad613e78f6be9eea958866,,,5ad58256a0ad613e78f6be9eea958866.pdf,0,2000-01-01 01:00:00,2016-04-03 02:51:08,1052000/5ad58256a0ad613e78f6be9eea958866-d.jpg,,
22341666,1702 Kliszów,,Historyczne Bitwy 058,,Marek Wagner,1994,,,,250,0,Polish,,,0,,,,,,,,,,,,0,,,,,,,1,5361074,pdf,7ca65beebdee7ba79d2b50dfcb028ea6,,,058. Historyczne Bitwy - 1702 Kliszów,0,2000-01-01 01:00:00,2016-04-03 02:51:08,1052000/7ca65beebdee7ba79d2b50dfcb028ea6-g.jpg,,
22341667,Нейромаркетинг. Визуализация эмоций,,,,Арндт Трайндл,2009,2,Альпина Паблишер,,0,0,Russian,,,0,"978-5-9614-1125-6, 978-3-85499-234-9",,,,,,,,,,,0,,,,,,,0,12382766,pdf,6767ec1a571edd8fadaa617b64e73b79,,,Нейромаркетинг Визуализация эмоций,0,2000-01-01 01:00:00,2016-04-03 02:51:08,1052000/6767ec1a571edd8fadaa617b64e73b79-d.jpg,,
22341668,Η Πολιτική Οικονομία της Ανάπτυξης,,,,Paul A. Baran,1977,,Κάλβος,,418,0,Greek,,,0,,,,,,,,,,,,600,,,0,,1,1,0,16482420,pdf,a2d37fbf5fce5070bccb2ccecba36719,,,H_politikoh_oikonomia_ths_anaptykshs,0,2000-01-01 01:00:00,2016-04-03 02:51:08,1052000/a2d37fbf5fce5070bccb2ccecba36719-g.jpg,,
22341669,Η Πολιτική Οικονομία της Ανάπτυξης,,,,Paul A. Baran,1977,,Κάλβος,,418,0,Greek,,,0,,,,,,,,,,,,600,,,0,,1,1,0,6026108,djvu,f11cc5e2fdc6a30c0bab4e48210912b1,,,H_politikoh_oikonomia_ths_anaptykshs,0,2000-01-01 01:00:00,2016-04-03 02:51:08,1052000/f11cc5e2fdc6a30c0bab4e48210912b1-g.jpg,,
22341670,Statistics for Agricultural Sciences,,,,Nageswara Rao,2007,,BS Publications,,486,0,English,113,,0,8178001411,,,,,,,,,,,0,,,,,,,1,15699835,pdf,e1ce361f66aa78396b2a43db2c041ae9,,,Statistics for Agricultural Sciences,0,2000-01-01 01:00:00,2016-04-03 02:51:08,1052000/e1ce361f66aa78396b2a43db2c041ae9-g.jpg,,
22341671,Brainstorming for One: 50 Werkzeuge und Übungen für Ihre Kreativität. Ein Seminar in Buchform,,,,Petra Hennrich,2013,,Junfermann,,217,0,German,,,0,"3873879646,9783873879645",,B00ENE2688,,,,,,,,,0,,,,,,,,3289099,epub,c64d05963f9c7f1ce0a2ea4d65abf77e,,,Brainstorming_for_One,0,2000-01-01 01:00:00,2016-04-03 02:51:08,1052000/c64d05963f9c7f1ce0a2ea4d65abf77e-d.jpg,,
22341672,Best of Basics: Unschlagbar: Die Lieblingsrezepte aus allen Basics. Einfach genial!,,GU Basic cooking,,"Cornelia Schinharl, Sebastian Dickhaut, Tanja Dusy",2013,,Gräfe & Unzer Verlag,,288,0,German,,,0,"3833833343,9783833833342",,B00BS2IHA4,,,,,,,,,0,,,,,,,,44607276,epub,4674885d652f67dae70dd090bd4128f3,,,Best_of_Basics_-_unschlagbar_-_die_Lieblingsreze,0,2000-01-01 01:00:00,2016-04-03 02:51:08,1052000/4674885d652f67dae70dd090bd4128f3-d.jpg,,
22341673,Finanzmarktstatistik,,,,Friedrich Schmid,2006,,Springer Berlin Heidelberg,,278,0,German,,,0,"3540277234,9783540277231",,,,,,,,,,,0,,,,,,,1,4509635,pdf,6937fe745b4a6923569df42a21c3dc20,,,Schmid_Trede-Finanzmarkstatistik,0,2000-01-01 01:00:00,2016-04-03 02:51:08,1052000/6937fe745b4a6923569df42a21c3dc20-d.jpg,,
22341674,1943 Charków -Donbas,,Historyczne Bitwy 158,,,,,,,271,0,,,,0,,,,,,,,,,,,0,,,,,,,1,4533363,pdf,9aa47403b6a88f34ba19908ade5b9eb1,,,158. Historyczne Bitwy - 1943 Charków -Donbas,0,2000-01-01 01:00:00,2016-04-03 02:51:08,1052000/9aa47403b6a88f34ba19908ade5b9eb1-g.jpg,,
22341675,Average Is Over: Powering America Beyond the Age of the Great Stagnation,,,,Tyler Cowen,2013,,Dutton Adult,,304,0,English,,,0,"0525953736,9780525953739",,,,,,,,,,,0,,,,,,,,501455,epub,dff183cd4bbc04ec4e2e11e09043ee63,,,Average Is Over - Tyler Cowen,0,2000-01-01 01:00:00,2016-04-03 02:51:08,1052000/dff183cd4bbc04ec4e2e11e09043ee63-d.jpg,,
22341676,Platon,,Que sais-je?,,Jean-François Mattéi,2010,3e édition,Presses Universitaires de France - PUF,,129,0,Français,195,,0,"2130578756,9782130578758",,,,,,,,,,,600,,,,,1,,1,1722458,djvu,d7bda4006b5f27028d03073fbdf7fbe2,,,Platon,0,2000-01-01 01:00:00,2016-04-03 02:51:08,1052000/d7bda4006b5f27028d03073fbdf7fbe2-d.jpg,,
22341677,Statistics for Veterinary and Animal Science,,,,"Aviva Petrie, Paul Watson",2013,3,Wiley-Blackwell,,414,0,English,113,,0,"0470670754,9780470670750",,,,,,,,,,,0,,,,1,,1,1,11716560,pdf,7866d9c75fd3dfc300c7218a386c6f4c,,,"Statistics for Veterinary and Animal Science, Third Edition",0,2000-01-01 01:00:00,2016-04-03 02:51:08,1052000/7866d9c75fd3dfc300c7218a386c6f4c-d.jpg,,
22341678,Handbook of Steel Connection Design and Details,,,,Akbar Tamboli,2009,2,McGraw-Hill Professional,,656,0,English,,,0,"0071550054,9780071550055",,,,,,,,,,,0,,,,,,,0,24605843,pdf,c80ba4aedf4fd3910138edd527c1f515,,,AISC-05B Handbook of strcutural steel Connection Design and Detail_Akbar R Tamboli_2nd ED-2010-0071550055,0,2000-01-01 01:00:00,2016-04-03 02:51:08,1052000/c80ba4aedf4fd3910138edd527c1f515-d.jpg,,
22341679,Civil Engineering: Foundations and Retaining Structures,,Civil Engineering (Engineering Press),,Alan Williams,2003,,Kaplan AEC Education,,0,0,English,,,0,"0793185076,9780793185078",,,,,,,,,,,0,,,,,,,0,3659191,pdf,e2a480bb83e7a45414676fed0c724cc5,,,Civil Engineering Foundations and Retaining Structures by Alan Williams-2003-0793185076,0,2000-01-01 01:00:00,2016-04-03 02:51:08,1052000/e2a480bb83e7a45414676fed0c724cc5-d.jpg,,
22341680,Η Πολιτική Οικονομία της Σχεδιασμένης Οικονομίας,,,,Paul A. Baran,1980,,Κάλβος,,128,0,Greek,,,0,,,,,,,,,,,,600,,,0,,1,1,1,3382553,pdf,2b75ec6a8a937cd2b4bf84ce7bce1ebb,,,politikh_oikonomia_ths_sxediasmenhs_oikonomias,0,2000-01-01 01:00:00,2016-04-03 02:51:08,1052000/2b75ec6a8a937cd2b4bf84ce7bce1ebb-g.jpg,,
22341681,Η Πολιτική Οικονομία της Σχεδιασμένης Οικονομίας,,,,Paul A. Baran,1980,,Κάλβος,,128,0,Greek,,,0,,,,,,,,,,,,600,,,0,,1,1,1,1184477,djvu,e3706a96565f8f1c3113268e20c299f6,,,politikh_oikonomia_ths_sxediasmenhs_oikonomias,0,2000-01-01 01:00:00,2016-04-03 02:51:08,1052000/e3706a96565f8f1c3113268e20c299f6-g.jpg,,
22341682,Structural Engineering Reference Manual,,,,Alan Williams PhD  SE  FICE  C Eng,2008,"Fourth Edition, New Edition","Professional Publications, Inc.",,344,0,English,,,0,"1591261198,9781591261193",,,,,,,,,,,0,,,,,,,0,28418760,pdf,5cdcfbc9a995fb994a9a87a79160e51f,,,Structural Engineering Reference Manual by Alan Williams-4th Ed-2008- 1591261198_ACI AISC ASCE7,0,2000-01-01 01:00:00,2016-04-03 02:51:08,1052000/5cdcfbc9a995fb994a9a87a79160e51f-d.jpg,,
22341683,Introduction to Logic,,,,"Irving M. Copi, Carl Cohen, Kenneth McMahon",2013,International ed of 14th revised ed,Pearson Education Limited,,665,0,Englisch,,,0,"1292024828,9781292024820",,,,,,,,,,,0,,,,,,,1,11549066,pdf,faec84b0a84d6bb0317f6f66ed367e11,,,Introduction to Logic 14th International Edition,0,2000-01-01 01:00:00,2016-04-03 02:51:08,1052000/faec84b0a84d6bb0317f6f66ed367e11-d.jpg,,
22341684,Rush to Glory: FORMULA 1 Racing's Greatest Rivalry,,,,"Tom Rubython, Rainer Schlegelmilch, John Watson",2013,Reprint,Lyons Press,,320,0,English,,,0,"0762791977,9780762791972",,,,,,,,,,,0,,,,,,,,8694297,epub,2cb59af311f3bd6539fcc2a80b56de1c,,,2cb59af311f3bd6539fcc2a80b56de1c.epub,0,2000-01-01 01:00:00,2016-04-03 02:51:08,1052000/2cb59af311f3bd6539fcc2a80b56de1c-d.jpg,,
22341685,This Land: The Battle over Sprawl and the Future of America,,,,Anthony Flint,2006,1,Johns Hopkins University Press,,312,0,English,,,0,"0801884195,9780801884191",,,,,,,,,,,0,,,,,,,0,3192115,pdf,0d0f4c475134315e763afd11d2b2d412,,,0d0f4c475134315e763afd11d2b2d412.pdf,0,2000-01-01 01:00:00,2016-04-03 02:51:08,1052000/0d0f4c475134315e763afd11d2b2d412-d.jpg,,
22341686,Essential Yoga: An Illustrated Guide to Over 100 Yoga Poses and Meditations,,,,"Olivia H. Miller, Nicole Kauffman",2004,First Edition,Chronicle Books,,240,0,English,,,0,"0811841154,9780811841153",,,,,,,,,,,0,,,,,,,,24729111,mobi,f00fc16b56f81a969cee9330fff44037,,,f00fc16b56f81a969cee9330fff44037.mobi,0,2000-01-01 01:00:00,2016-04-03 02:51:08,1052000/f00fc16b56f81a969cee9330fff44037-d.jpg,,
22341687,"Asian Rivalries: Conflict, Escalation, and Limitations on Two-level Games",,,,"Sumit Ganguly, William Thompson",2011,,Stanford Security Studies,,272,0,English,,,0,"0804775966,9780804775960",,,,,,,,,,,0,,,,,,,0,3383541,pdf,6e60933c969b58309c48c6edd4e68034,,,6e60933c969b58309c48c6edd4e68034.pdf,0,2000-01-01 01:00:00,2016-04-03 02:51:08,1052000/6e60933c969b58309c48c6edd4e68034-d.jpg,,
22341688,"Fluorinated Surfactants and Repellents, Second Edition,",,Surfactant Science,,Erik Kissa,2001,2,CRC Press,,640,0,English,,,0,"082470472X,9780824704728",,,,,,,,,,,0,,,,,,,0,74839,pdf,e176c9d3815a93a50f13c76840951a98,EEA62106935C4E241370A0BDA252F56F,no,e176c9d3815a93a50f13c76840951a98.pdf,0,2000-01-01 01:00:00,2016-04-03 02:51:08,1052000/e176c9d3815a93a50f13c76840951a98-d.jpg,,
22341689,"Fluorinated Surfactants and Repellents, Second Edition,",,Surfactant Science,,Erik Kissa,2001,2,CRC Press,,640,0,English,,,0,"082470472X,9780824704728",,,,,,,,,,,0,,,,,,,0,92092,pdf,6174c47cb31a737fa69387837410f744,EEA62106935C4E241370A0BDA252F56F,no,6174c47cb31a737fa69387837410f744.pdf,0,2000-01-01 01:00:00,2016-04-03 02:51:08,1052000/6174c47cb31a737fa69387837410f744-d.jpg,,
22341690,"Fluorinated Surfactants and Repellents, Second Edition,",,Surfactant Science,,Erik Kissa,2001,2,CRC Press,,640,0,English,,,0,"082470472X,9780824704728",,,,,,,,,,,0,,,,,,,0,68300,pdf,3a450e3992f811d12750c488844a575f,EEA62106935C4E241370A0BDA252F56F,no,3a450e3992f811d12750c488844a575f.pdf,0,2000-01-01 01:00:00,2016-04-03 02:51:08,1052000/3a450e3992f811d12750c488844a575f-d.jpg,,
22341691,"Fluorinated Surfactants and Repellents, Second Edition,",,Surfactant Science,,Erik Kissa,2001,2,CRC Press,,640,0,English,,,0,"082470472X,9780824704728",,,,,,,,,,,0,,,,,,,0,70692,pdf,5196b2e99d9f3a5aa271a35662ef1170,EEA62106935C4E241370A0BDA252F56F,no,5196b2e99d9f3a5aa271a35662ef1170.pdf,0,2000-01-01 01:00:00,2016-04-03 02:51:08,1052000/5196b2e99d9f3a5aa271a35662ef1170-d.jpg,,
22341692,"Fluorinated Surfactants and Repellents, Second Edition,",,Surfactant Science,,Erik Kissa,2001,2,CRC Press,,640,0,English,,,0,"082470472X,9780824704728",,,,,,,,,,,0,,,,,,,0,86128,pdf,a4c8e2ad3a38788b061c14d5a596a5f7,EEA62106935C4E241370A0BDA252F56F,no,a4c8e2ad3a38788b061c14d5a596a5f7.pdf,0,2000-01-01 01:00:00,2016-04-03 02:51:08,1052000/a4c8e2ad3a38788b061c14d5a596a5f7-d.jpg,,
22341693,"Innovation for sustainable aviation in a global environment: Proceedings of the sixth European Aeronautics Days, Madrid, 30 March–1 April 2011",,,,"Dietrich Knörzer, Joachim Szodruch (editors)",2012,,IOS Press,,504,0,English,,,0,"161499062X, 9781614990628, 9279229680, 9789279229688, 1614990638, 9781614990635",,,,,,TD195.A27 I56 2012,10.2777/69176,xgGJgHvYMAIC,,,0,,1,,,0,1,1,23288515,pdf,2b077ecae5e89d206965ef8242ffebd1,,,Innovation for sustainable aviation in a global environment (2012),0,2000-01-01 01:00:00,2016-04-03 02:51:08,1052000/2b077ecae5e89d206965ef8242ffebd1-d.jpg,,
22341694,"Kapitalismus und Architektur: Von Corbusiers \Utopia\"" zur Trabantenstadt""",,Analysen zum Planen und Bauen 9,,Manfredo Tafuri,1977,,VSA,Hamburg,151,0,German,58,,0,3-87975-069-6,,,,,,,,,,,0,,,,,,,1,8592096,pdf,d37b580e1859f343ba68a2e465356379,,,"Tafuri, Kapitalismus _amp; Architektur",0,2000-01-01 01:00:00,2016-04-03 02:51:08,1052000/d37b580e1859f343ba68a2e465356379-g.jpg,,
22341695,"The Visioneers: How a Group of Elite Scientists Pursued Space Colonies, Nanotechnologies, and a Limitless Future",,,,W. Patrick McCray,2012,,Princeton University Press,,368,0,English,,,0,"0691139830,9780691139838",,,,,,,,,,,0,,,,,,,,1565719,epub,468f258115489b82ca894e20e97062d5,,,468f258115489b82ca894e20e97062d5.epub,0,2000-01-01 01:00:00,2016-04-03 02:51:08,1052000/468f258115489b82ca894e20e97062d5-d.jpg,,
22341696,"Fluorinated Surfactants and Repellents, Second Edition,",,Surfactant Science,,Erik Kissa,2001,2,CRC Press,,640,0,English,,,0,"082470472X,9780824704728",,,,,,,,,,,0,,,,,,,0,76872,pdf,d05e4a58c8596afda6ecbcd4abc6352d,EEA62106935C4E241370A0BDA252F56F,no,d05e4a58c8596afda6ecbcd4abc6352d.pdf,0,2000-01-01 01:00:00,2016-04-03 02:51:08,1052000/d05e4a58c8596afda6ecbcd4abc6352d-d.jpg,,
22341697,"Fluorinated Surfactants and Repellents, Second Edition,",,Surfactant Science,,Erik Kissa,2001,2,CRC Press,,640,0,English,,,0,"082470472X,9780824704728",,,,,,,,,,,0,,,,,,,0,80451,pdf,6af469f91bc58144fa34d451a2d0a2b6,EEA62106935C4E241370A0BDA252F56F,no,6af469f91bc58144fa34d451a2d0a2b6.pdf,0,2000-01-01 01:00:00,2016-04-03 02:51:08,1052000/6af469f91bc58144fa34d451a2d0a2b6-d.jpg,,
22341698,"Fluorinated Surfactants and Repellents, Second Edition,",,Surfactant Science,,Erik Kissa,2001,2,CRC Press,,640,0,English,,,0,"082470472X,9780824704728",,,,,,,,,,,0,,,,,,,0,67941,pdf,fde56ef2e913ec295d6d971b778330f3,EEA62106935C4E241370A0BDA252F56F,no,fde56ef2e913ec295d6d971b778330f3.pdf,0,2000-01-01 01:00:00,2016-04-03 02:51:08,1052000/fde56ef2e913ec295d6d971b778330f3-d.jpg,,
22341699,Great Inventions that Changed the World,,,,James Wei,2012,1,Wiley-AIChE,,360,0,English,,,0,"0470768177,9780470768174",,,,,,,,,,,0,,,,,,,0,3236686,pdf,5a6b92e0c016fd54fdfc3716d7461190,,,5a6b92e0c016fd54fdfc3716d7461190.pdf,0,2000-01-01 01:00:00,2016-04-03 02:51:08,1052000/5a6b92e0c016fd54fdfc3716d7461190-d.jpg,,
22341700,"Fluorinated Surfactants and Repellents, Second Edition,",,Surfactant Science,,Erik Kissa,2001,2,CRC Press,,640,0,English,,,0,"082470472X,9780824704728",,,,,,,,,,,0,,,,,,,0,78458,pdf,4a9c0c1d92c39313eecfcb0af0e0bc88,EEA62106935C4E241370A0BDA252F56F,no,4a9c0c1d92c39313eecfcb0af0e0bc88.pdf,0,2000-01-01 01:00:00,2016-04-03 02:51:08,1052000/4a9c0c1d92c39313eecfcb0af0e0bc88-d.jpg,,
22341701,"Fluorinated Surfactants and Repellents, Second Edition,",,Surfactant Science,,Erik Kissa,2001,2,CRC Press,,640,0,English,,,0,"082470472X,9780824704728",,,,,,,,,,,0,,,,,,,0,58570,pdf,cb917966d780831350c3ef0c23098732,EEA62106935C4E241370A0BDA252F56F,no,cb917966d780831350c3ef0c23098732.pdf,0,2000-01-01 01:00:00,2016-04-03 02:51:08,1052000/cb917966d780831350c3ef0c23098732-d.jpg,,
22341702,What They Don't Tell You About Alzheimer's,,,,"Robert \B.G.\"" Bernstein""",2012,,CreateSpace Independent Publishing Platform,,174,0,English,,,0,"1468181483,9781468181487",,,,,,,,,,,0,,,,,,,,343649,epub,285fb4f1c21e4e4010c8cbf55ea97ff4,,,285fb4f1c21e4e4010c8cbf55ea97ff4.epub,0,2000-01-01 01:00:00,2016-04-03 02:51:08,1052000/285fb4f1c21e4e4010c8cbf55ea97ff4-d.jpg,,
22341703,1660 Połonka-Basia,,Historyczne Bitwy 135,,,,,,,358,0,Polish,,,0,,,,,,,,,,,,0,,,,,,,1,5146807,pdf,cbe07a2618fb8dcf848b56aac948bc57,,,135. Historyczne Bitwy - 1660 Połonka-Basia,0,2000-01-01 01:00:00,2016-04-03 02:51:08,1052000/cbe07a2618fb8dcf848b56aac948bc57-g.jpg,,
22341704,Getting Results the Agile Way: A Personal Results System for Work and Life,,,,"J.D. Meier, Michael Kropp",2010,,Innovation Playhouse,,272,0,English,,,0,"0984548203,9780984548200",,,,,,,,,,,0,,,,,,,,1424477,mobi,13aacc81c01f58516913b074ef137492,,,13aacc81c01f58516913b074ef137492.mobi,0,2000-01-01 01:00:00,2016-04-03 02:51:08,1052000/13aacc81c01f58516913b074ef137492-d.jpg,,
22341705,From A to Bee: My First Year as a Beginner Beekeeper,,,,James Dearsley,2013,,Summersdale,,288,0,English,,,0,"1849532729,9781849532723",,,,,,,,,,,0,,,,,,,,484386,mobi,9998d772e169eb47883d1120661bcb46,,,9998d772e169eb47883d1120661bcb46.mobi,0,2000-01-01 01:00:00,2016-04-03 02:51:08,1052000/9998d772e169eb47883d1120661bcb46-d.jpg,,
22341706,Frequently Asked Questions in Quantitative Finance,,Wiley Series in Financial Engineering,,Paul Wilmott,2006,,John Wiley & Sons,,428,0,English,,,0,"0470058269,9780470058268",,,,,,,,,,,0,,,,,,,,2881955,epub,4e9baa2af340af71a1d07959a1cf252d,,,4e9baa2af340af71a1d07959a1cf252d.epub,0,2000-01-01 01:00:00,2016-04-03 02:51:08,1052000/4e9baa2af340af71a1d07959a1cf252d-d.jpg,,
22341707,Earthquake Prediction by Seismic Electric Signals: The success of the VAN method over thirty years,,Springer-Praxis books - in geophysical sciences.,,Mary S. Lazaridou-Varotsos (auth.),2013,1,Springer-Verlag Berlin Heidelberg,,254,0,English,,,0,"9783642244063,3642244068,364224405X,9783642244056",,,,,,,10.1007/978-3-642-24406-3,,,,0,,,,,,,1,5445705,pdf,28dca2ba0fa622925ded242749596081,,,10.1007/978-3-642-24406-3,0,2000-01-01 01:00:00,2016-04-03 02:51:08,1052000/28dca2ba0fa622925ded242749596081-d.jpg,,
22341708,Μπερλίνγκουερ,,,,Βιττόριο Γκορέζιο,χ.χ.,,Αρίων,,314,0,Greek,64,,0,,,,,,,,,,,,600,,,0,,1,1,0,11325692,pdf,548e82765c7cd4ca440660de9ae9367e,,,Berlinguer,0,2000-01-01 01:00:00,2016-04-03 02:51:08,1052000/548e82765c7cd4ca440660de9ae9367e-g.jpg,,
22341709,Μπερλίνγκουερ,,,,Βιττόριο Γκορέζιο,χ.χ.,,Αρίων,,314,0,Greek,64,,0,,,,,,,,,,,,600,,,0,,1,1,0,2216083,djvu,2df9526b2c583231791cdc13ad689c08,,,Berlinguer,0,2000-01-01 01:00:00,2016-04-03 02:51:08,1052000/2df9526b2c583231791cdc13ad689c08-g.jpg,,
22341710,The Qur'an,,Oxford World's Classics,,M. A. S. Abdel Haleem,2005,,"Oxford University Press, USA",,502,0,English,,,0,"0192831933,9780192831934",,,,,,,,,,,0,,,,,,,0,5738863,pdf,77b9f0a19ca438f097d104aee8538a5e,,,77b9f0a19ca438f097d104aee8538a5e.pdf,0,2000-01-01 01:00:00,2016-04-03 02:51:08,1052000/77b9f0a19ca438f097d104aee8538a5e-d.jpg,,
22341711,The Wiley-Blackwell Handbook of Addiction Psychopharmacology,,,,"James MacKillop, Harriet de Wit",2013,1,Wiley-Blackwell,,782,0,English,,,0,"1119978262,9781119978268",,,,,,,,,,,0,,,,,,,0,4954243,pdf,2dea79646a5d92240c2e64b1a714534a,,,2dea79646a5d92240c2e64b1a714534a.pdf,0,2000-01-01 01:00:00,2016-04-03 02:51:08,1052000/2dea79646a5d92240c2e64b1a714534a-d.jpg,,
22341712,Ragnar's Urban Survival: A Hard-Times Guide to Staying Alive in the City,,,,Ragnar Benson,2000,,Paladin Press,,200,0,English,,,0,"1581600593,9781581600599",,,,,,,,,,,0,,,,,,,,3755315,epub,9418c0913c72b5706f161a2875f3182f,,,9418c0913c72b5706f161a2875f3182f.epub,0,2000-01-01 01:00:00,2016-04-03 02:51:08,1052000/9418c0913c72b5706f161a2875f3182f-d.jpg,,
22341713,"Fluorinated Surfactants and Repellents, Second Edition,",,Surfactant Science,,Erik Kissa,2001,2,CRC Press,,640,0,English,,,0,"082470472X,9780824704728",,,,,,,,,,,0,,,,,,,0,89571,pdf,caea8f25876085c6c7fd560bf0992044,EEA62106935C4E241370A0BDA252F56F,no,caea8f25876085c6c7fd560bf0992044.pdf,0,2000-01-01 01:00:00,2016-04-03 02:51:08,1052000/caea8f25876085c6c7fd560bf0992044-d.jpg,,
22341714,"Fluorinated Surfactants and Repellents, Second Edition,",,Surfactant Science,,Erik Kissa,2001,2,CRC Press,,640,0,English,,,0,"082470472X,9780824704728",,,,,,,,,,,0,,,,,,,0,66638,pdf,4bdfd8636828e447b660b930af5d8841,EEA62106935C4E241370A0BDA252F56F,no,4bdfd8636828e447b660b930af5d8841.pdf,0,2000-01-01 01:00:00,2016-04-03 02:51:08,1052000/4bdfd8636828e447b660b930af5d8841-d.jpg,,
22341715,Black Faces in White Places: 10 Game-Changing Strategies to Achieve Success and Find Greatness,,,,"Randal Pinkett, Jeffrey Robinson, Philana Patterson",2010,,AMACOM,,288,0,English,,,0,"0814416802,9780814416808",,,,,,,,,,,0,,,,,,,0,4337529,pdf,14a821fd14f7888854428a99d8e317e8,,,14a821fd14f7888854428a99d8e317e8.pdf,0,2000-01-01 01:00:00,2016-04-03 02:51:08,1052000/14a821fd14f7888854428a99d8e317e8-d.jpg,,
22341716,Handbook of Corporate Equity Derivatives and Equity Capital Markets,,The Wiley Finance Series,,Juan Ramirez,2011,1,Wiley,,444,0,English,,,0,"1119975905,9781119975908",,,,,,,,,,,0,,,,,,,0,3300822,pdf,78321b9d7d487f261d90516510bef5d7,,,78321b9d7d487f261d90516510bef5d7.pdf,0,2000-01-01 01:00:00,2016-04-03 02:51:08,1052000/78321b9d7d487f261d90516510bef5d7-d.jpg,,
22341717,Theory of Addiction,,Addiction Press,,"Robert West, Jamie Brown",2013,2,Wiley-Blackwell,,274,0,English,,,0,"0470674210,9780470674215",,,,,,,,,,,0,,,0,1,0,1,1,2742362,pdf,dc0771dc70d0680ddd313fbd1263adb5,,,9780470674215,0,2000-01-01 01:00:00,2016-04-03 02:51:08,1052000/dc0771dc70d0680ddd313fbd1263adb5-d.jpg,,
22341718,"Fluorinated Surfactants and Repellents, Second Edition,",,Surfactant Science,,Erik Kissa,2001,2,CRC Press,,640,0,English,,,0,"082470472X,9780824704728",,,,,,,,,,,0,,,,,,,0,62361,pdf,3ee114454ff5f0b4d80c77131d2f4f1f,EEA62106935C4E241370A0BDA252F56F,no,3ee114454ff5f0b4d80c77131d2f4f1f.pdf,0,2000-01-01 01:00:00,2016-04-03 02:51:08,1052000/3ee114454ff5f0b4d80c77131d2f4f1f-d.jpg,,
22341719,"Fluorinated Surfactants and Repellents, Second Edition,",,Surfactant Science,,Erik Kissa,2001,2,CRC Press,,640,0,English,,,0,"082470472X,9780824704728",,,,,,,,,,,0,,,,,,,0,65763,pdf,2048d90c576ce48155999bd3d8635642,EEA62106935C4E241370A0BDA252F56F,no,2048d90c576ce48155999bd3d8635642.pdf,0,2000-01-01 01:00:00,2016-04-03 02:51:08,1052000/2048d90c576ce48155999bd3d8635642-d.jpg,,
22341720,Cockroaches,,Harry Hole 2,,Jo Nesbo,2013,,,,0,0,English,,,0,,,,,,,,,,,,0,,,,,,,,402844,epub,f38bb5749d966674b43aa30f7e98895a,,,Cockroaches (Jo Nesbo) - Jo Nesbo,0,2000-01-01 01:00:00,2016-04-03 02:51:08,1052000/f38bb5749d966674b43aa30f7e98895a-g.jpg,,
22341721,"Fluorinated Surfactants and Repellents, Second Edition,",,Surfactant Science,,Erik Kissa,2001,2,CRC Press,,640,0,English,,,0,"082470472X,9780824704728",,,,,,,,,,,0,,,,,,,0,76590,pdf,f08b698150a3147c8953181ff3d1681b,EEA62106935C4E241370A0BDA252F56F,no,f08b698150a3147c8953181ff3d1681b.pdf,0,2000-01-01 01:00:00,2016-04-03 02:51:08,1052000/f08b698150a3147c8953181ff3d1681b-d.jpg,,
22341722,Route 66: the mother road,,,,David Knudson,2012,,Shire,,56,0,English,64,,0,"0747811326,9780747811329,9780747812777",,,,,,,,JHuXpwAACAAJ,,,0,,,,,0,,,13644207,epub,88fcd4b683d94f02f25344bec39c7652,,,Route 66,0,2000-01-01 01:00:00,2016-04-03 02:51:08,1052000/88fcd4b683d94f02f25344bec39c7652-d.JPG,,
22341723,"Lords of the Land, Lords of the Sea: Conflict and Adaptation in Early Colonial Timor, 1600-1800",,,,Hans Hagerdal,2012,Reprint,Koninklyk Instituut Voor Taal Land,,479,0,English,,,0,"9067183784,9789067183789",,,,,,,,,,,0,,,,,,,0,5243533,pdf,64d6bd8526961883cbd041d6d43c377f,,,64d6bd8526961883cbd041d6d43c377f.pdf,0,2000-01-01 01:00:00,2016-04-03 02:51:08,1052000/64d6bd8526961883cbd041d6d43c377f-g.jpg,,
22341724,Rethinking Enterprise Storage: A Hybrid Cloud Model,,,,Marc Farley,2013,,Microsoft Press,,120,0,English,,,0,"0735679606,9780735679603",,,,,,,,,,,0,,,,,,,,3986866,epub,b5de4c08becb83b7cb15044a3ceedf8b,,,b5de4c08becb83b7cb15044a3ceedf8b.epub,0,2000-01-01 01:00:00,2016-04-03 02:51:08,1052000/b5de4c08becb83b7cb15044a3ceedf8b-d.jpg,,
22341725,"Fluorinated Surfactants and Repellents, Second Edition,",,Surfactant Science,,Erik Kissa,2001,2,CRC Press,,640,0,English,,,0,"082470472X,9780824704728",,,,,,,,,,,0,,,,,,,0,81099,pdf,92301a02070182c5a78dce1279b3a004,EEA62106935C4E241370A0BDA252F56F,no,92301a02070182c5a78dce1279b3a004.pdf,0,2000-01-01 01:00:00,2016-04-03 02:51:08,1052000/92301a02070182c5a78dce1279b3a004-d.jpg,,
22341726,"Fluorinated Surfactants and Repellents, Second Edition,",,Surfactant Science,,Erik Kissa,2001,2,CRC Press,,640,0,English,,,0,"082470472X,9780824704728",,,,,,,,,,,0,,,,,,,0,78718,pdf,49ecab4d500deef6ec03202382aeddd8,EEA62106935C4E241370A0BDA252F56F,no,49ecab4d500deef6ec03202382aeddd8.pdf,0,2000-01-01 01:00:00,2016-04-03 02:51:08,1052000/49ecab4d500deef6ec03202382aeddd8-d.jpg,,
22341727,Mimetic Discretization Methods,,,,"Jose E. Castillo, Guillermo F. Miranda",2013,1,Chapman and Hall/CRC,,260,0,English,,,0,"1466513438,9781466513433",,,,,,,,,,,0,,,,,,,0,4194018,pdf,4c563f95258738d45f84e8778b74b87b,,,4c563f95258738d45f84e8778b74b87b.pdf,0,2000-01-01 01:00:00,2016-04-03 02:51:08,1052000/4c563f95258738d45f84e8778b74b87b-d.jpg,,
22341728,1001 things everyone should know about World War II,,,,Frank E. Vandiver,2002,1,Broadway,,272,0,English,67,,0,"0767906853,9780767906852,9780307480934",,,,,940.53—dc21,D743.V36 2002,,s49pB-4f3J0C,,,0,,,,,0,,,10906375,epub,8fe5b968fde7aeae049b7e84d1bb43c5,,,1001 Things Everyone Should Know About World War II,0,2000-01-01 01:00:00,2016-04-03 02:51:08,1052000/8fe5b968fde7aeae049b7e84d1bb43c5-d.jpg,,
22341729,Functions of Several Variables,,Harbrace College Mathematics Series,,John W. Woll,1966,1,"Harcourt, Brace & World",,182,0,English,,,0,"1114126861, 9781114126862",,B0007DV7RA,,,,,,,,"Front cover, OCR, 2 level bookmarks, paginated.",600,0,1,0,1,1,1,1,1889058,djvu,1d655296bf9f4bdde04f5633a6e4df20,,,Functions.Of.Several.Variables_Woll_1966,0,2000-01-01 01:00:00,2016-04-03 02:51:08,1052000/1d655296bf9f4bdde04f5633a6e4df20-d.png,,
22341730,"Fluorinated Surfactants and Repellents, Second Edition,",,Surfactant Science,,Erik Kissa,2001,2,CRC Press,,640,0,English,,,0,"082470472X,9780824704728",,,,,,,,,,,0,,,,,,,0,85767,pdf,db4616d263c791619bda50b550003660,EEA62106935C4E241370A0BDA252F56F,no,db4616d263c791619bda50b550003660.pdf,0,2000-01-01 01:00:00,2016-04-03 02:51:08,1052000/db4616d263c791619bda50b550003660-d.jpg,,
22341731,"Fluorinated Surfactants and Repellents, Second Edition,",,Surfactant Science,,Erik Kissa,2001,2,CRC Press,,640,0,English,,,0,"082470472X,9780824704728",,,,,,,,,,,0,,,,,,,0,50372,pdf,a5030106084c532c2b4f6b686bd49033,EEA62106935C4E241370A0BDA252F56F,no,a5030106084c532c2b4f6b686bd49033.pdf,0,2000-01-01 01:00:00,2016-04-03 02:51:08,1052000/a5030106084c532c2b4f6b686bd49033-d.jpg,,
22341732,Hollywood Beyond the Screen: Design and Material Culture,,Materializing Culture,,Anne Massey,2000,1st,Bloomsbury Academic,,224,0,English,,,0,"1859733166,9781859733165",,,,,,,,,,,0,,,,,,,0,3629567,pdf,4982777e3a1f3a0cd650fbec488d618d,,,4982777e3a1f3a0cd650fbec488d618d.pdf,0,2000-01-01 01:00:00,2016-04-03 02:51:08,1052000/4982777e3a1f3a0cd650fbec488d618d-d.jpg,,
22341733,Japanese Vocabulary - English/Japanese Flashcards - Animals,,FLASHCARD EBOOKS,,Flashcard eBooks,2013,,,,130,0,English,,,0,",",,B00D1GV7CK,,,,,,,,,0,,,,,,,,3052458,mobi,5860396757fdce4083adc27ad4fcd7d1,,,5860396757fdce4083adc27ad4fcd7d1.mobi,0,2000-01-01 01:00:00,2016-04-03 02:51:08,1052000/5860396757fdce4083adc27ad4fcd7d1-d.jpg,,
22341734,"Fluorinated Surfactants and Repellents, Second Edition,",,Surfactant Science,,Erik Kissa,2001,2,CRC Press,,640,0,English,,,0,"082470472X,9780824704728",,,,,,,,,,,0,,,,,,,0,51859,pdf,f6970aedf6c2dcd199fab875276ab2cf,EEA62106935C4E241370A0BDA252F56F,no,f6970aedf6c2dcd199fab875276ab2cf.pdf,0,2000-01-01 01:00:00,2016-04-03 02:51:08,1052000/f6970aedf6c2dcd199fab875276ab2cf-d.jpg,,
22341735,"Fluorinated Surfactants and Repellents, Second Edition,",,Surfactant Science,,Erik Kissa,2001,2,CRC Press,,640,0,English,,,0,"082470472X,9780824704728",,,,,,,,,,,0,,,,,,,0,90206,pdf,24eb27f15b3d535e0839086aa84d3403,EEA62106935C4E241370A0BDA252F56F,no,24eb27f15b3d535e0839086aa84d3403.pdf,0,2000-01-01 01:00:00,2016-04-03 02:51:08,1052000/24eb27f15b3d535e0839086aa84d3403-d.jpg,,
22341736,The Spirit of the Hive: The Mechanisms of Social Evolution,,,,Robert E. Page Jr.,2013,,,,241,0,English,,,0,0674073029,,,,,,,,,,,0,,,,,,,1,5656556,pdf,68760348169d16e5b2cc74e0e33a513e,,,The Spirit of the Hive - The Mechanisms of Social Evolution,0,2000-01-01 01:00:00,2016-04-03 02:51:08,1052000/68760348169d16e5b2cc74e0e33a513e-g.jpg,,
22341737,Austerity: The History of a Dangerous Idea,,,,Mark Blyth,2013,,"Oxford University Press, USA",,304,0,English,,,0,"019982830X,9780199828302",,,,,,,,,,,0,,,,,,,,907569,epub,68a55c3b8eed3205ed68c1cfbf46538f,,,68a55c3b8eed3205ed68c1cfbf46538f.epub,0,2000-01-01 01:00:00,2016-04-03 02:51:08,1052000/68a55c3b8eed3205ed68c1cfbf46538f-d.jpg,,
22341738,"Fluorinated Surfactants and Repellents, Second Edition,",,Surfactant Science,,Erik Kissa,2001,2,CRC Press,,640,0,English,,,0,"082470472X,9780824704728",,,,,,,,,,,0,,,,,,,0,54361,pdf,46f1f406ecd50fbc55a476328f7c6123,EEA62106935C4E241370A0BDA252F56F,no,46f1f406ecd50fbc55a476328f7c6123.pdf,0,2000-01-01 01:00:00,2016-04-03 02:51:08,1052000/46f1f406ecd50fbc55a476328f7c6123-d.jpg,,
22341739,Transatlantic liners,,"Shire library, volume 660",,J. Kent Layton,2012,,Shire,,64,0,English,64,,0,"0747810877,9780747810872,9781782000983",,,,,,,,1qqrZwEACAAJ,,,0,,,,,0,,,15383004,epub,1cf394c0563cbcc794a35485570687f8,,,Transatlantic liners,0,2000-01-01 01:00:00,2016-04-03 02:51:08,1052000/1cf394c0563cbcc794a35485570687f8-d.jpg,,
22341740,Basic Concepts of Aristotelian Philosophy,,,,"Martin Heidegger, Robert D. Metcalf, Mark Basil Tanzer",2009,,,,294,0,English,,,0,0253353491,,,,,,,,,,,0,,,,,,,1,1915288,pdf,58fbc3066dbed6d61bbfc5960fe40054,,,Basic Concepts of Aristotelian Philosophy,0,2000-01-01 01:00:00,2016-04-03 02:51:08,1052000/58fbc3066dbed6d61bbfc5960fe40054-g.jpg,,
22341741,Introductory Electronics for Scientists and Engineers,,,,Robert E. Simpson,1987,2,Addison-Wesley,,956,0,English,250,,0,"0205083773, 9780205083770",,,,,,,,,,"Front cover, OCR, bookmarks, paginated.",600,0,1,0,1,1,1,1,10923292,djvu,e15711d1791d7c793a3abd55eb3e44c5,,,Introductory.Electronics.For.Scientists.And.Engineers_2ed_Simpson_0205083773,0,2000-01-01 01:00:00,2016-04-03 02:51:08,1052000/e15711d1791d7c793a3abd55eb3e44c5-d.png,,
22341742,I versi d'oro,,,,"Pitagora, a cura di Fabre D'Olivet",1931,,Laterza,,154,0,Italian,,,0,,,,,,,,,,,,0,,,,,,,1,5039708,pdf,6940635c0258a40f2b7065176ad9abc3,,,Pitagora - I versi d__039;oro,0,2000-01-01 01:00:00,2016-04-03 02:51:08,1052000/6940635c0258a40f2b7065176ad9abc3-g.jpg,,
22341743,The Economic Valuation of the Environment and Public Policy: A Hedonic Approach,,New Horizons in Environmental Economics,,Noboru Hidano,2003,,Edward Elgar Pub,,192,0,English,,,0,"1843761688,9781843761686",,,,,,,,,,,0,,,,,,,0,5526355,pdf,5e6fa4fe7c0279d0b0372625b2aac798,,,5e6fa4fe7c0279d0b0372625b2aac798.pdf,0,2000-01-01 01:00:00,2016-04-03 02:51:08,1052000/5e6fa4fe7c0279d0b0372625b2aac798-d.jpg,,
22341744,Raising Churchill's Army: The British Army and the War against Germany 1919-1945,,,,David French,2000,,"Oxford University Press, USA",,336,0,English,,,0,"0198206410,9780198206415",,,,,,,,,,,0,,,,,,,,1276177,epub,7cfd8395b9be39e5c1391016711a5a06,,,7cfd8395b9be39e5c1391016711a5a06.epub,0,2000-01-01 01:00:00,2016-04-03 02:51:08,1052000/7cfd8395b9be39e5c1391016711a5a06-d.jpg,,
22341745,"The Zahiris: Their Doctrine and Their History, a Contribution to the History of Islamic Theology",,Brill Classics in Islam,,"Ignaz Goldziher, Wolfgang Behn, Camilla Adang",2007,,Brill Academic Pub,,227,0,English,,,0,"9004162410,9789004162419",,,,,,,,,,,0,,,,,,,0,3358195,pdf,2a17b63f07825b08cce53d56a3019d83,,,2a17b63f07825b08cce53d56a3019d83.pdf,0,2000-01-01 01:00:00,2016-04-03 02:51:08,1052000/2a17b63f07825b08cce53d56a3019d83-d.jpg,,
22341746,The Techno-Human Condition,,,,"Braden R. Allenby, Daniel Sarewitz",2011,,The MIT Press,,240,0,English,,,0,"0262015692,9780262015691",,,,,,,,,,,0,,,,,,,0,3476698,pdf,a7cf096b9668fb56e02c0734c2d8314b,,,a7cf096b9668fb56e02c0734c2d8314b.pdf,0,2000-01-01 01:00:00,2016-04-03 02:51:08,1052000/a7cf096b9668fb56e02c0734c2d8314b-d.jpg,,
22341747,Iron Shirt Chi Kung,,,,Mantak Chia,2006,,Destiny Books,,288,0,English,,,0,"1594771049,9781594771040",,,,,,,,,,,0,,,,,,,,6341280,epub,f2038db004ceb1a46efd207794436832,,,f2038db004ceb1a46efd207794436832.epub,0,2000-01-01 01:00:00,2016-04-03 02:51:08,1052000/f2038db004ceb1a46efd207794436832-d.jpg,,
22341748,Storia del teatro giapponese,,,,Piero Lorenzoni,1961,,Sansoni,,252,0,Italian,,,0,,,,,,,,,,,,0,,,,,,,1,12439422,pdf,f279262974f39879dedd95f886879a2c,,,Piero Lorenzoni - Storia del teatro giapponese,0,2000-01-01 01:00:00,2016-04-03 02:51:08,1052000/f279262974f39879dedd95f886879a2c-g.jpg,,
22341749,Intuitive IC OP Amps,,,,Thomas M. Frederiksen,1984,1,National Semiconductor Corp,,328,0,English,250,,0,,,B007FCN1Y8,,,,,,,,"Covers, 2 level bookmarks, OCR, paginated.",600,0,1,0,1,1,1,1,3251341,djvu,061b8aba3353c2c15bb8489d505090c3,,,Intuitive.IC.Op.Amps_Frederiksen_1984,0,2000-01-01 01:00:00,2016-04-03 02:51:08,1052000/061b8aba3353c2c15bb8489d505090c3-d.png,,
22341750,Diseases of the Liver & Biliary System,,,,"Shiela Sherlock, James Dooley",2002,11,Wiley-Blackwell,,728,0,English,,,0,"0632055820,9780632055821",,,,,,,,,,,0,,,,,,,0,15897452,pdf,8d6ea932e7ac37240ae3517aa548d1a6,,,8d6ea932e7ac37240ae3517aa548d1a6.pdf,0,2000-01-01 01:00:00,2016-04-03 02:51:08,1052000/8d6ea932e7ac37240ae3517aa548d1a6-d.jpg,,
22341751,ESD: Failure Mechanisms and Models,,,,Steven H. Voldman,2009,1,Wiley,,408,0,English,,,0,"0470511370,9780470511374",,,,,,,,,,,0,,,,,,,0,18822552,pdf,29ca3adb09ba70d3fc3a94070f72b601,,,29ca3adb09ba70d3fc3a94070f72b601.pdf,0,2000-01-01 01:00:00,2016-04-03 02:51:08,1052000/29ca3adb09ba70d3fc3a94070f72b601-d.jpg,,
22341752,Alzheimer's Disease,,Biographies of Disease,,"Linda C. Lu, Juergen H. Bludau M.D.",2011,1,Greenwood,,143,0,English,,,0,"0313381100,9780313381102",,,,,,,,,,,0,,,,,,,0,3247077,pdf,77039e0a938eb6670c32c2c0235b1df7,,,77039e0a938eb6670c32c2c0235b1df7.pdf,0,2000-01-01 01:00:00,2016-04-03 02:51:08,1052000/77039e0a938eb6670c32c2c0235b1df7-d.jpg,,
22341753,Acing the Interview: How to Ask and Answer the Questions That Will Get You the Job,,,,Tony Beshara,2008,1,AMACOM,,288,0,English,,,0,"0814401619,9780814401613",,,,,,,,,,,0,,,,,,,0,3185568,pdf,ba054197564bce3f5014c7c4f34aa438,,,ba054197564bce3f5014c7c4f34aa438.pdf,0,2000-01-01 01:00:00,2016-04-03 02:51:08,1052000/ba054197564bce3f5014c7c4f34aa438-d.jpg,,
22341754,"King Solomon: The Temptations of Money, Sex, and Power",,,,Philip Graham Ryken,2011,,Crossway,,256,0,English,,,0,"1433521547,9781433521546",,,,,,,,,,,0,,,,,,,0,6137061,pdf,b90efe49297f8a8c38f1c4e2e299d12e,,,b90efe49297f8a8c38f1c4e2e299d12e.pdf,0,2000-01-01 01:00:00,2016-04-03 02:51:08,1052000/b90efe49297f8a8c38f1c4e2e299d12e-d.jpg,,
22341755,Plastics Additives: A Rapra Market Report,,,,Geoffrey Pritchard,2008,illustrated edition,Smithers Rapra Press,,206,0,English,,,0,"1859574998,9781859574997",,,,,,,,,,,0,,,,,,,0,3317704,pdf,a686876cbf4ae9b116140020a5b0491c,,,a686876cbf4ae9b116140020a5b0491c.pdf,0,2000-01-01 01:00:00,2016-04-03 02:51:08,1052000/a686876cbf4ae9b116140020a5b0491c-d.jpg,,
22341756,Corona SDK Hotshot,,,,Nevin Flanagan,2013,,Packt Publishing,,334,0,English,,,0,"1849694303,9781849694308",,,,,,,,,,,0,,,,,,,0,3275485,pdf,1320a453274a3e160c61b42b7ab10b9f,,,1320a453274a3e160c61b42b7ab10b9f.pdf,0,2000-01-01 01:00:00,2016-04-03 02:51:08,1052000/1320a453274a3e160c61b42b7ab10b9f-d.jpg,,
22341757,Is God a Moral Monster?: Making Sense of the Old Testament God,,,,Paul Copan,2011,,Baker Books,,256,0,English,,,0,"0801072751,9780801072758",,,,,,,,,,,0,,,,,,,0,2365550,pdf,c519f508800dbf1a02eaf698b739bc34,,,c519f508800dbf1a02eaf698b739bc34.pdf,0,2000-01-01 01:00:00,2016-04-03 02:51:08,1052000/c519f508800dbf1a02eaf698b739bc34-d.jpg,,
22341758,The Making of Markova: Diaghilev's Baby Ballerina to Groundbreaking Icon,,,,Tina Sutton,2013,1,Pegasus,,682,0,English,,,0,"1605984566,9781605984568",,,,,,,,,,,0,,,,,,,,9558680,epub,552b4ea60dd84d29f0255884cc5a97b8,,,552b4ea60dd84d29f0255884cc5a97b8.epub,0,2000-01-01 01:00:00,2016-04-03 02:51:08,1052000/552b4ea60dd84d29f0255884cc5a97b8-d.jpg,,
22341759,The Smoothies Bible - the Complete Guide to Energy and Vitality Through Smoothies and Natural Remedies,,,,Pat Crocker,2003,,Hardie Grant,,0,0,English,,,0,"1740661974,9781740661973",,,,,,,,,,,0,,,,,,,,1878158,epub,bbf269e4096334ec6c3c40e738bb818b,,,bbf269e4096334ec6c3c40e738bb818b.epub,0,2000-01-01 01:00:00,2016-04-03 02:51:08,1052000/bbf269e4096334ec6c3c40e738bb818b-d.jpg,,
22341760,Altering consciousness: multidisciplinary perspectives,,,,"Etzel Cardeña, Michael Winkelman (editors)",2011,,Praeger,,839,0,English,,AvaxHome,0,"0313383081, 9780313383083, 031338309X, 9780313383090",,,,,154.4,BF311 .C2773 2011,,iAknLrmZe2MC,,,0,,,,,0,1,0,5668446,pdf,5fc4821319c528a8fe5027fb031d090a,5E1DCFDA115DB01AAC18FE2B2B43B679,no,5fc4821319c528a8fe5027fb031d090a.pdf,0,2000-01-01 01:00:00,2016-04-03 02:51:08,746000/5e1dcfda115db01aac18fe2b2b43b679-d.jpg,,
22341761,Linear and Nonlinear Waves,,"Pure and Applied Mathematics: A Wiley Series of Texts, Monographs and Tracts",,G. B. Whitham,1999,Reprint,Wiley-Interscience,,660,0,English,,,0,"0471359424,9780471359425",,,,,,,,,,,0,,,,,,,0,8527647,pdf,ae0bdbd95f72de0456377c6924b9d4b0,,,ae0bdbd95f72de0456377c6924b9d4b0.pdf,0,2000-01-01 01:00:00,2016-04-03 02:51:08,1052000/ae0bdbd95f72de0456377c6924b9d4b0-d.jpg,,
22341762,La nuova interpretazione di Platone,,,,AA.VV.,1996,,Rusconi,,125,0,Italian,,,0,,,,,,,,,,,,0,,,,,,,0,1339554,pdf,3597d98195347f5f56a8034d0df62796,,,186796775-AA-vv-La-Nuova-Interpretazione-Di-Platone,0,2000-01-01 01:00:00,2016-04-03 02:51:08,1052000/3597d98195347f5f56a8034d0df62796-g.jpg,,
22341763,Accounting Demystified,,,,Jeffry R. Haber,2003,,AMACOM,,192,0,English,,,0,"0814407900,9780814407905",,,,,,,,,,,0,,,,,,,0,3286336,pdf,f00cc2bea5974d3364cd27460c8919d6,,,f00cc2bea5974d3364cd27460c8919d6.pdf,0,2000-01-01 01:00:00,2016-04-03 02:51:08,1052000/f00cc2bea5974d3364cd27460c8919d6-d.jpg,,
22341764,"Computer Vision: A Unified, Biologically-Inspired Approach",,,,Ian Overington,1992,1,Elsevier Science Ltd,,423,0,English,,,0,"0444889728,9780444889720",,,,,,,,,,,0,,,,,,,0,44616207,pdf,6747b92214a72db3635b5a7960f7b750,,,6747b92214a72db3635b5a7960f7b750.pdf,0,2000-01-01 01:00:00,2016-04-03 02:51:08,1052000/6747b92214a72db3635b5a7960f7b750-d.jpg,,
22341765,The Wiley-Blackwell Handbook of Adulthood and Aging,,,,"Susan Krauss Whitbourne, Martin J Sliwinski",2012,1,Wiley-Blackwell,,584,0,English,,,0,"1444331477,9781444331479",,,,,,,,,,,0,,,,,,,0,3406804,pdf,917be6cd49b2ef35b977653f67da715b,,,917be6cd49b2ef35b977653f67da715b.pdf,0,2000-01-01 01:00:00,2016-04-03 02:51:08,1052000/917be6cd49b2ef35b977653f67da715b-d.jpg,,
22341766,"The Drive on Moscow, 1941: Operation Taifun and Germany's First Great Crisis of World War II",,,,"Niklas Zetterling, Anders Frankson",2012,1st,Casemate Publishers,,336,0,English,,,0,"1612001203,9781612001203",,,,,,,,,,,0,,,,,,,,2456952,epub,a73f7f30bcbd017d82a90f32b9d4fd09,,,a73f7f30bcbd017d82a90f32b9d4fd09.epub,0,2000-01-01 01:00:00,2016-04-03 02:51:08,1052000/a73f7f30bcbd017d82a90f32b9d4fd09-d.jpg,,
22341767,A Bíblia Satânica,,,,Anton LaVey,,,,,120,0,Portuguese,,,0,,,,,,,,,,,,0,,,,,,,1,806542,pdf,c5d99fb67e1394301c574bec59c7722d,,,A Bíblia Satânica,0,2000-01-01 01:00:00,2016-04-03 02:51:08,1052000/c5d99fb67e1394301c574bec59c7722d-g.jpg,,
22341768,Disease Management in Cocoa: Comparative epidemiology of witches' broom,,,,"Rudgard, Maddison, Andebrhan",2012,Softcover reprint of the original 1st ed. 1993,Springer,,249,0,English,,,0,"9401049432,9789401049436",,,,,,,,,,,0,,,,,,,0,27821814,pdf,57b0f25d5d09465572b83c12de6943c7,,,57b0f25d5d09465572b83c12de6943c7.pdf,0,2000-01-01 01:00:00,2016-04-03 02:51:08,1052000/57b0f25d5d09465572b83c12de6943c7-d.jpg,,
22341769,"Forgotten Ally: China’s World War II, 1937-1945",,,,Rana Mitter,2013,,Houghton Mifflin Harcourt,,464,0,English,,,0,"061889425X,9780618894253",,,,,,,,,,,0,,,,,,,,4747548,mobi,0943203e2c72aeaad19264714d91b57b,,,0943203e2c72aeaad19264714d91b57b.mobi,0,2000-01-01 01:00:00,2016-04-03 02:51:08,1052000/0943203e2c72aeaad19264714d91b57b-d.jpg,,
22341770,Yoga for regular guys: the best damn workout on the planet!,,,,"Diamond Dallas Page, Craig Aaron",2005,1,Quirk Books,,192,0,English,158,,0,"1594740798,9781594740794,9781594746888",,,,,,,,sCcgvyjAZcQC,,,0,,,,,0,,,5194393,epub,616746a9288878c63ff436be726a131a,,,Yoga for regular guys,0,2000-01-01 01:00:00,2016-04-03 02:51:08,1052000/616746a9288878c63ff436be726a131a-d.jpg,,
22341771,Doomsday Men: The Real Dr Strangelove and the Dream of the Superweapon,,,,Peter D. Smith,2007,,Allen Lane,,576,0,English,,,0,"0713998156,9780713998153",,B003JMFASS,,,,,,,,,0,,,,,,,,3440413,mobi,259b554b3bf8c5ba3bc4690d77697030,,,259b554b3bf8c5ba3bc4690d77697030.mobi,0,2000-01-01 01:00:00,2016-04-03 02:51:08,1052000/259b554b3bf8c5ba3bc4690d77697030-d.jpg,,
22341772,2600 Phrases for Setting Effective Performance Goals: Ready-to-Use Phrases That Really Get Results,,,,Paul Falcone,2011,,AMACOM,,256,0,English,,,0,"0814417752,9780814417751",,,,,,,,,,,0,,,,,,,,3392966,epub,e4a90759c16b1986dc08834a56e5169b,,,e4a90759c16b1986dc08834a56e5169b.epub,0,2000-01-01 01:00:00,2016-04-03 02:51:08,1052000/e4a90759c16b1986dc08834a56e5169b-d.jpg,,
22341773,Trees of Panama and Costa Rica,,Princeton Field Guides,,"Richard Condit, Rolando Pérez, Nefertaris Daguerre",2010,,Princeton University Press,,496,0,English,,,0,"0691147108,9780691147109",,,,,,,,,,,0,,,,,,,0,71083341,pdf,0f8a9e1688d42379626afb88b87776ce,,,0f8a9e1688d42379626afb88b87776ce.pdf,0,2000-01-01 01:00:00,2016-04-03 02:51:08,1052000/0f8a9e1688d42379626afb88b87776ce-d.jpg,,
22341774,Janusz Korczak's Children,,,,"Gloria Spielman, Matthew Archambault",2007,,Kar-Ben Pub,,40,0,English,,,0,"1580132553,9781580132558",,,,,,,,,,,0,,,,,,,0,5273725,pdf,4fbd209819a26e83a6e43ca1676dde0e,,,4fbd209819a26e83a6e43ca1676dde0e.pdf,0,2000-01-01 01:00:00,2016-04-03 02:51:08,1052000/4fbd209819a26e83a6e43ca1676dde0e-d.jpg,,
22341775,GMPLS: Architecture and Applications,,The Morgan Kaufmann Series in Networking,,"Adrian Farrel, Igor Bryskin",2006,,Morgan Kaufmann,,400,0,English,,,0,"0120884224,9780120884223",,,,,,,,,,,0,,,,,,,0,7795655,pdf,3d55ca2afb7a54f7b557d2e753497efb,,,3d55ca2afb7a54f7b557d2e753497efb.pdf,0,2000-01-01 01:00:00,2016-04-03 02:51:08,1052000/3d55ca2afb7a54f7b557d2e753497efb-d.jpg,,
22341776,Industrial Crystallization Process Monitoring and Control,,,,"Angelo Chianese, Herman J. Kramer",2012,1,Wiley-VCH,,252,0,English,,,0,"3527331735,9783527331734",,,,,,,,,,,0,,,,,,,0,5050013,pdf,4486d3791816583d28a7c6b7cba94c9e,,,4486d3791816583d28a7c6b7cba94c9e.pdf,0,2000-01-01 01:00:00,2016-04-03 02:51:08,1052000/4486d3791816583d28a7c6b7cba94c9e-d.jpg,,
22341777,Method of Moments for 2D Scattering Problems: Basic Concepts and Applications,,FOCUS Series,,"Christophe Bourlier, Nicolas Pinel",2013,1,Wiley-ISTE,,160,0,English,,,0,"1848214723,9781848214729",,,,,,,,,,,0,,,,,,,0,6768749,pdf,e4b851532399c23c964e7eb57d5b25a1,,,e4b851532399c23c964e7eb57d5b25a1.pdf,0,2000-01-01 01:00:00,2016-04-03 02:51:08,1052000/e4b851532399c23c964e7eb57d5b25a1-d.jpg,,
22341778,Passive Optical Networks: Flattening the Last Mile Access,,IEEE Comsoc Pocket Guides to Communications Technologies,,"Stephen B. Weinstein, Yuanqiu Luo, Ting Wang",2012,1,IEEE,,200,0,English,,,0,"0470168846,9780470168844",,,,,,,,,,,0,,,,,,,0,4043134,pdf,9656ebf0adeebf41b1500fc729ebd38d,,,9656ebf0adeebf41b1500fc729ebd38d.pdf,0,2000-01-01 01:00:00,2016-04-03 02:51:08,1052000/9656ebf0adeebf41b1500fc729ebd38d-d.jpg,,
22341779,Two Roads to War: The French and British Air Arms from Versailles to Dunkirk,,,,Robin D S Higham,,,,,0,0,English,,,0,"161251085X,9781612510859",,,,,,,,,,,0,,,,,,,0,2772636,pdf,bff333e78522a167add0fa8895b1378b,,,bff333e78522a167add0fa8895b1378b.pdf,0,2000-01-01 01:00:00,2016-04-03 02:51:08,1052000/bff333e78522a167add0fa8895b1378b-g.jpg,,
22341780,Oracle WebLogic Server 12c Advanced Administration Cookbook,,,,Dalton Iwazaki,2013,,Packt Publishing,,284,0,English,,,0,"184968684X,9781849686846",,,,,,,,,,,0,,,,,,,,8577014,epub,285ed95899d290e2979fc4e75db59b0a,,,285ed95899d290e2979fc4e75db59b0a.epub,0,2000-01-01 01:00:00,2016-04-03 02:51:08,1052000/285ed95899d290e2979fc4e75db59b0a-d.jpg,,
22341781,Scarf Style,,Style series,,Pam Allen,2004,First Printing,Interweave,,152,0,English,,,0,"1931499543,9781931499545",,,,,,,,,,,0,,,,,,,,14147062,epub,174804b45efd509a3336e3f6e46fff50,,,174804b45efd509a3336e3f6e46fff50.epub,0,2000-01-01 01:00:00,2016-04-03 02:51:08,1052000/174804b45efd509a3336e3f6e46fff50-d.jpg,,
22341782,Financial Reporting and Analysis: Using Financial Accounting Information,,Book Only,,Charles H. Gibson,2010,12,South-Western College Pub,,640,0,English,,,0,"1439080860,9781439080863",,,,,,,,,,,0,,,,,,,0,33935711,pdf,e1bc39cd6e29d49a131663713494b186,,,e1bc39cd6e29d49a131663713494b186.pdf,0,2000-01-01 01:00:00,2016-04-03 02:51:08,1052000/e1bc39cd6e29d49a131663713494b186-d.jpg,,
22341783,Britannia: The Failed State: Ethnic Conflict and the End of Roman Britain,,,,Stuart Laycock,2008,,The History Press,,256,0,English,,,0,"0752446142,9780752446141",,,,,,,,,,,0,,,,,,,,7254391,epub,5e6e5736576dd7e832749d12e9cf38bc,,,5e6e5736576dd7e832749d12e9cf38bc.epub,0,2000-01-01 01:00:00,2016-04-03 02:51:08,1052000/5e6e5736576dd7e832749d12e9cf38bc-d.jpg,,
22341784,Discrete Event Systems in Dioid Algebra and Conventional Algebra,,FOCUS Series,,Philippe Declerck,2012,1,Wiley-ISTE,,176,0,English,,,0,"1848214618,9781848214613",,,,,,,,,,,0,,,,,,,0,4618947,pdf,15074c3e5fb960c0c0da39270422223a,,,15074c3e5fb960c0c0da39270422223a.pdf,0,2000-01-01 01:00:00,2016-04-03 02:51:08,1052000/15074c3e5fb960c0c0da39270422223a-d.jpg,,
22341785,Microsoft Access 2013 Inside Out,,,,Jeff Conrad,2013,,Microsoft Press,,848,0,English,,,0,"0735671230,9780735671232",,,,,,,,,,,0,,,,,,,0,88462505,pdf,9706e06111673fe4077acd0d10790ca0,,,9706e06111673fe4077acd0d10790ca0.pdf,0,2000-01-01 01:00:00,2016-04-03 02:51:08,1052000/9706e06111673fe4077acd0d10790ca0-d.jpg,,
22341786,Fixed-Income Securities and Derivatives Handbook,,Bloomberg Financial,,Moorad Choudhry,2010,2,Bloomberg Press,,475,0,English,,,0,"1576603342,9781576603345",,,,,,,,,,,0,,,,,,,0,4533431,pdf,c2c99a268695f098be7ca3bea3f24f2a,,,c2c99a268695f098be7ca3bea3f24f2a.pdf,0,2000-01-01 01:00:00,2016-04-03 02:51:08,1052000/c2c99a268695f098be7ca3bea3f24f2a-d.jpg,,
22341787,The Incomplete Guide to the Art of Discovery,,,,J. E. Oliver,1991,,Columbia Univ Pr,,208,0,English,,,0,"0231076215,9780231076210",,,,,,,,,,,0,,,,,,,0,9873895,pdf,67ce8724783f51145b29c8cf95aa749a,,,67ce8724783f51145b29c8cf95aa749a.pdf,0,2000-01-01 01:00:00,2016-04-03 02:51:08,1052000/67ce8724783f51145b29c8cf95aa749a-g.jpg,,
22341788,Photoshop Elements 3 Solutions,,,,Mikkel Aaland,2004,,"Sybex, Inc.",,368,0,English,,,0,"0782143636,9780782143638",,,,,,,,,,,0,,,,,,,0,18270048,pdf,f068a362351260d8f32415c4165c4466,,,f068a362351260d8f32415c4165c4466.pdf,0,2000-01-01 01:00:00,2016-04-03 02:51:08,1052000/f068a362351260d8f32415c4165c4466-d.jpg,,
22341789,Witness: One of the Great Correspondents of the Twentieth Century Tells Her Story,,,,Ruth Gruber,2007,1ST,Schocken,,288,0,English,,,0,"0805242430,9780805242430",,,,,,,,,,,0,,,,,,,,24870980,epub,0730881ae966b01133bc3671c22fb530,,,0730881ae966b01133bc3671c22fb530.epub,0,2000-01-01 01:00:00,2016-04-03 02:51:08,1052000/0730881ae966b01133bc3671c22fb530-d.jpg,,
22341790,The Huron-Wendat Feast of the Dead: Indian-European Encounters in Early North America,,Witness to History,,Erik R. Seeman,2011,1,Johns Hopkins University Press,,176,0,English,,,0,"0801898552,9780801898556",,,,,,,,,,,0,,,,,,,0,27248094,pdf,c66a07ccbe34391445f76e07a8ec0e0f,,,c66a07ccbe34391445f76e07a8ec0e0f.pdf,0,2000-01-01 01:00:00,2016-04-03 02:51:08,1052000/c66a07ccbe34391445f76e07a8ec0e0f-d.jpg,,
22341791,The Science of Grapevines: Anatomy and Physiology,,,,Markus Keller,2010,1,Academic Press,,400,0,English,,,0,"012374881X,9780123748812",,,,,,,,,,,0,,,,,,,0,6891032,pdf,040faf4244be7d3adac1dc0038fa295d,,,040faf4244be7d3adac1dc0038fa295d.pdf,0,2000-01-01 01:00:00,2016-04-03 02:51:08,1052000/040faf4244be7d3adac1dc0038fa295d-d.jpg,,
22341792,Computational Electromagnetics,,Texts in Applied Mathematics,,"Thomas Rylander, Pär Ingelström, Anders Bondeson",2012,2nd ed. 2013,Springer,,267,0,English,,,0,"146145350X,9781461453505",,,,,,,,,,,0,,,,,,,0,4463121,pdf,476d7c2b190ff637d3a955f396e09405,,,476d7c2b190ff637d3a955f396e09405.pdf,0,2000-01-01 01:00:00,2016-04-03 02:51:08,1052000/476d7c2b190ff637d3a955f396e09405-d.jpg,,
22341793,AutoCAD 2014 Essentials: Autodesk Official Press,,,,Scott Onstott,2013,1,Sybex,,432,0,English,,,0,"1118575091,9781118575093",,,,,,,,,,,0,,,,,,,,50929593,epub,a30881e92be180534a603bed4099c113,,,a30881e92be180534a603bed4099c113.epub,0,2000-01-01 01:00:00,2016-04-03 02:51:08,1052000/a30881e92be180534a603bed4099c113-d.jpg,,
22341794,Improving Maintenance & Reliability Through Cultural Change,,,,Stephen J. Thomas,2005,,"Industrial Press, Inc.",,356,0,English,,,0,"083113190X,9780831131906",,,,,,,,,,,0,,,,,,,0,6051935,pdf,c72efdfab538a70a18b1db5f8b07869a,,,c72efdfab538a70a18b1db5f8b07869a.pdf,0,2000-01-01 01:00:00,2016-04-03 02:51:08,1052000/c72efdfab538a70a18b1db5f8b07869a-d.jpg,,
22341795,Το δικαίωμα των εθνών για αυτοδιάθεση,,,,Β. Ι. Λένιν,1975,,Ειρήνη,,186,0,Greek,,,0,,,,,,,,,,,,600,,,0,,1,1,0,7409382,pdf,a72d6cd7baa8064caf77e522c0020dc0,,,To_dikaiwma_twn_ethnwn_gia_aytodiathesh,0,2000-01-01 01:00:00,2016-04-03 02:51:08,1052000/a72d6cd7baa8064caf77e522c0020dc0-g.jpg,,
22341796,LEGO Technic Robotics,,Technology in Action,,Mark Rollins,2013,1,Apress,,300,0,English,,,0,"1430249803,9781430249801",,,,,,,,,,,0,,,,,,,0,19864003,pdf,30594cec34cfedb06bbb196eca2aa2b8,,,30594cec34cfedb06bbb196eca2aa2b8.pdf,0,2000-01-01 01:00:00,2016-04-03 02:51:08,1052000/30594cec34cfedb06bbb196eca2aa2b8-d.jpg,,
22341797,Το δικαίωμα των εθνών για αυτοδιάθεση,,,,Β. Ι. Λένιν,1975,,Ειρήνη,,186,0,Greek,,,0,,,,,,,,,,,,600,,,0,,1,1,0,2277253,djvu,27076b3ebaa9a200cc1d22fd1ed5bf77,,,To_dikaiwma_twn_ethnwn_gia_aytodiathesh,0,2000-01-01 01:00:00,2016-04-03 02:51:08,1052000/27076b3ebaa9a200cc1d22fd1ed5bf77-g.jpg,,
22341798,The Wiley Engineer's Desk Reference: A Concise Guide for the Professional Engineer,,,,Sanford I. Heisler,1998,2,Wiley,,712,0,English,,,0,"0471168270,9780471168270",,,,,,,,,,,0,,,,,,,0,30229316,pdf,76c0def4e0a4685ff0b3a1bbea7f9b42,,,76c0def4e0a4685ff0b3a1bbea7f9b42.pdf,0,2000-01-01 01:00:00,2016-04-03 02:51:08,1052000/76c0def4e0a4685ff0b3a1bbea7f9b42-d.jpg,,
22341799,Biochemistry and Molecular Biology of Plant Hormones,,New Comprehensive Biochemistry,,"P.J.J. Hooykaas, M.A. Hall, K.R. Libbenga",1999,1,Elsevier Science,,564,0,English,,,0,"0444898255,9780444898258",,,,,,,,,,,0,,,,,,,0,32044774,pdf,a640475ba1531f7a1ccf9abaf0fb83cd,,,a640475ba1531f7a1ccf9abaf0fb83cd.pdf,0,2000-01-01 01:00:00,2016-04-03 02:51:08,1052000/a640475ba1531f7a1ccf9abaf0fb83cd-d.jpg,,
22341800,"Bioprocessing Technologies in Biorefinery for Sustainable Production of Fuels, Chemicals, and Polymers",,,,"Shang-Tian Yang, Hesham El-Ensashy, Nuttha Thongchul",2013,,Wiley-Blackwell,,488,0,English,,,0,"0470541954,9780470541951",,,,,,,,,,,0,,,,,,,0,16563408,pdf,5ea1f248eb810c3108c229cd95eabbc8,,,5ea1f248eb810c3108c229cd95eabbc8.pdf,0,2000-01-01 01:00:00,2016-04-03 02:51:08,1052000/5ea1f248eb810c3108c229cd95eabbc8-d.jpg,,
22341801,"The Organized Kitchen: Keep Your Kitchen Clean, Organized, and Full of Good Food - and Save Time, Money,",,and Your Sanity,,Brette Sember,2012,Original,Adams Media,,240,0,English,,,0,"1440530564,9781440530562",,,,,,,,,,,0,,,,,,,0,3984025,pdf,a237fdf85b776a980640708d4ff067fa,,,a237fdf85b776a980640708d4ff067fa.pdf,0,2000-01-01 01:00:00,2016-04-03 02:51:08,1052000/a237fdf85b776a980640708d4ff067fa-d.jpg,,
22341802,Basic Knitting: All the Skills and Tools You Need to Get Started,,How To Basics,,"Leigh Ann Chow, Missy Burns, Anita J. Tosten, Alan Wycheck",2004,,Stackpole Books,,128,0,English,,,0,",",,B00C4N9QY2,,,,,,,,,0,,,,,,,,11515478,epub,6e2abbbfbc857109cb848774e3ce317d,,,6e2abbbfbc857109cb848774e3ce317d.epub,0,2000-01-01 01:00:00,2016-04-03 02:51:08,1052000/6e2abbbfbc857109cb848774e3ce317d-d.jpg,,
22341803,Quantum Field Theory,,de Gruyter Studies in Mathematical Physics,,Michael V. Sadovskii,2013,,Walter De Gruyter Inc,,409,0,English,,,0,"3110270293,9783110270297",,,,,,,,,,,0,,,,,,,0,4062956,pdf,ebda4e2b7e427851cb244596db924985,,,ebda4e2b7e427851cb244596db924985.pdf,0,2000-01-01 01:00:00,2016-04-03 02:51:08,1052000/ebda4e2b7e427851cb244596db924985-d.jpg,,
22341804,Enterprise Security: A Data-Centric Approach to Securing the Enterprise,,,,Aaron Woody,2013,,Packt Publishing,,324,0,English,,,0,"1849685967,9781849685962",,,,,,,,,,,0,,,,,,,0,2855225,pdf,f5cc13814acde5ba40408e0b84cce216,,,f5cc13814acde5ba40408e0b84cce216.pdf,0,2000-01-01 01:00:00,2016-04-03 02:51:08,1052000/f5cc13814acde5ba40408e0b84cce216-d.jpg,,
22341805,Coal to Diamonds: A Memoir,,,,"Beth Ditto, Michelle Tea",2012,,Spiegel & Grau,,176,0,English,,,0,"0385525915,9780385525916",,,,,,,,,,,0,,,,,,,,498071,mobi,e67b1e4713a9258389a91ff076732778,,,e67b1e4713a9258389a91ff076732778.mobi,0,2000-01-01 01:00:00,2016-04-03 02:51:08,1052000/e67b1e4713a9258389a91ff076732778-d.jpg,,
22341806,Step-By-Step Tarot,,,,Terry Donaldson,2000,,Thorsons,,224,0,English,,,0,"1855384310,9781855384316",,,,,,,,,,,0,,,,,,,,8614895,mobi,966c169a742cf1ad999c40cf5eb89da1,,,966c169a742cf1ad999c40cf5eb89da1.mobi,0,2000-01-01 01:00:00,2016-04-03 02:51:08,1052000/966c169a742cf1ad999c40cf5eb89da1-d.jpg,,
22341807,Encyclopedia of Mathematical Physics: Five-Volume Set,,,,"Jean-Pierre Françoise, Gregory L. Naber, Tsou Sheung Tsun",2006,1,Academic Press,,3500,0,English,,,0,"0125126603,9780125126601",,,,,,,,,,,0,,,,,,,0,48696911,pdf,ddb54c273644a4ade52e7f02b8d48768,B46E9C482E218002D1B36C7E3F5146FB,no,ddb54c273644a4ade52e7f02b8d48768.pdf,0,2000-01-01 01:00:00,2016-04-03 02:51:08,1052000/ddb54c273644a4ade52e7f02b8d48768-d.jpg,,
22341808,Encyclopedia of Attention Deficit Hyperactivity Disorders,,,,Evelyn B. Kelly,2009,First Edition,Greenwood,,295,0,English,,,0,"0313342490,9780313342493",,,,,,,,,,,0,,,,,,,0,4277645,pdf,e150adbc78df108bc739e0382b0abe99,,,e150adbc78df108bc739e0382b0abe99.pdf,0,2000-01-01 01:00:00,2016-04-03 02:51:08,1052000/e150adbc78df108bc739e0382b0abe99-d.jpg,,
22341809,Launch Into Literacy: Level 4: Students' Book 4,,,,Maureen Lewis Jane Medwell,2000,,Oxford University Press,,78,0,English,,,0,"0199155534,9780199155538",,,,,,,,,,,0,,,,,,,0,15115407,pdf,0e63be9969cda0ebc1c53adc24c4de24,,,0e63be9969cda0ebc1c53adc24c4de24.pdf,0,2000-01-01 01:00:00,2016-04-03 02:51:08,1052000/0e63be9969cda0ebc1c53adc24c4de24-d.jpg,,
22341810,ActionScript 3.0 for Adobe Flash Professional CS5 Classroom in a Book,,,,Adobe Creative Team,2010,1,Adobe Press,,384,0,English,,,0,"0321704479,9780321704474",,,,,,,,,,,0,,,,,,,0,10246742,pdf,9b59a590c7180f66e769e6f52678fdaa,,,9b59a590c7180f66e769e6f52678fdaa.pdf,0,2000-01-01 01:00:00,2016-04-03 02:51:08,1052000/9b59a590c7180f66e769e6f52678fdaa-d.jpg,,
22341811,Encyclopaedia of Chess Openings E/4th Edition,,,,Zdenko Krnic,2008,4th,Chess Informant,,670,0,English,,,0,"867297056X,9788672970562",,,,,,,,,,,0,,,,,,,0,19613600,pdf,ef3086ae83e20f7d62e70afeb74e9ab7,,,ef3086ae83e20f7d62e70afeb74e9ab7.pdf,0,2000-01-01 01:00:00,2016-04-03 02:51:08,1052000/ef3086ae83e20f7d62e70afeb74e9ab7-d.jpg,,
22341812,No Higher Honor: A Memoir of My Years in Washington,,,,Condoleezza Rice,2011,1,Crown,,784,0,English,,,0,"9780307587862,9780307587862",,,,,,,,,,,0,,,,,,,0,3210162,pdf,27ce927542fcf2685d9d9795e0759ad8,,,27ce927542fcf2685d9d9795e0759ad8.pdf,0,2000-01-01 01:00:00,2016-04-03 02:51:08,1052000/27ce927542fcf2685d9d9795e0759ad8-d.jpg,,
22341813,Cognitive Reasoning,,,,"Oleg M. Anshakov, Tamás Gergely, Tamas Gergely, Victor K. Finn",2009,2010,Springer,,300,0,English,,,0,"354043058X,9783540430582",,,,,,,,,,,0,,,,,,,0,15864087,pdf,ab2b787873bc14616e27b2ab8f2775fe,,,ab2b787873bc14616e27b2ab8f2775fe.pdf,0,2000-01-01 01:00:00,2016-04-03 02:51:08,1052000/ab2b787873bc14616e27b2ab8f2775fe-d.jpg,,
22341814,"AJAX, Rich Internet Applications, and Web Development for Programmers",,,,"Paul J. Deitel, Harvey M. Deitel",2008,1,Prentice Hall,,1040,0,English,,,0,"0131587382,9780131587380",,,,,,,,,,,0,,,,,,,0,25539256,pdf,3fbae32b9eab61d8506c67dba956182d,,,3fbae32b9eab61d8506c67dba956182d.pdf,0,2000-01-01 01:00:00,2016-04-03 02:51:08,1052000/3fbae32b9eab61d8506c67dba956182d-d.jpg,,
22341815,The Triple Agent: The al-Qaeda Mole who Infiltrated the CIA,,,,Joby Warrick,2011,,Doubleday,,272,0,English,,,0,"0385534183,9780385534185",,,,,,,,,,,0,,,,,,,,6028986,mobi,57120ddd7666eb40aa152ef40ed6800a,,,57120ddd7666eb40aa152ef40ed6800a.mobi,0,2000-01-01 01:00:00,2016-04-03 02:51:08,1052000/57120ddd7666eb40aa152ef40ed6800a-d.jpg,,
22341816,The African Food Crisis,,,,"Goran Djurfeldt, Hans Holmen, Magnus Jirstrom, Rolf Larsson",2005,First,CABI,,288,0,English,,,0,"0851999980,9780851999982",,,,,,,,,,,0,,,,,,,0,14967732,pdf,50faf21b4a663e2cd2a5110c09815fd3,,,50faf21b4a663e2cd2a5110c09815fd3.pdf,0,2000-01-01 01:00:00,2016-04-03 02:51:08,1052000/50faf21b4a663e2cd2a5110c09815fd3-d.jpg,,
22341817,"Fundamentals of Fourier Transform Infrared Spectroscopy, Second Edition",,,,Brian C. Smith,2011,2,CRC Press,,207,0,English,,,0,"1420069292,9781420069297",,,,,,,,,,,0,,,,,,,0,3943956,pdf,d25eff8aaf4b0b214cf4015e62b7c990,,,d25eff8aaf4b0b214cf4015e62b7c990.pdf,0,2000-01-01 01:00:00,2016-04-03 02:51:08,1052000/d25eff8aaf4b0b214cf4015e62b7c990-d.jpg,,
22341818,Safety of Computer Architectures,,,,Jean-Louis Boulanger,2010,1,Wiley-ISTE,,512,0,English,,,0,"184821197X,9781848211971",,,,,,,,,,,0,,,,,,,0,54413114,pdf,d02139925e396f5fcfcdd39fe89c3e20,,,d02139925e396f5fcfcdd39fe89c3e20.pdf,0,2000-01-01 01:00:00,2016-04-03 02:51:08,1052000/d02139925e396f5fcfcdd39fe89c3e20-d.jpg,,
22341819,"The Ethics of Authorship: Communication, Seduction, and Death in Hegel and Kierkegaard",,,,Daniel Berthold,2011,3,Fordham University Press,,160,0,English,,,0,"0823233952,9780823233953",,,,,,,,,,,0,,,,,,,0,3344862,pdf,9c751367fb3ec73f7f66473959935366,,,9c751367fb3ec73f7f66473959935366.pdf,0,2000-01-01 01:00:00,2016-04-03 02:51:08,1052000/9c751367fb3ec73f7f66473959935366-d.jpg,,
22341820,Adobe Flash CS3: The Professional Portfolio,,"Portfolio Series, CS3",,Inc. Against The Clock,2007,1ST,"Against The Clock, Inc.",,0,0,English,,,0,"0976432471,9780976432470",,,,,,,,,,,0,,,,,,,0,94232725,pdf,116cb14f520430434cdbd62f8cd1e0ea,,,116cb14f520430434cdbd62f8cd1e0ea.pdf,0,2000-01-01 01:00:00,2016-04-03 02:51:08,1052000/116cb14f520430434cdbd62f8cd1e0ea-d.jpg,,
22341821,Pediatric Psycho-oncology: Psychosocial Aspects  and Clinical Interventions,,,,"Shulamith Kreitler, Myriam Weyl Ben-Arush, Andr?s Martin",2012,2,Wiley-Blackwell,,328,0,English,,,0,"1119998832,9781119998839",,,,,,,,,,,0,,,,,,,0,3239252,pdf,0ee97eead9fc117d9dca316bbc94f492,,,0ee97eead9fc117d9dca316bbc94f492.pdf,0,2000-01-01 01:00:00,2016-04-03 02:51:08,1052000/0ee97eead9fc117d9dca316bbc94f492-d.jpg,,
22341822,Global Unions?: Theory and Strategies of Organized Labour in the Global Political Economy,,RIPE Series in Global Political Economy,,"Jeffrey Harrod, Robert O'Brien",2002,1st,Routledge,,304,0,English,,,0,"0415288118,9780415288118",,,,,,,,,,,0,,,,,,,0,3231953,pdf,c8e1f7f3435f269968461fe4f49264bb,,,c8e1f7f3435f269968461fe4f49264bb.pdf,0,2000-01-01 01:00:00,2016-04-03 02:51:08,1052000/c8e1f7f3435f269968461fe4f49264bb-d.jpg,,
22341823,Chemistry of Marine Natural Products,,,,Paul J. Scheuer,1973,First Edition,Academic Press Inc,,201,0,English,,,0,"0126240507,9780126240504",,,,,,,,,,,0,,,,,,,0,4714234,pdf,d6272c5772f7b1d9e0339baacad7704c,,,d6272c5772f7b1d9e0339baacad7704c.pdf,0,2000-01-01 01:00:00,2016-04-03 02:51:08,1052000/d6272c5772f7b1d9e0339baacad7704c-d.jpg,,
22341824,BYZANTIUM AND THE WEST: JEWELRY IN THE FIRST MILLENNIUM,,,,"Jeffrey Spier, Sandra Hindman",2012,1,Paul Holberton Publishing,,200,0,English,,,0,"0983854645,9780983854647",,,,,,,,,,,0,,,,,,,0,17329813,pdf,500f84754043eda64b98f505dd8f0e41,,,500f84754043eda64b98f505dd8f0e41.pdf,0,2000-01-01 01:00:00,2016-04-03 02:51:08,1052000/500f84754043eda64b98f505dd8f0e41-d.jpg,,
22341825,Post-Crisis Risk Management: Bracing for the Next Perfect Storm,,Wiley Finance,,Tsuyoshi Oyama,2010,1,Wiley,,240,0,English,,,0,"0470825375,9780470825372",,,,,,,,,,,0,,,,,,,0,3304588,pdf,0f4b58ab95e3cc9a631bc9a3fc41bfe0,,,0f4b58ab95e3cc9a631bc9a3fc41bfe0.pdf,0,2000-01-01 01:00:00,2016-04-03 02:51:08,1052000/0f4b58ab95e3cc9a631bc9a3fc41bfe0-d.jpg,,
22341826,"The Harvard Psychedelic Club: How Timothy Leary, RAM Dass, Huston Smith, and Andrew Weil Killed the Fifties and Ushered in a New Age for America",,,,Don Lattin,2011,,,,256,0,English,,,0,"0061655945, 0061655937",,,,,,,,,,,0,,,,,,,,3254714,epub,013392a13556cdbd67b77f89e9473d5c,,,"The Harvard Psychedelic Club - How Timothy Leary, RAM Dass, Huston Smith, and Andrew Weil Killed the Fifties and Ushered in a New Age for America",0,2000-01-01 01:00:00,2016-04-03 02:51:08,1052000/013392a13556cdbd67b77f89e9473d5c-d.jpeg,,
22341827,Neurocognition and Social Cognition in Schizophrenia Patients: Basic Concepts and Treatment,,Key Issues in Mental Health,,"Volker Roder, Alice Medalia",2010,1,S Karger Pub,,178,0,English,,,0,"3805593384,9783805593380",,,,,,,,,,,0,,,,,,,0,3460749,pdf,beed605b269f02c48f95db23adf05122,,,beed605b269f02c48f95db23adf05122.pdf,0,2000-01-01 01:00:00,2016-04-03 02:51:08,1052000/beed605b269f02c48f95db23adf05122-d.jpg,,
22341828,Stop Tweeting Boring Sh*t: The New Rules of Work,,,,Division of Labor,2013,,Chronicle Books,,112,0,English,,,0,"1452118256,9781452118253",,,,,,,,,,,0,,,,,,,,22144788,epub,2d772715db5b98cadbea95ab44c70748,,,2d772715db5b98cadbea95ab44c70748.epub,0,2000-01-01 01:00:00,2016-04-03 02:51:08,1052000/2d772715db5b98cadbea95ab44c70748-d.jpg,,
22341829,Office 2008 for Mac All-in-One For Dummies,,,,"Geetesh Bajaj, Jim Gordon",2009,1,For Dummies,,840,0,English,,,0,"0470460415,9780470460412",,,,,,,,,,,0,,,,,,,0,49915975,pdf,5b9882631a3cff2cd7731248c244708c,,,5b9882631a3cff2cd7731248c244708c.pdf,0,2000-01-01 01:00:00,2016-04-03 02:51:08,1052000/5b9882631a3cff2cd7731248c244708c-d.jpg,,
22341830,The Japan Journals: 1947-2004,,,,"Donald Richie, Leza Lowitz",2005,,Stone Bridge Press,,510,0,English,,,0,"1880656973,9781880656976",,,,,,,,,,,0,,,,,,,,10449794,epub,2b5b4cbc75a60422cac1ceee8b1148df,,,2b5b4cbc75a60422cac1ceee8b1148df.epub,0,2000-01-01 01:00:00,2016-04-03 02:51:08,1052000/2b5b4cbc75a60422cac1ceee8b1148df-d.jpg,,
22341831,Programming Groovy 2: Dynamic Productivity for the Java Developer,,Pragmatic Bookshelf,,Venkat Subramaniam,2013,2,Pragmatic Bookshelf,,350,0,English,,,0,"1937785300,9781937785307",,,,,,,,,,,0,,,,,,,,3210635,epub,376401941f84866c4ce1126591272e9f,,,376401941f84866c4ce1126591272e9f.epub,0,2000-01-01 01:00:00,2016-04-03 02:51:08,1052000/376401941f84866c4ce1126591272e9f-d.jpg,,
22341832,"The Sweet Book of Candy Making: From the Simple to the Spectacular-How to Make Caramels, Fudge, Hard Candy, Fondant, Toffee, and More!",,,,Elizabeth LaBau,2012,,Quarry Books,,160,0,English,,,0,"159253810X,9781592538102",,,,,,,,,,,0,,,,,,,0,58191935,pdf,46ba419910cc9705cf759b77ec8e750d,,,46ba419910cc9705cf759b77ec8e750d.pdf,0,2000-01-01 01:00:00,2016-04-03 02:51:08,1052000/46ba419910cc9705cf759b77ec8e750d-d.jpg,,
22341833,Real-Time Systems Design and Analysis: Tools for the Practitioner,,,,"Phillip A. Laplante, Seppo J. Ovaska",2011,4,Wiley-IEEE Press,,584,0,English,,,0,"0470768649,9780470768648",,,,,,,,,,,0,,,,,,,0,3202736,pdf,8bed313de1cac2f19b284d3c86eae95d,,,8bed313de1cac2f19b284d3c86eae95d.pdf,0,2000-01-01 01:00:00,2016-04-03 02:51:08,1052000/8bed313de1cac2f19b284d3c86eae95d-d.jpg,,
22341834,Biographical Encyclopedia of the Modern Middle East & North Africa,,,,Michael R. Fischbach,2007,1,Gale,,1000,0,English,,,0,"1414418892,9781414418896",,,,,,,,,,,0,,,,,,,0,14166066,pdf,ccde8593c85339e7181f05681f06800e,,,ccde8593c85339e7181f05681f06800e.pdf,0,2000-01-01 01:00:00,2016-04-03 02:51:08,1052000/ccde8593c85339e7181f05681f06800e-d.jpg,,
22341835,E-Business Best Practices: Leveraging Technology for Business Advantage,,,,Stewart McKie,2001,1,Wiley,,208,0,English,,,0,"0471402516,9780471402510",,,,,,,,,,,0,,,,,,,,3740576,epub,0f6dfdb38c7bf213a1dd091aab4d78e3,,,0f6dfdb38c7bf213a1dd091aab4d78e3.epub,0,2000-01-01 01:00:00,2016-04-03 02:51:08,1052000/0f6dfdb38c7bf213a1dd091aab4d78e3-d.jpg,,
22341836,The Richard Burton Diaries,,,,"Richard Burton, Chris Williams",2012,1st,Yale University Press,,704,0,English,,,0,"0300180101,9780300180107",,,,,,,,,,,0,,,,,,,,2756435,epub,38528addeab5d6bcff387717abaa57a4,,,38528addeab5d6bcff387717abaa57a4.epub,0,2000-01-01 01:00:00,2016-04-03 02:51:08,1052000/38528addeab5d6bcff387717abaa57a4-d.jpg,,
22341837,Rethinking Enterprise Storage: A Hybrid Cloud Model,,,,Marc Farley,2013,,Microsoft Press,,120,0,English,,,0,"0735679606,9780735679603",,,,,,,,,,,0,,,,,,,0,3455634,pdf,3c5846e2f01ec55d1fff709f6db46b6e,,,3c5846e2f01ec55d1fff709f6db46b6e.pdf,0,2000-01-01 01:00:00,2016-04-03 02:51:08,1052000/3c5846e2f01ec55d1fff709f6db46b6e-d.jpg,,
22341838,In-N-Out Burger: A Behind-the-Counter Look at the Fast-Food Chain That Breaks All the Rules,,,,Stacy Perman,2009,1,HarperBusiness,,352,0,English,,,0,"0061346713,9780061346712",,,,,,,,,,,0,,,,,,,,1706063,epub,dad37fd59167369666597e4a6b582f84,,,dad37fd59167369666597e4a6b582f84.epub,0,2000-01-01 01:00:00,2016-04-03 02:51:08,1052000/dad37fd59167369666597e4a6b582f84-d.jpg,,
22341839,Microsoft Visual C++/CLI Step by Step,,Step By Step (Microsoft),,Julian Templeman,2013,,Microsoft Press,,540,0,English,87,,0,"0735675171,9780735675179",,,,,,,,,,,0,,,,,,,0,53556157,pdf,9d9736c8d654499f2be28beb5eba953b,,,9d9736c8d654499f2be28beb5eba953b.pdf,0,2000-01-01 01:00:00,2016-04-03 02:51:08,1052000/9d9736c8d654499f2be28beb5eba953b-d.jpg,,
22341840,Investment Analysis and Portfolio Management,,,,"Frank K. Reilly, Keith C. Brown",2002,7,South-Western College Pub,,1248,0,English,,,0,"0324171730,9780324171730",,,,,,,,,,,0,,,,,,,0,9929212,pdf,216d3c47790eaf3b7fc296428a4df463,,,216d3c47790eaf3b7fc296428a4df463.pdf,0,2000-01-01 01:00:00,2016-04-03 02:51:08,1052000/216d3c47790eaf3b7fc296428a4df463-d.jpg,,
22341841,A Parent's Guide to Special Education: Insider Advice on How to Navigate the System and Help Your Child Succeed,,,,"Linda Wilmshurst, Alan W. Brue",2005,1,AMACOM,,256,0,English,,,0,"0814472834,9780814472835",,,,,,,,,,,0,,,,,,,0,4123125,pdf,a649e89a0607cdfddef7772de07f6cc5,,,a649e89a0607cdfddef7772de07f6cc5.pdf,0,2000-01-01 01:00:00,2016-04-03 02:51:08,1052000/a649e89a0607cdfddef7772de07f6cc5-d.jpg,,
22341842,"Simple and Usable Web, Mobile, and Interaction Design",,Voices That Matter,,Giles Colborne,2010,1,New Riders,,208,0,English,,,0,"0321703545,9780321703545",,,,,,,,,,,0,,,,,,,0,8273937,pdf,7574cc5595ba0a0ba166e01b2ba7ff85,,,7574cc5595ba0a0ba166e01b2ba7ff85.pdf,0,2000-01-01 01:00:00,2016-04-03 02:51:08,1052000/7574cc5595ba0a0ba166e01b2ba7ff85-d.jpg,,
22341843,"Kropotkin: And the Rise of Revolutionary Anarchism, 1872-1886",,,,Caroline Cahm,1989,First Edition,Cambridge University Press,,384,0,English,,,0,"0521364450,9780521364454",,,,,,,,,,,0,,,,,,,0,10126810,pdf,9d7f7f8bf5458b84a5174461265f0ae4,,,9d7f7f8bf5458b84a5174461265f0ae4.pdf,0,2000-01-01 01:00:00,2016-04-03 02:51:08,1052000/9d7f7f8bf5458b84a5174461265f0ae4-d.jpg,,
22341844,The Alternative Answer: The Nontraditional Investments That Drive the World's Best-Performing Portfolios,,,,Bob Rice,2013,1,HarperBusiness,,288,0,English,,,0,"0062257900,9780062257901",,,,,,,,,,,0,,,,,,,,1749103,mobi,c1d770c81d3f69987e176012b04c2e15,,,c1d770c81d3f69987e176012b04c2e15.mobi,0,2000-01-01 01:00:00,2016-04-03 02:51:08,1052000/c1d770c81d3f69987e176012b04c2e15-d.jpg,,
22341845,Enzyme Kinetics and Mechanisms,,,,Kenneth B. Taylor,2002,2002,Springer,,227,0,English,,,0,"1402007280,9781402007286",,,,,,,,,,,0,,,,,,,0,7218345,pdf,46a0d0cc53d650872c2d7c1e49cef72e,,,46a0d0cc53d650872c2d7c1e49cef72e.pdf,0,2000-01-01 01:00:00,2016-04-03 02:51:08,1052000/46a0d0cc53d650872c2d7c1e49cef72e-d.jpg,,
22341846,Introduction to Online Payments Risk Management,,,,Ohad Samet,2013,,O'Reilly Media,,84,0,English,,,0,"1449370675,9781449370671",,,,,,,,,,,0,,,,,,,0,10733184,pdf,d391d958e8391e15ddb2db7171ca75e9,,,d391d958e8391e15ddb2db7171ca75e9.pdf,0,2000-01-01 01:00:00,2016-04-03 02:51:08,1052000/d391d958e8391e15ddb2db7171ca75e9-d.jpg,,
22341847,Intertemporal Macroeconomics,,,,Costas Azariadis,1993,1,Wiley-Blackwell,,528,0,English,,,0,"1557863660,9781557863669",,,,,,,,,,,0,,,,,,,0,7450144,pdf,c5e46c7f660714e7818719d232f26a3f,,,Azariadis._1993._Intertemporal_Macroeconomics,0,2000-01-01 01:00:00,2016-04-03 02:51:08,1052000/c5e46c7f660714e7818719d232f26a3f-d.jpg,,
22341848,Dynamic Fracture,,,,K. Ravi-Chandar,2004,1,Elsevier Science,,264,0,English,,,0,"0080443524,9780080443522",,,,,,,,,,,0,,,,,,,0,4573867,pdf,18af747eebe22e73858786a85b1db415,,,18af747eebe22e73858786a85b1db415.pdf,0,2000-01-01 01:00:00,2016-04-03 02:51:08,1052000/18af747eebe22e73858786a85b1db415-d.jpg,,
22341849,LINQ Quickly,,,,N. Satheesh Kumar,2007,,Packt Publishing,,252,0,English,,,0,"1847192548,9781847192547",,,,,,,,,,,0,,,,,,,0,6756502,pdf,69a65e2523e7a6a56103b8aab79eb16c,,,69a65e2523e7a6a56103b8aab79eb16c.pdf,0,2000-01-01 01:00:00,2016-04-03 02:51:08,1052000/69a65e2523e7a6a56103b8aab79eb16c-d.jpg,,
22341850,Can You Play Cricket on Mars?: And Other Scientific Questions Answered,,,,Patrick Moore,2008,,The History Press,,224,0,English,,,0,"0750951141,9780750951142",,,,,,,,,,,0,,,,,,,,1353095,mobi,d0902220cdd3f1ce404b7da40618a8eb,,,d0902220cdd3f1ce404b7da40618a8eb.mobi,0,2000-01-01 01:00:00,2016-04-03 02:51:08,1052000/d0902220cdd3f1ce404b7da40618a8eb-d.jpg,,
22341851,"The Anthropology of Economy: Community, Market, and Culture",,,,Stephen Gudeman,2001,1,Wiley-Blackwell,,198,0,English,,,0,"0631225676,9780631225676",,,,,,,,,,,0,,,,,,,1,2190889,pdf,4b9fa3d18d7c2907070b94d0e580e3a9,,,"2001-Gudeman - The anthropology of economy Community, market, and culture",0,2000-01-01 01:00:00,2016-04-03 02:51:08,1052000/4b9fa3d18d7c2907070b94d0e580e3a9-d.jpg,,
22341852,AutoCAD 2014 Essentials: Autodesk Official Press,,,,Scott Onstott,2013,1,Sybex,,432,0,English,,,0,"1118575091,9781118575093",,,,,,,,,,,0,,,,,,,0,54473624,pdf,0d3bc4cbdc0d45afcb89facd023933a7,,,0d3bc4cbdc0d45afcb89facd023933a7.pdf,0,2000-01-01 01:00:00,2016-04-03 02:51:08,1052000/0d3bc4cbdc0d45afcb89facd023933a7-d.jpg,,
22341853,CliffsStudySolver English Grammar,,,,"Jeff Coghill, Stacy Magedanz",2003,1,Cliffs Notes,,336,0,English,,,0,"0764537660,9780764537660",,,,,,,,,,,0,,,,,,,0,7867510,pdf,dc0209d8c58255452fc98122f6aa6247,,,dc0209d8c58255452fc98122f6aa6247.pdf,0,2000-01-01 01:00:00,2016-04-03 02:51:08,1052000/dc0209d8c58255452fc98122f6aa6247-d.jpg,,
22341854,Performing Dark Arts: A Cultural History of Conjuring,,Intellect Books - Theatre and Consciousness,,Michael Mangan,2007,,Intellect Ltd,,280,0,English,,,0,"1841501492,9781841501499",,,,,,,,,,,0,,,,,,,0,4022162,pdf,b863bd7105cfa323b4f42dc2b35255a9,,,b863bd7105cfa323b4f42dc2b35255a9.pdf,0,2000-01-01 01:00:00,2016-04-03 02:51:08,1052000/b863bd7105cfa323b4f42dc2b35255a9-d.jpg,,
22341855,Control and Optimal Control Theories with Applications,,,,"David N Burghes, Alexander Graham",2004,,Woodhead Publishing,,400,0,English,,,0,"190427501X,9781904275015",,,,,,,,,,,0,,,,,,,0,11387559,pdf,cb6ad39c333a14ce51a978fcef5de505,,,cb6ad39c333a14ce51a978fcef5de505.pdf,0,2000-01-01 01:00:00,2016-04-03 02:51:08,1052000/cb6ad39c333a14ce51a978fcef5de505-d.jpg,,
22341856,"Passionate Amateurs: Theatre, Communism, and Love",,Theater: Theory/Text/Performance,,Nicholas Ridout,2013,,University of Michigan Press,,216,0,English,,,0,"0472119079,9780472119073",,,,,,,,,,,0,,,,,1,,1,8177197,pdf,463449af756b2a7ef9eab0f4ff9cae05,,,Nicholas Ridout - Passionate Amateurs,0,2000-01-01 01:00:00,2016-04-03 02:51:08,1052000/463449af756b2a7ef9eab0f4ff9cae05-d.jpg,,
22341857,The neophyte's guide to Scala,,,,Daniel Westheide,2013,,Lean Publishing,,126,0,English,,,0,,,,,,,,,,,,0,,,,,,,1,493391,pdf,f4c0f34cda81787d4a9e4ff6bd48a069,,,theneophytesguidetoscala-x-o,0,2000-01-01 01:00:00,2016-04-03 02:51:08,1052000/f4c0f34cda81787d4a9e4ff6bd48a069-g.jpg,,
22341858,Computational Recreations in Mathematica,,,,Ilan Vardi,1991,1,Addison-Wesley Professional,,303,0,English,122,,0,"0201529890, 9780201529890",,,,,,,,,,"Cover, OCR, bookmarks, paginated",600,0,1,0,1,1,1,1,4884814,djvu,0f79f0614731f0fcf49a4a9e310fcbad,,,Computational.Recreations.In.Mathematica_Vardi_0201529890,0,2000-01-01 01:00:00,2016-04-03 02:51:08,1052000/0f79f0614731f0fcf49a4a9e310fcbad-d.png,,
22341859,The Art of Modeling in Science and Engineering with Mathematica,,,,"Diran Basmadjian, Ramin Farnood",2006,2,Chapman and Hall/CRC,,522,0,English,,,0,"1584884606, 9781584884606",,,,,,,,,,"Covers, 2 level bookmarks, OCR, paginated.",600,0,1,0,1,1,1,1,4415526,djvu,62bc71368673e2dd6311e5929d5631b9,,,The.Art.Of.Modeling.In.Science.And.Engineering.With.Mathematica_2e_Basmadjian.Famood_1584884606,0,2000-01-01 01:00:00,2016-04-03 02:51:08,1052000/62bc71368673e2dd6311e5929d5631b9-d.png,,
22341860,Selected Works of the Dalai Lama II: The Tantric Yogas of Sister Niguma,,Teachings of the Dalai Lamas,,"Dalai Lama II Dge-Dun-Rgya-Mtsho, Glenn Mullin, Zasep Rinpoche",1985,,Snow Lion Publications,,242,0,English,,,0,"0937938289,9780937938287",,,,,,,,,,,0,,,,,,,1,7508709,pdf,3b628552b2033be75a1ff1299ad6cade,,,Glenn H. Mullin - Selected Works of the Dalai Lama II - The Tantric Yogas of Sister Niguma,0,2000-01-01 01:00:00,2016-04-03 02:51:08,1052000/3b628552b2033be75a1ff1299ad6cade-d.jpg,,
22341861,Five Golden Rules: Great Theories of 20th-Century Mathematics--and Why They Matter,,,,John Casti,1995,1,Wiley,,248,0,English,146,,0,"0471002615, 9780471002611",,,,,,,,,,"Covers, bookmarks, OCR, paginated.",600,0,1,0,1,1,1,1,2198577,djvu,50cede56e9f1d1e3c4fa6fc08e50a084,,,Five.Golden.Rules_Casti_0471002615,0,2000-01-01 01:00:00,2016-04-03 02:51:08,1052000/50cede56e9f1d1e3c4fa6fc08e50a084-d.png,,
22341862,"Five More Golden Rules: Knots, Codes, Chaos and Other Great Theories of 20th-Century Mathematics",,,,John Casti,2000,1,Wiley,,273,0,English,,,0,"0471322334, 9780471322337",,,,,,,,,,"Cover, bookmarks, OCR, paginated.  Replaces a hard-to-read HTML version.",600,0,1,0,1,1,1,1,3192490,djvu,921f8232199258ab1007f44cd42581fe,,,Five.More.Golden.Rules_Casti_0471322334,0,2000-01-01 01:00:00,2016-04-03 02:51:08,1052000/921f8232199258ab1007f44cd42581fe-d.png,,
22341863,Behavioral Genetics,,,,"Robert Plomin, John C. DeFries, Valerie S. Knopik, Jenae M. Neiderhiser",2012,Sixth Edition,Worth Publishers,,560,0,English,,,0,"1429242159,9781429242158",,,,,,,,,,,0,,,,,,,1,40850808,pdf,ae5e723c28c1d85187c43cc69abdb0c2,,,Behavioral Genetics Robert Plomin 560p_1429242159,0,2000-01-01 01:00:00,2016-04-03 02:51:08,1052000/ae5e723c28c1d85187c43cc69abdb0c2-d.jpg,,
22341864,BWL kompakt: Die 100 wichtigsten Themen der Betriebswirtschaft für Praktiker,,,,Christian Kreuzer,2013,4. Auflage,Linde International,Wien,504,0,German,,,0,"3714302581,9783714302585",,,,,,,,,,,0,,,,,,,1,8346469,pdf,12c7449a1e5a3bedb92a0eaf5a944ab4,,,BWL kompakt,0,2000-01-01 01:00:00,2016-04-03 02:51:08,1052000/12c7449a1e5a3bedb92a0eaf5a944ab4-d.jpg,,
22341865,Vermieter-Ratgeber,,,,Matthias Nöllke,2013,9. Auflage,Haufe-Lexware,,228,0,German,,,0,"3648047191,9783648047194",,,,,,,,,,,0,,,,,,,1,1504471,pdf,38360b2246033aab2a35150b2d411195,,,Vermieter-Ratgeber,0,2000-01-01 01:00:00,2016-04-03 02:51:08,1052000/38360b2246033aab2a35150b2d411195-d.jpg,,
22341866,Den letzten Abschied selbst gestalten: Alternative Bestattungsformen,,,,Magdalena Köster,2012,2. Auflage,Ch. Links Verlag,,192,0,German,,,0,"3861536870,9783861536871",,B0071NPTN2,,,,,,,,,0,,,,,,,,3420657,epub,5fd4cd47641307d90e7c3d840319eeea,,,3861536870_Abschied ,0,2000-01-01 01:00:00,2016-04-03 02:51:08,1052000/5fd4cd47641307d90e7c3d840319eeea-d.jpg,,
22341867,Das große Brain-Fitness-Buch. Für ein besseres Gedächtnis und höhrere Konzentration. Mit vielen Übungen und Tests.,,,,Ursula Oppolzer,2008,3. Auflage,Humboldt / Schlütersche,,192,0,German,,,0,"3899941918,9783899941913",,,,,,,,,,,0,,,,,,,1,1673198,pdf,d86c929350ec8f8d16ad2b4aaed45d9b,,,Das große Brain-Fitness-Buch,0,2000-01-01 01:00:00,2016-04-03 02:51:08,1052000/d86c929350ec8f8d16ad2b4aaed45d9b-d.jpg,,
22341868,Die Merkel-Strategie Deutschlands erste Kanzlerin und ihr Weg zur Macht,,,,"Nathalie Daiber, Richard Skuppin",2006,,Hanser Verlag,,208,0,German,,,0,"3446406646,9783446406643",,,,,,,,,,,0,,,,,,,1,782123,pdf,9a43a0f0dd09304aecb495952452d9d8,,,Die Merkel-Strategie,0,2000-01-01 01:00:00,2016-04-03 02:51:08,1052000/9a43a0f0dd09304aecb495952452d9d8-d.jpg,,
22341869,Wirtschaftswoche 49 2013,,,,Wirtschaftswoche 49 2013,2013,,,,58,0,German,,,0,,,,,,,,,,,,0,,,,,,,1,8921557,pdf,67ae8fca83414b53feffcdc705813326,,,WiWo-2013.01.12,0,2000-01-01 01:00:00,2016-04-03 02:51:08,1052000/67ae8fca83414b53feffcdc705813326-g.jpg,,
22341870,Hamiltonian Mechanics of Gauge Systems,,Cambridge Monographs on Mathematical Physics,,"Prokhorov, L.V. and Shabanov, S.V.",2011,illustrated,Cambridge University Press,,466,0,,,,0,"1139500902, 9781139500906",,,,,,2012359977,,ZhanSiGGjE8C,,,300,,,,,1,1,1,93165514,pdf,c303167fe7398c6347aaf024c531a0a7,,,"[Prokhorov, L.V.; Shabanov, S.V.] Hamiltonian Mechanics of Gauge Systems",0,2000-01-01 01:00:00,2016-04-03 02:51:08,1052000/c303167fe7398c6347aaf024c531a0a7-d.jpg,,
22341871,Knowledge and Social Imagery,,,,David Bloor,1991,2nd,University of Chicago Press,Chicago,211,0,English,,,0,"0226060977,9780226060972",,,,,,,,,,,300,0,1,0,1,1,0,1,7918661,pdf,f9eb3b988677f812bdfcd5a618d44a71,,,Bloor - Knowledge and Social Imagery (1991),0,2000-01-01 01:00:00,2016-04-03 02:51:08,1052000/f9eb3b988677f812bdfcd5a618d44a71-d.jpg,,
22341872,"A History of Korea: From \Land of the Morning Calm\"" to States in Conflict""",,,,Jinwung Kim,2012,,Indiana University Press,,709,0,English,64,,0,"0253000246,9780253000248",,,,,,,,,,,0,,,,1,,1,1,21547057,pdf,861309dd8b30dd46c7bed5fcdf323acf,,,0253000246HistoryKorea,0,2000-01-01 01:00:00,2016-04-03 02:51:08,1052000/861309dd8b30dd46c7bed5fcdf323acf-d.jpg,,
22341873,New Jersey: A History of the Garden State,,,,"Maxine N. Lurie, Richard Veit, Michael J. Birkner, Howard Gillette, G. Kurt Piehler, Brian Greenberg, Larry Greene, Graham Russell Gao Hodges, John Fea, Paul Israel, Marc Mappen",2012,,Rutgers University Press,,335,0,English,64,,0,"0813554098,9780813554099",,,,,,,,,,,0,,,,1,,1,1,4218418,pdf,754bae78c229e8bfeae2716dad87de50,,,0813554098NewJersey,0,2000-01-01 01:00:00,2016-04-03 02:51:08,1052000/754bae78c229e8bfeae2716dad87de50-d.jpg,,
22341874,Programming ArcGIS 10.1 with Python Cookbook,,,,Eric Pimpler,2013,,Packt Publishing,,304,0,English,87,,0,"1849694443,9781849694445",,,,,,,,,,,0,,,,,,,,15243230,epub,b4b2106477656497091188ce86dc3716,,,b4b2106477656497091188ce86dc3716.epub,0,2000-01-01 01:00:00,2016-04-03 02:51:08,1052000/b4b2106477656497091188ce86dc3716-d.jpg,,
22341875,"Steel Structures: Practical Design Studies, Second Edition",,,,T.J. MacGinley,1998,2,CRC Press,,272,0,English,,,0,"0419179305,9780419179306",,,,,,,,,,,0,,,,,,,1,5348580,pdf,d60f4e1b0b2d8ea6437e0b53433463ea,,,Steel Structures Practical Design Studies by T. J. MacGinley_2nd Ed-1998-0419179305_BS 5950 ,0,2000-01-01 01:00:00,2016-04-03 02:51:08,1052000/d60f4e1b0b2d8ea6437e0b53433463ea-d.jpg,,
22341876,Cahier de maths 2de - édition 2013,,,,"Michèle Le Bras, Annie Soismier",2013,,Hachette Éducation,,96,0,Français,113,,0,"2011355907,9782011355904",,,,,,,,,,,0,,,,,,,1,19580003,pdf,5d458a29575705125b72ade5c02028fb,,,Cahier de maths 2de - édition 2013,0,2000-01-01 01:00:00,2016-04-03 02:51:08,1052000/5d458a29575705125b72ade5c02028fb-d.jpg,,
22341877,Models of Disorder: The Theoretical Physics of Homogeneously Disordered Systems,,,,J. M. Ziman,1979,,Cambridge University Press,,541,0,English,286,,0,"0521292808,9780521292801",,,,,,,,,,,600,,,,,1,,1,10180741,djvu,7b0b6f5cacaaff36b750dcee0d85af26,,,Ziman - Disorder,0,2000-01-01 01:00:00,2016-04-03 02:51:08,1052000/7b0b6f5cacaaff36b750dcee0d85af26-d.jpg,,
22341878,"Live in a Better Way: Reflections on Truth, Love and Happiness",,,,His Holiness the Dalai Lama,2001,,Viking Adult,,242,0,English,,,0,"0670896713,9780670896714",,,,,,,,,,,0,,,,,,,1,6527208,pdf,885c12adf8e18d2545ed5a20fcc9f20f,,,"Dalai Lama - Live in a Better Way - Reflections on Truth, Love and Happiness",0,2000-01-01 01:00:00,2016-04-03 02:51:08,1052000/885c12adf8e18d2545ed5a20fcc9f20f-d.jpg,,
22341879,Lanczos Algorithms for Large Symmetric Eigenvalue Computations Volume 1: Theory,,Classics in Applied Mathematics,,"Jane K. Cullum, Ralph A. Willoughby",2002,1st,SIAM: Society for Industrial and Applied Mathematics,,273,0,English,,,0,"0898715237,9780898715231",,,,,,,,,,,0,,,,,,,0,25630781,pdf,5df33ce2ac8fcca0bfc5bd7abc1fb69d,,,5df33ce2ac8fcca0bfc5bd7abc1fb69d.pdf,0,2000-01-01 01:00:00,2016-04-03 02:51:08,1052000/5df33ce2ac8fcca0bfc5bd7abc1fb69d-d.jpg,,
22341880,"Principles of Big Data: Preparing, Sharing, and Analyzing Complex Information",,,,Jules J Berman,2013,1,Morgan Kaufmann,,288,0,English,,,0,"0124045766,9780124045767",,,,,,,,,,,0,,,,,,,,3238549,epub,94bc90088110156d1cd880147dbc8d91,,,94bc90088110156d1cd880147dbc8d91.epub,0,2000-01-01 01:00:00,2016-04-03 02:51:08,1052000/94bc90088110156d1cd880147dbc8d91-d.jpg,,
22341881,Interweave Presents Crocheted Gifts: Irresistible Projects to Make & Give,,,,Kim Werker,2009,,Interweave,,120,0,English,,,0,"1596681071,9781596681071",,,,,,,,,,,0,,,,,,,0,107853361,pdf,668bfaa79726d82b014252b447bd72ab,,,668bfaa79726d82b014252b447bd72ab.pdf,0,2000-01-01 01:00:00,2016-04-03 02:51:08,1052000/668bfaa79726d82b014252b447bd72ab-d.jpg,,
22341882,The Christmas Book,,,,Sheherazade Goldsmith,2008,,Dorling Kindersley Publishers Ltd,,352,0,English,,,0,"1405332239,9781405332231",,,,,,,,,,,0,,,,,,,0,38838052,pdf,ce0963c426e12f11567d70210917f29c,,,ce0963c426e12f11567d70210917f29c.pdf,0,2000-01-01 01:00:00,2016-04-03 02:51:08,1052000/ce0963c426e12f11567d70210917f29c-d.jpg,,
22341883,"Crowdsourcing for Speech Processing: Applications to Data Collection, Transcription and Assessment",,,,"Maxine Eskenazi, Gina-Anne Levow, Helen Meng, Gabriel Parent, David Suendermann",2013,1,Wiley,,356,0,English,,,0,"1118358694,9781118358696",,,,,,,,,,,0,,,,,,,0,4287559,pdf,10a7ef6318b496e6e7a31308630bbdd0,,,10a7ef6318b496e6e7a31308630bbdd0.pdf,0,2000-01-01 01:00:00,2016-04-03 02:51:08,1052000/10a7ef6318b496e6e7a31308630bbdd0-d.jpg,,
22341884,Introduction to Renormalization,,,,D. Anselmi,2010,Second,,Pisa,206,0,,,,0,,,,,,,,,7wKs5lafnSwC,,,300,,,,,1,0,1,42277761,pdf,30fc59465c494d7d849e7fb27229ba6d,,,[Anselmi,0,2000-01-01 01:00:00,2016-04-03 02:51:08,1052000/30fc59465c494d7d849e7fb27229ba6d-d.jpg,,
22341885,More ProActive Sales Management: Avoid the Mistakes Even Great Sales Managers Make -- And Get Extraordinary Results,,,,"William \Skip\"" Miller""",2009,,AMACOM,,224,0,English,,,0,"0814410901,9780814410905",,,,,,,,,,,0,,,,,,,0,3357962,pdf,078b1b98fa05de1704df2c675db65843,,,078b1b98fa05de1704df2c675db65843.pdf,0,2000-01-01 01:00:00,2016-04-03 02:51:08,1052000/078b1b98fa05de1704df2c675db65843-d.jpg,,
22341886,Tissue Engineering,,Principles and Applications in Engineering,,"Bernhard Palsson, Jeffrey A. Hubbell, Robert Plonsey, Joseph D. Bronzino",2003,,CRC Press,,392,0,English,,,0,"0849318122,9780849318122",,,,,,,,,,,0,,,,,,,0,32408059,pdf,f0daa3f94bd121984c2e9c454ee99f24,,,f0daa3f94bd121984c2e9c454ee99f24.pdf,0,2000-01-01 01:00:00,2016-04-03 02:51:08,1052000/f0daa3f94bd121984c2e9c454ee99f24-d.jpg,,
22341887,Nursing Care of the Pediatric Neurosurgery Patient,,,,"Cathy C. Cartwright, Donna C. Wallace",2013,2nd ed. 2013,Springer,,450,0,English,,,0,"364232553X,9783642325533",,,,,,,,,,,0,,,,,,,0,18059646,pdf,253c15fac2dbdb165f2fdff474b219d9,,,253c15fac2dbdb165f2fdff474b219d9.pdf,0,2000-01-01 01:00:00,2016-04-03 02:51:08,1052000/253c15fac2dbdb165f2fdff474b219d9-d.jpg,,
22341888,Relativistic Nuclear Interactions,,,,C. Pajares and Yu.M. Shabelski,2007,,Editorial URSS,,271,0,English,,,0,"5484010152,9785484010158",,,,,,,,,,,300,,,,,1,1,1,70621050,pdf,b4e95a640c004021ec14a97d5d1930ff,,,"[Pajares, C.; Shabelski, Yu.M.] Relativistic Nuclear Interactions",0,2000-01-01 01:00:00,2016-04-03 02:51:08,1052000/b4e95a640c004021ec14a97d5d1930ff-g.jpg,,
22341889,"MCTS 70-643 Exam Cram: Windows Server 2008 Applications Infrastructure, Configuring",,,,Patrick Regan,2008,1,Pearson IT Certification,,480,0,English,,,0,"0789738198,9780789738196",,,,,,,,,,,0,,,,,,,0,5378412,pdf,f928828c5d271e46209dfbb46b78a03c,,,f928828c5d271e46209dfbb46b78a03c.pdf,0,2000-01-01 01:00:00,2016-04-03 02:51:08,1052000/f928828c5d271e46209dfbb46b78a03c-d.jpg,,
22341890,The Attraction of Peyote: An Inquiry into the Basic Conditions for the Diffusion of the Peyote Religion in North America,,"Stockholm Studies in Comparative Religion , No 33",,Ake Hultkrantz,1997,,Coronet Books Inc,,233,0,English,,,0,"9122017127,9789122017127",,,,,,,,,,,0,,,,,,,0,4013208,pdf,24121970dfffd6455d4bbfb7b610fb12,,,24121970dfffd6455d4bbfb7b610fb12.pdf,0,2000-01-01 01:00:00,2016-04-03 02:51:08,1052000/24121970dfffd6455d4bbfb7b610fb12-d.jpg,,
22341891,"Optimization, Simulation, and Control",,Springer Optimization and Its Applications,,"Altannar Chinchuluun, Panos Pardalos, Rentsen Enkhbat, Efstratios N. Pistikopoulos",2012,2013,Springer,,348,0,English,,,0,"1461451302,9781461451303",,,,,,,,,,,0,,,,,,,0,4336521,pdf,880ae272fe622ed77ad876f57e9d5179,,,880ae272fe622ed77ad876f57e9d5179.pdf,0,2000-01-01 01:00:00,2016-04-03 02:51:08,1052000/880ae272fe622ed77ad876f57e9d5179-d.jpg,,
22341892,The Life of Super-Earths: How the Hunt for Alien Worlds and Artificial Cells Will Revolutionize Life on Our Planet,,,,Dimitar Sasselov,2012,,Basic Books,,240,0,English,,,0,"046502193X,9780465021932",,,,,,,,,,,0,,,,,,,,1073541,epub,713fa974e3d8809203220975e6017127,,,713fa974e3d8809203220975e6017127.epub,0,2000-01-01 01:00:00,2016-04-03 02:51:08,1052000/713fa974e3d8809203220975e6017127-d.jpg,,
22341893,Group Theory for the Standard Model of Particle Physics and Beyond,,"Series in High Energy Physics, Cosmology and Gravitation",,Ken J. Barnes,2010,1,Taylor & Francis,,255,0,English,,,0,"1420078747,9781420078749",,,,,,,,,,,300,,,,,1,1,1,52497931,pdf,c3395228687f76a0c6cb1731c9839d3b,,,"[Barnes,2",0,2000-01-01 01:00:00,2016-04-03 02:51:08,1052000/c3395228687f76a0c6cb1731c9839d3b-d.jpg,,
22341894,Neanderthal,,,,Paul Jordan,2000,illustrated edition,Sutton Publishing,,256,0,English,,,0,"0750919345,9780750919340",,,,,,,,,,,0,,,,,,,,8722979,mobi,8107aaedfe9cb01fe01ede6258d7a939,,,8107aaedfe9cb01fe01ede6258d7a939.mobi,0,2000-01-01 01:00:00,2016-04-03 02:51:08,1052000/8107aaedfe9cb01fe01ede6258d7a939-d.jpg,,
22341895,The Fund Industry: How Your Money is Managed,,Wiley Finance,,"Robert Pozen, Theresa Hamacher, Don T. Phillips",2011,1,Wiley,,526,0,English,,,0,"0470634251,9780470634257",,,,,,,,,,,0,,,,,,,0,5695530,pdf,bc784bf85bb605baf4a10320e3d37968,,,bc784bf85bb605baf4a10320e3d37968.pdf,0,2000-01-01 01:00:00,2016-04-03 02:51:08,1052000/bc784bf85bb605baf4a10320e3d37968-d.jpg,,
22341896,Cardigans & Closures,,,,Melissa Leapman,2012,,Annie's,,56,0,English,,,0,"1592173659,9781592173655",,,,,,,,,,,0,,,,,,,0,14306802,pdf,43b21db48af6f8269b26cbda438bd5de,,,43b21db48af6f8269b26cbda438bd5de.pdf,0,2000-01-01 01:00:00,2016-04-03 02:51:08,1052000/43b21db48af6f8269b26cbda438bd5de-d.jpg,,
22341897,Digital Terrain Modelling: Development and Applications in a Policy Support Environment,,Lecture Notes in Geoinformation and Cartography,,"Robert Joseph Peckham, Gyozo Jordan",2007,1,Springer,,313,0,English,,,0,"3540367306,9783540367307",,,,,,,,,,,0,,,,,,,0,12749865,pdf,557949258d1621be49891a488c9c86aa,,,557949258d1621be49891a488c9c86aa.pdf,0,2000-01-01 01:00:00,2016-04-03 02:51:08,1052000/557949258d1621be49891a488c9c86aa-d.jpg,,
22341898,Rising China: Global Challenges and Opportunities,,,,"Jane Golley, Ligang Song",2011,,ANU E Press,,362,0,English,,,0,"1921862289,9781921862281",,,,,,,,,,,0,,,,,,,0,3660551,pdf,3aa6b69a68a30615f09c2122b0dbccca,,,3aa6b69a68a30615f09c2122b0dbccca.pdf,0,2000-01-01 01:00:00,2016-04-03 02:51:08,1052000/3aa6b69a68a30615f09c2122b0dbccca-d.jpg,,
22341899,A House in the Sky: A Memoir,,,,"Amanda Lindhout, Sara Corbett",2013,First Edition,Scribner,,384,0,English,,,0,"1451645600,9781451645606",,,,,,,,,,,0,,,,,,,,2603392,epub,7e95d6f1e651c9810aec737ece732118,,,7e95d6f1e651c9810aec737ece732118.epub,0,2000-01-01 01:00:00,2016-04-03 02:51:08,1052000/7e95d6f1e651c9810aec737ece732118-d.jpg,,
22341900,The Oxford Guide to Library Research,,,,Thomas Mann,2005,3,"Oxford University Press, USA",,320,0,English,,,0,"0195189973,9780195189971",,,,,,,,,,,0,,,,,,,0,5294954,pdf,98b5753ba0d420b8a6275ac9e43128a4,,,98b5753ba0d420b8a6275ac9e43128a4.pdf,0,2000-01-01 01:00:00,2016-04-03 02:51:08,1052000/98b5753ba0d420b8a6275ac9e43128a4-d.jpg,,
22341901,Endocrine Disrupters in Wastewater and Sludge Treatment Processes,,,,"J. W. Birkett, J. N. Lester",2003,1,Intl Water Assn,,312,0,English,,,0,"1843390310,9781843390312",,,,,,,,,,,0,,,,,,,0,3328484,pdf,6161fcc2029218bae36ea1bb2451c0d9,,,6161fcc2029218bae36ea1bb2451c0d9.pdf,0,2000-01-01 01:00:00,2016-04-03 02:51:08,1052000/6161fcc2029218bae36ea1bb2451c0d9-d.jpg,,
22341902,"Bleeding Borders: Race, Gender, and Violence in Pre-Civil War Kansas",,Conflicting Worlds: New Dimensions of the American Civil War,,Kristen Tegtmeier Oertel,2009,First Edition,Louisiana State University Press,,198,0,English,,,0,"0807133906,9780807133903",,,,,,,,,,,0,,,,,,,0,3294296,pdf,2eb9326881e62ee4db4771a86020177f,,,2eb9326881e62ee4db4771a86020177f.pdf,0,2000-01-01 01:00:00,2016-04-03 02:51:08,1052000/2eb9326881e62ee4db4771a86020177f-d.jpg,,
22341903,RF Circuit Design Techniques for MF-UHF Applications,,,,Abdullah Eroglu,2013,1,CRC Press,,358,0,English,,,0,"143986165X,9781439861653",,,,,,,,,,,0,,,,,,,0,17489276,pdf,5b7795b51fe7355521d7c7a6b1641946,,,5b7795b51fe7355521d7c7a6b1641946.pdf,0,2000-01-01 01:00:00,2016-04-03 02:51:08,1052000/5b7795b51fe7355521d7c7a6b1641946-d.jpg,,
22341904,Russian Television Today: Primetime Drama and Comedy,,Routledge Contemporary Russia and Eastern Europe Series,,David MacFadyen,2007,,Routledge,,256,0,English,,,0,"0415424623,9780415424622",,,,,,,,,,,0,,,,,,,0,3502160,pdf,ef9130621c7c860fb52e66faaa845809,,,ef9130621c7c860fb52e66faaa845809.pdf,0,2000-01-01 01:00:00,2016-04-03 02:51:08,1052000/ef9130621c7c860fb52e66faaa845809-d.jpg,,
22341905,Why Your Life Sucks,,,,Alan Cohen,2005,,Bantam,,224,0,English,,,0,"0553383620,9780553383621",,,,,,,,,,,0,,,,,,,,951181,epub,f398c3a8cd4eab37f01ecd77b344c32a,,,f398c3a8cd4eab37f01ecd77b344c32a.epub,0,2000-01-01 01:00:00,2016-04-03 02:51:08,1052000/f398c3a8cd4eab37f01ecd77b344c32a-d.jpg,,
22341906,Sketchbook Confidential 2: Enter the secret worlds of 38 master artists,,,,"Pamela Wissman, Stefanie Laufersweiler",2012,,North Light Bks,,176,0,English,,,0,"1440316953,9781440316951",,,,,,,,,,,0,,,,,,,,12535383,mobi,b465751f78dd5c0ea7f76364442ddda8,,,b465751f78dd5c0ea7f76364442ddda8.mobi,0,2000-01-01 01:00:00,2016-04-03 02:51:08,1052000/b465751f78dd5c0ea7f76364442ddda8-d.jpg,,
22341907,VHDL for Logic Synthesis,,,,Andrew Rushton,2011,3,Wiley,,484,0,English,,,0,"0470688475,9780470688472",,,,,,,,,,,0,,,,,,,0,4335339,pdf,84e4ec135d213c694bc71cfb5216a4ea,,,84e4ec135d213c694bc71cfb5216a4ea.pdf,0,2000-01-01 01:00:00,2016-04-03 02:51:08,1052000/84e4ec135d213c694bc71cfb5216a4ea-d.jpg,,
22341908,Carpal Tunnel Syndrome,,,,"Louis Patry, Michel Rossignol, Marie-Jeanne Costa, Martine Baillargeon",1998,,Editions MultiMondes,,48,0,English,,,0,"2921146703,9782921146708",,,,,,,,,,,0,,,,,,,0,4207025,pdf,5568d8194b3a35dc9193b9dd8e10fada,,,5568d8194b3a35dc9193b9dd8e10fada.pdf,0,2000-01-01 01:00:00,2016-04-03 02:51:08,1052000/5568d8194b3a35dc9193b9dd8e10fada-g.jpg,,
22341909,Basic Engineering Circuit Analysis,,,,"J. David Irwin, R. Mark Nelms",2008,9,Wiley,,864,0,English,,,0,"0470128690,9780470128695",,,,,,,,,,,0,,,,,,,0,167286651,pdf,5ba60f56fc60ec6f1165fd5915f33d17,,,5ba60f56fc60ec6f1165fd5915f33d17.pdf,0,2000-01-01 01:00:00,2016-04-03 02:51:08,1052000/5ba60f56fc60ec6f1165fd5915f33d17-d.jpg,,
22341910,Locke: A Guide for the Perplexed,,Guides for the Perplexed,,Patricia Sheridan,2010,1,Bloomsbury Academic,,144,0,English,,,0,"0826489842,9780826489845",,,,,,,,,,,0,,,,,,,0,3587985,pdf,440d5b0901750c85ef813f4863038dca,,,440d5b0901750c85ef813f4863038dca.pdf,0,2000-01-01 01:00:00,2016-04-03 02:51:08,1052000/440d5b0901750c85ef813f4863038dca-d.jpg,,
22341911,Cosmic Nutrition: The Taoist Approach to Health and Longevity,,,,"Mantak Chia, William U. Wei",2012,Original,Destiny Books,,424,0,English,,,0,"1594774706,9781594774706",,,,,,,,,,,0,,,,,,,0,6557729,pdf,f1d2d9204aa3c7105dd9f27b13b26086,,,f1d2d9204aa3c7105dd9f27b13b26086.pdf,0,2000-01-01 01:00:00,2016-04-03 02:51:08,1052000/f1d2d9204aa3c7105dd9f27b13b26086-d.jpg,,
22341912,Classic Lego Mindstorms Projects and Software Tools: Award-Winning Designs from Master Builders,,,,"Kevin Clague, Mario Ferrari, Miguel Agullo, Guilio Ferrari, Doug Carlson",2006,1,Syngress,,549,0,English,,,0,"159749089X,9781597490894",,,,,,,,,,,0,,,,,,,0,14645275,pdf,a8af29ff419811a65f3cf86f868806eb,,,a8af29ff419811a65f3cf86f868806eb.pdf,0,2000-01-01 01:00:00,2016-04-03 02:51:08,1052000/a8af29ff419811a65f3cf86f868806eb-d.jpg,,
22341913,"Obesity: Epidemiology, Pathophysiology, and Prevention, Second Edition",,,,"Debasis Bagchi, Harry G. Preuss",2012,2,CRC Press,,1008,0,English,,,0,"1439854254,9781439854259",,,,,,,,,,,0,,,,,,,0,27835767,pdf,4d94e5524114a0b56795b3d182fdac86,,,4d94e5524114a0b56795b3d182fdac86.pdf,0,2000-01-01 01:00:00,2016-04-03 02:51:08,1052000/4d94e5524114a0b56795b3d182fdac86-d.jpg,,
22341914,Introduction to Online Payments Risk Management,,,,Ohad Samet,2013,,O'Reilly Media,,84,0,English,,,0,"1449370675,9781449370671",,,,,,,,,,,0,,,,,,,,1245056,epub,15c3ae82f80d64552ee983ed0b84c615,,,15c3ae82f80d64552ee983ed0b84c615.epub,0,2000-01-01 01:00:00,2016-04-03 02:51:08,1052000/15c3ae82f80d64552ee983ed0b84c615-d.jpg,,
22341915,Quantifying Matter,,States of Matter,,"Joseph A., Jr. Angelo",2011,1,Facts on File,,230,0,English,,,0,"081607609X,9780816076093",,,,,,,,,,,0,,,,,,,0,26768109,pdf,45d20d2379738c28de8dba9c5a8ba501,,,45d20d2379738c28de8dba9c5a8ba501.pdf,0,2000-01-01 01:00:00,2016-04-03 02:51:08,1052000/45d20d2379738c28de8dba9c5a8ba501-d.jpg,,
22341916,Heart of Rahner: The Theological Implications of Andrew Tallon's Theory of Triune Consciousness,,Marquette Studies in Theology,,Heidi Ann Russell,2009,1st,Marquette Univ Pr,,234,0,English,,,0,"0874627419,9780874627411",,,,,,,,,,,0,,,,,,,0,3188087,pdf,3caa0797cc4dcf5942e74a9c6aad79ff,,,3caa0797cc4dcf5942e74a9c6aad79ff.pdf,0,2000-01-01 01:00:00,2016-04-03 02:51:08,1052000/3caa0797cc4dcf5942e74a9c6aad79ff-d.jpg,,
22341917,Classical Individualism: The Supreme Importance of Each Human Being,,Routledge Studies in Social and Political Thought,,Tibor R. Machan,1998,,Routledge,,264,0,English,,,0,"0415165725,9780415165723",,,,,,,,,,,0,,,,,,,0,15497365,pdf,ec85dad0b3b642bfb984b6d1bf51814a,,,ec85dad0b3b642bfb984b6d1bf51814a.pdf,0,2000-01-01 01:00:00,2016-04-03 02:51:08,1052000/ec85dad0b3b642bfb984b6d1bf51814a-d.jpg,,
22341918,DSP for In-Vehicle and Mobile Systems,,,,"Huseyin Abut, John Hansen, Kazuya Takeda",2005,2005,Springer,,313,0,English,,,0,"0387229787,9780387229782",,,,,,,,,,,0,,,,,,,0,15160033,pdf,6030e5ea876902f49b0f30eeabda1dea,,,6030e5ea876902f49b0f30eeabda1dea.pdf,0,2000-01-01 01:00:00,2016-04-03 02:51:08,1052000/6030e5ea876902f49b0f30eeabda1dea-d.jpg,,
22341919,Post-Tensioned Concrete Floors,,,,"Martin Williams, Sami Khan",1995,,CRC Press,,256,0,English,,,0,"0750616814,9780750616812",,,,,,,,,,,0,,,,,,,0,17604209,pdf,1a84a9bc39fe5147ed696fb3d26334b6,,,1a84a9bc39fe5147ed696fb3d26334b6.pdf,0,2000-01-01 01:00:00,2016-04-03 02:51:08,1052000/1a84a9bc39fe5147ed696fb3d26334b6-d.jpg,,
22341920,Oracle Application Express for Mobile Web Applications,,,,"Roel Hartman, Christian Rokitta, David Peake",2013,1,Apress,,224,0,English,,,0,"1430249471,9781430249474",,,,,,,,,,,0,,,,,,,0,13607544,pdf,c950183a4d37e2ad4b4b49fcab362c76,,,c950183a4d37e2ad4b4b49fcab362c76.pdf,0,2000-01-01 01:00:00,2016-04-03 02:51:08,1052000/c950183a4d37e2ad4b4b49fcab362c76-d.jpg,,
22341921,Food Allergies: A Complete Guide for Eating When Your Life Depends on It,,A Johns Hopkins Press Health Book,,"Scott H. Sicherer, Hugh A. Sampson, Maria Laura Acebal",2013,1,Johns Hopkins University Press,,304,0,English,,,0,"1421408457,9781421408453",,,,,,,,,,,0,,,,,,,,2440050,epub,d958dc70b6649d6cc76ae129945e6dd5,,,d958dc70b6649d6cc76ae129945e6dd5.epub,0,2000-01-01 01:00:00,2016-04-03 02:51:08,1052000/d958dc70b6649d6cc76ae129945e6dd5-d.jpg,,
22341922,Biology of Marine Mammals,,,,"John E. Reynolds III, Sentiel A. Rommel",1999,,Smithsonian,,600,0,English,,,0,"1560983752,9781560983750",,,,,,,,,,,0,,,,,,,,29026876,mobi,5c4b3606ce035f6cd93bfb4cac68eaad,,,5c4b3606ce035f6cd93bfb4cac68eaad.mobi,0,2000-01-01 01:00:00,2016-04-03 02:51:08,1052000/5c4b3606ce035f6cd93bfb4cac68eaad-d.jpg,,
22341923,Rugby Games & Drills,,,,"Rugby Football Union, Simon Worsnop",2011,1,Human Kinetics,,216,0,English,,,0,"1450402135,9781450402132",,,,,,,,,,,0,,,,,,,0,44881785,pdf,c5244bb33b90b80056e4847d95741204,,,c5244bb33b90b80056e4847d95741204.pdf,0,2000-01-01 01:00:00,2016-04-03 02:51:08,1052000/c5244bb33b90b80056e4847d95741204-d.jpg,,
22341924,Nagios: System and Network Monitoring,,,,Wolfgang Barth,2006,,No Starch Press,,464,0,English,,,0,"1593270704,9781593270704",,,,,,,,,,,0,,,,,,,0,13264116,pdf,431df1f3e2e53985eaa3ba005c4c595d,,,431df1f3e2e53985eaa3ba005c4c595d.pdf,0,2000-01-01 01:00:00,2016-04-03 02:51:08,1052000/431df1f3e2e53985eaa3ba005c4c595d-d.jpg,,
22341925,Precision Farming: Soil Fertility and Productivity Aspects,,,,K. R. Krishna,2013,,Apple Academic Press,,188,0,English,,,0,"1926895444,9781926895444",,,,,,,,,,,0,,,,,,,0,4093585,pdf,8094f249428495118f0ba5e5dd2d1af0,,,8094f249428495118f0ba5e5dd2d1af0.pdf,0,2000-01-01 01:00:00,2016-04-03 02:51:08,1052000/8094f249428495118f0ba5e5dd2d1af0-d.jpg,,
22341926,Test iOS Apps with UI Automation: Bug Hunting Made Easy,,,,Jonathan Penn,2013,,Pragmatic Bookshelf,,200,0,English,,,0,"1937785521,9781937785529",,,,,,,,,,,0,,,,,,,0,19337449,pdf,aae436079c71000867896f710c737964,,,aae436079c71000867896f710c737964.pdf,0,2000-01-01 01:00:00,2016-04-03 02:51:08,1052000/aae436079c71000867896f710c737964-d.jpg,,
22341927,The Wiley-Blackwell Companion to African Religions,,,,Elias Kifon Bongmba,2012,1,Wiley-Blackwell,,632,0,English,,,0,"1405196904,9781405196901",,,,,,,,,,,0,,,,,,,0,4234616,pdf,d3065abcd75d621fb4815ce7aba94ad6,,,d3065abcd75d621fb4815ce7aba94ad6.pdf,0,2000-01-01 01:00:00,2016-04-03 02:51:08,1052000/d3065abcd75d621fb4815ce7aba94ad6-d.jpg,,
22341928,Quantum Mechanics: A Paradigms Approach,,,,"David McIntyre, Corinne A Manogue, Janet Tate",2012,1,Addison-Wesley,,592,0,English,,,0,"0321765796,9780321765796",,,,,,,,,,,0,,,,,,,0,6010734,pdf,90020dc9245fbd351874d31d5e9c4a9c,,,90020dc9245fbd351874d31d5e9c4a9c.pdf,0,2000-01-01 01:00:00,2016-04-03 02:51:08,1052000/90020dc9245fbd351874d31d5e9c4a9c-d.jpg,,
22341929,The Complete Book of Chess Strategy: Grandmaster Techniques from A to Z,,,,"Jeremy Silman, Jeremy Silman",1998,1st,Siles Press,,360,0,English,,,0,"1890085014,9781890085018",,,,,,,,,,,0,,,,,,,0,16109649,pdf,a7b83780564f54a5c230b91be3b76b97,,,a7b83780564f54a5c230b91be3b76b97.pdf,0,2000-01-01 01:00:00,2016-04-03 02:51:08,1052000/a7b83780564f54a5c230b91be3b76b97-d.jpg,,
22341930,"The Large-Cap Portfolio, + Web site: Value Investing and the Hidden Opportunity in Big Company Stocks",,Bloomberg Financial,,Thomas Villalta,2012,1,Bloomberg Press,,286,0,English,,,0,"1118256603,9781118256602",,,,,,,,,,,0,,,,,,,0,3291444,pdf,b972f64b86684ef20d0d7b59390b967b,,,b972f64b86684ef20d0d7b59390b967b.pdf,0,2000-01-01 01:00:00,2016-04-03 02:51:08,1052000/b972f64b86684ef20d0d7b59390b967b-d.jpg,,
22341931,Polymer Physics: A Molecular Approach,,,,Wenbing Hu,2012,2013,Springer,,245,0,English,,,0,"3709106699,9783709106693",,,,,,,,,,,0,,,,,,,0,3984289,pdf,746a733ec827d936b24b9b8f66b75aec,,,746a733ec827d936b24b9b8f66b75aec.pdf,0,2000-01-01 01:00:00,2016-04-03 02:51:08,1052000/746a733ec827d936b24b9b8f66b75aec-d.jpg,,
22341932,"Newspaper, Pennies, Cardboard, and Eggs--For Growing a Better Garden: More than 400 New, Fun, and Ingenious Ideas to Keep Your Garden Growing Great All Season Long",,,,"Roger Yepsen, Editors of Organic Gardening",2007,1st,Rodale Books,,352,0,English,,,0,"1594867038,9781594867033",,,,,,,,,,,0,,,,,,,,4881656,epub,c5a7587dde294bb35edd0d9af844aa39,,,c5a7587dde294bb35edd0d9af844aa39.epub,0,2000-01-01 01:00:00,2016-04-03 02:51:08,1052000/c5a7587dde294bb35edd0d9af844aa39-d.jpg,,
22341933,"Blog Rules: A Business Guide to Managing Policy, Public Relations, and Legal Issues",,,,Nancy Flynn,2006,,AMACOM,,224,0,English,,,0,"0814473555,9780814473559",,,,,,,,,,,0,,,,,,,0,3782017,pdf,dc3a7288f5e9fda60cccf411f46171ef,,,dc3a7288f5e9fda60cccf411f46171ef.pdf,0,2000-01-01 01:00:00,2016-04-03 02:51:08,1052000/dc3a7288f5e9fda60cccf411f46171ef-d.jpg,,
22341934,The I Hate to Cook Book: 50th Anniversary Edition,,,,"Peg Bracken, Jo Bracken",2010,50 Anv,Grand Central Publishing,,224,0,English,,,0,"0446545929,9780446545921",,,,,,,,,,,0,,,,,,,,2469125,mobi,dc5f2f6bd8c51d77fe326b9354e0df8c,,,dc5f2f6bd8c51d77fe326b9354e0df8c.mobi,0,2000-01-01 01:00:00,2016-04-03 02:51:08,1052000/dc5f2f6bd8c51d77fe326b9354e0df8c-d.jpg,,
22341935,Instant Migration from Windows Server 2008 and 2008 R2 to 2012 How-to,,,,Santhosh Sivarajan,2013,,Packt Publishing,,84,0,English,,,0,"1849687447,9781849687447",,,,,,,,,,,0,,,,,,,0,3344261,pdf,204e68b68ae8aec402897b2db89d8489,,,204e68b68ae8aec402897b2db89d8489.pdf,0,2000-01-01 01:00:00,2016-04-03 02:51:08,1052000/204e68b68ae8aec402897b2db89d8489-d.jpg,,
22341936,Billionaires & ballot bandits: how to steal an election in 9 easy steps,,,,Greg Palast,2012,,Seven Stories Press,,305,0,English,,,0,9781609804787,,,,,,,,,,,0,,,,,,,1,7581151,pdf,96ea1d30e6cf08415b028082942743b6,,,Greg Palast-Billionaires and Ballot Bandits,0,2000-01-01 01:00:00,2016-04-03 02:51:08,1052000/96ea1d30e6cf08415b028082942743b6-g.jpg,,
22341937,Urinary Cytology: Manual and Atlas,,,,"Peter Rathert, Stephan Roth, Mark S. Soloway, T.C. Telger, A. Böcking, R. Friedrichs, F. Hofstädter, J.-D. Hoppe, E. Huland, H. Huland, C. Hunold, R. Nafe, S. Peter, P. Röttger, H. Rübben, B.J. Schmitz-Dräger",2011,2nd ed. 1993. Softcover reprint of the original 2nd ed. 1993,Springer,,210,0,English,,,0,"3642761860,9783642761867",,,,,,,,,,,0,,,,,,,0,22402242,pdf,06eb0a786e6b365116eec54b9e413229,,,06eb0a786e6b365116eec54b9e413229.pdf,0,2000-01-01 01:00:00,2016-04-03 02:51:08,1052000/06eb0a786e6b365116eec54b9e413229-d.jpg,,
22341938,Processing: Creative Coding and Generative Art in Processing 2,,,,"Ira Greenberg, Dianna Xu, Deepak Kumar",2013,2,friendsofED,,472,0,English,,,0,"143024464X,9781430244646",,,,,,,,,,,0,,,,,,,,10776592,epub,e8bb9f75b88b0fcab0a13b1916ab4af7,,,e8bb9f75b88b0fcab0a13b1916ab4af7.epub,0,2000-01-01 01:00:00,2016-04-03 02:51:08,1052000/e8bb9f75b88b0fcab0a13b1916ab4af7-d.jpg,,
22341939,Engineering Measurements: Methods and Intrinsic Errors,,,,"T. A. Polak, C. Pande",1999,1,Wiley,,208,0,English,,,0,"1860582362,9781860582363",,,,,,,,,,,0,,,,,,,0,8690807,pdf,4ccecf6a854a7100352761d3ed9d3178,,,4ccecf6a854a7100352761d3ed9d3178.pdf,0,2000-01-01 01:00:00,2016-04-03 02:51:08,1052000/4ccecf6a854a7100352761d3ed9d3178-d.jpg,,
22341940,Fundamentals of Computer Algorithms,,Computer software engineering series,,"Ellis Horowitz, Sartaj Sahni",1984,New edition,Computer Sci.P.,,626,0,English,,,0,"0914894226,9780914894223",,,,,,,,,,,0,,,,,,,0,19442000,pdf,a76d5b31368a33adc79d1611ce9e77c0,,,a76d5b31368a33adc79d1611ce9e77c0.pdf,0,2000-01-01 01:00:00,2016-04-03 02:51:08,1052000/a76d5b31368a33adc79d1611ce9e77c0-g.jpg,,
22341941,Για το προλεταριακό κόμμα νέου τύπου,,Μικρή Μαρξιστική Βιβλιοθήκη,,Β. Ι. Λένιν,1976,,Σύγχρονη Εποχή,,188,0,Greek,,,0,,,,,,,,,,,,600,,,0,,1,1,0,6265058,pdf,38df4a3236e1a5875a5049bf37b865ee,,,Gia_to_proletariako_komma_neoy_typoy,0,2000-01-01 01:00:00,2016-04-03 02:51:08,1052000/38df4a3236e1a5875a5049bf37b865ee-g.jpg,,
22341942,Enterprise JavaBeans 3.1,,,,"Andrew Lee Rubinger, Bill Burke",2010,Sixth Edition,O'Reilly Media,,766,0,English,,,0,"0596158025,9780596158026",,,,,,,,,,,0,,,,,,,0,5451731,pdf,411c4dfd5e8aae2862e757c733219731,,,411c4dfd5e8aae2862e757c733219731.pdf,0,2000-01-01 01:00:00,2016-04-03 02:51:08,1052000/411c4dfd5e8aae2862e757c733219731-d.jpg,,
22341943,Fairy Tale Knits: 20 Enchanting Characters to Make,,,,Fiona Goble,2012,Original,Andrews McMeel Publishing,,80,0,English,,,0,"1449418015,9781449418014",,,,,,,,,,,0,,,,,,,,4185150,epub,4b3d4fcc945fe62e196b0705e5fb65b2,,,4b3d4fcc945fe62e196b0705e5fb65b2.epub,0,2000-01-01 01:00:00,2016-04-03 02:51:08,1052000/4b3d4fcc945fe62e196b0705e5fb65b2-d.jpg,,
22341944,Για το προλεταριακό κόμμα νέου τύπου,,Μικρή Μαρξιστική Βιβλιοθήκη,,Β. Ι. Λένιν,1976,,Σύγχρονη Εποχή,,188,0,Greek,,,0,,,,,,,,,,,,600,,,0,,1,1,0,2117417,djvu,44eb8a4ea4bdea6b8edf7d8eab20de10,,,Gia_to_proletariako_komma_neoy_typoy,0,2000-01-01 01:00:00,2016-04-03 02:51:08,1052000/44eb8a4ea4bdea6b8edf7d8eab20de10-g.jpg,,
22341945,Oracle Application Express for Mobile Web Applications,,,,"Roel Hartman, Christian Rokitta, David Peake",2013,1,Apress,,224,0,English,,,0,"1430249471,9781430249474",,,,,,,,,,,0,,,,,,,,5712842,epub,6392c4cd961a5100fc60fabb081005be,,,6392c4cd961a5100fc60fabb081005be.epub,0,2000-01-01 01:00:00,2016-04-03 02:51:08,1052000/6392c4cd961a5100fc60fabb081005be-d.jpg,,
22341946,Injectable biomaterials: Science and applications,,Woodhead Publishing Series in Biomaterials,,Brent Vernon,2011,,Woodhead Publishing,,432,0,English,,,0,"1845695887,9781845695880",,,,,,,,,,,0,,,,,,,0,5450912,pdf,176d04a603166c5a48b3ff13966a0555,,,176d04a603166c5a48b3ff13966a0555.pdf,0,2000-01-01 01:00:00,2016-04-03 02:51:08,1052000/176d04a603166c5a48b3ff13966a0555-d.jpg,,
22341947,Fluid Mechanics for Chemical Engineering,,ISTE,,Mathieu Mory,2011,1,Wiley-ISTE,,422,0,English,,,0,"184821281X,9781848212817",,,,,,,,,,,0,,,,,,,0,9642270,pdf,96b41a14e97087cf7b62a4dbdf2fd3d3,,,96b41a14e97087cf7b62a4dbdf2fd3d3.pdf,0,2000-01-01 01:00:00,2016-04-03 02:51:08,1052000/96b41a14e97087cf7b62a4dbdf2fd3d3-d.jpg,,
22341948,Of Minds and Language: A Dialogue with Noam Chomsky in the Basque Country,,,,"Massimo Piattelli-Palmarini, Juan Uriagereka, Pello Salaburu",2009,1,"Oxford University Press, USA",,480,0,English,,,0,"0199544662,9780199544660",,,,,,,,,,,0,,,,,,,0,5441000,pdf,c2010671f5c8d781cfb6aff9f03b7b33,,,c2010671f5c8d781cfb6aff9f03b7b33.pdf,0,2000-01-01 01:00:00,2016-04-03 02:51:08,1052000/c2010671f5c8d781cfb6aff9f03b7b33-d.jpg,,
22341949,"Ecological Psychology in Context: James Gibson, Roger Barker, and the Legacy of William James's Radical Empiricism",,Resources for Ecological Psychology,,Harry Heft,2001,1,Psychology Press,,476,0,English,,,0,"0805823506,9780805823509",,,,,,,,,,,0,,,,,,,,3901921,epub,039e15997a81823b1b804e6c290d3614,,,039e15997a81823b1b804e6c290d3614.epub,0,2000-01-01 01:00:00,2016-04-03 02:51:08,1052000/039e15997a81823b1b804e6c290d3614-d.jpg,,
22341950,A Manager's Guide to Coaching: Simple and Effective Ways to Get the Best From Your Employees,,,,"Anne Loehr, Brian Emerson",2008,,AMACOM,,240,0,English,,,0,"0814409822,9780814409824",,,,,,,,,,,0,,,,,,,0,3850607,pdf,29ee0871a1c06d76c15cb213d3e00575,,,29ee0871a1c06d76c15cb213d3e00575.pdf,0,2000-01-01 01:00:00,2016-04-03 02:51:08,1052000/29ee0871a1c06d76c15cb213d3e00575-d.jpg,,
22341951,Great Book of Optical Illusions,,,,Gyles Brandreth,1985,,Sterling Pub Co Inc,,96,0,English,,,0,"0806962585,9780806962580",,,,,,,,,,,0,,,,,,,,5433984,epub,6270ed617a22eb53daef181bd90f3fa4,,,6270ed617a22eb53daef181bd90f3fa4.epub,0,2000-01-01 01:00:00,2016-04-03 02:51:08,1052000/6270ed617a22eb53daef181bd90f3fa4-d.jpg,,
22341952,The Artful Bird: Feathered Friends to Make and Sew,,,,Abigail Patner Glassenberg,2011,,Interweave,,160,0,English,,,0,"1596682388,9781596682382",,,,,,,,,,,0,,,,,,,0,105217562,pdf,58e02c1ffb5d812895389f47bbac3681,,,58e02c1ffb5d812895389f47bbac3681.pdf,0,2000-01-01 01:00:00,2016-04-03 02:51:08,1052000/58e02c1ffb5d812895389f47bbac3681-d.jpg,,
22341953,Versions of History from Antiquity to the Enlightenment,,,,Donald R. Kelley,1991,,Yale University Press,,528,0,English,,,0,"0300047754,9780300047752",,,,,,,,,,,0,,,,,,,0,36609725,pdf,916ffa494a5d0534047ffc8488b40c38,,,916ffa494a5d0534047ffc8488b40c38.pdf,0,2000-01-01 01:00:00,2016-04-03 02:51:08,1052000/916ffa494a5d0534047ffc8488b40c38-g.jpg,,
22341954,"Building the E-Service Society: E-Commerce, E-Business, and E-Government",,IFIP Advances in Information and Communication Technology,,"Winfried Lamersdorf, Volker Tschammer, Stephane Amarger",2004,2004,Springer,,492,0,English,,,0,"1402081545,9781402081545",,,,,,,,,,,0,,,,,,,0,16621681,pdf,0ea2aa3e2ab7dcdd32cfec48b906bffa,,,0ea2aa3e2ab7dcdd32cfec48b906bffa.pdf,0,2000-01-01 01:00:00,2016-04-03 02:51:08,1052000/0ea2aa3e2ab7dcdd32cfec48b906bffa-d.jpg,,
22341955,Tassajara Cooking,,,,Edward Espe Brown,1974,,Shambhala,,0,0,English,,,0,"0394495233,9780394495231",,,,,,,,,,,0,,,,,,,0,7337634,pdf,a9eb868dd1a8e116dc4ac43bae7d7867,,,a9eb868dd1a8e116dc4ac43bae7d7867.pdf,0,2000-01-01 01:00:00,2016-04-03 02:51:08,1052000/a9eb868dd1a8e116dc4ac43bae7d7867-d.jpg,,
22341956,JSTL: Practical Guide for JSP Programmers,,The Practical Guides,,Sue Spielman,2003,1,Morgan Kaufmann,,229,0,English,,,0,"0126567557,9780126567557",,,,,,,,,,,0,,,,,,,0,4733742,pdf,49b52e4e080382b2b63af706ecb25142,,,49b52e4e080382b2b63af706ecb25142.pdf,0,2000-01-01 01:00:00,2016-04-03 02:51:08,1052000/49b52e4e080382b2b63af706ecb25142-d.jpg,,
22341957,Business Process Management: Practical Guidelines to Successful Implementations,,,,"John Jeston, Johan Nelis",2006,1st,Butterworth-Heinemann,,464,0,English,,,0,"0750669217,9780750669214",,,,,,,,,,,0,,,,,,,0,5729482,pdf,0158fafe4e25f612a72341bee4697212,,,0158fafe4e25f612a72341bee4697212.pdf,0,2000-01-01 01:00:00,2016-04-03 02:51:08,1052000/0158fafe4e25f612a72341bee4697212-d.jpg,,
22341958,James Beard's American Cookery,,,,"James Beard, Tom Colicchio",2010,Reprint,"Little, Brown and Company",,896,0,English,,,0,"031609868X,9780316098687",,,,,,,,,,,0,,,,,,,,8583099,mobi,632b790eb486a3d5d21fdd712566f77d,,,632b790eb486a3d5d21fdd712566f77d.mobi,0,2000-01-01 01:00:00,2016-04-03 02:51:08,1052000/632b790eb486a3d5d21fdd712566f77d-d.jpg,,
22341959,Übersetzt du noch oder verstehst du schon?,,,,Bernd M. Samland,2011,,Herder Verlag,,160,0,German,,,0,"3451304171,9783451304170",,B004TQGF8W,,,,,,,,,0,,,,,,,,3506282,epub,123f39b209bfb16f0d1282035a2427ec,,,123f39b209bfb16f0d1282035a2427ec.epub,0,2000-01-01 01:00:00,2016-04-03 02:51:08,1052000/123f39b209bfb16f0d1282035a2427ec-d.jpg,,
22341960,The Holy Spirit: An Introduction,,,,"John Bevere, Addison Bevere",2013,,Messenger International,,201,0,English,,,0,"193318583X,978-1933185835",,B00EKQ3QS8,,,,,,,,,0,,,,,,,,3342322,epub,7ce168033334aa99870be4df9da2c5ad,,,7ce168033334aa99870be4df9da2c5ad.epub,0,2000-01-01 01:00:00,2016-04-03 02:51:08,1052000/7ce168033334aa99870be4df9da2c5ad-d.jpg,,
22341961,Encountering Past In Nature: Essays In Environmental History,,Ecology & History,,"Timo Myllyntaus, Mikko Saikku, Alfred W. Crosby",2001,1,Ohio University Press,,185,0,English,,,0,"0821413589,9780821413586",,,,,,,,,,,0,,,,,,,0,3476659,pdf,a5641c8b4ceff8804f51ea27fa3de2bc,,,a5641c8b4ceff8804f51ea27fa3de2bc.pdf,0,2000-01-01 01:00:00,2016-04-03 02:51:08,1052000/a5641c8b4ceff8804f51ea27fa3de2bc-d.jpg,,
22341962,Multicast Sockets: Practical Guide for Programmers,,The Practical Guides,,"David Makofske, Kevin Almeroth",2002,1,Morgan Kaufmann,,180,0,English,,,0,"155860846X,9781558608467",,,,,,,,,,,0,,,,,,,0,9753148,pdf,1d07ed3e91d4ad7d292f35648ac78ca3,,,1d07ed3e91d4ad7d292f35648ac78ca3.pdf,0,2000-01-01 01:00:00,2016-04-03 02:51:08,1052000/1d07ed3e91d4ad7d292f35648ac78ca3-d.jpg,,
22341963,"Introduction to General, Organic and Biochemistry",,with CD-ROM and CengageNOW Printed Access Card,,"Frederick A. Bettelheim, William H. Brown, Mary K. Campbell, Shawn O. Farrell",2006,8,Cengage Learning,,928,0,English,,,0,"0495011975,9780495011972",,,,,,,,,,,0,,,,,,,0,20916066,pdf,3f9231839f9114f8220cef74571db251,,,3f9231839f9114f8220cef74571db251.pdf,0,2000-01-01 01:00:00,2016-04-03 02:51:08,1052000/3f9231839f9114f8220cef74571db251-d.jpg,,
22341964,Speed Demons,,Phineas and Ferb Chapter Book,,Jasmine Jones,2009,,Disney Press,,112,0,English,,,0,"1423116283,9781423116288",,,,,,,,,,,0,,,,,,,,5299967,epub,b2521bcae2a4ff9f1de3da098b3f56f5,,,b2521bcae2a4ff9f1de3da098b3f56f5.epub,0,2000-01-01 01:00:00,2016-04-03 02:51:08,1052000/b2521bcae2a4ff9f1de3da098b3f56f5-d.jpg,,
22341965,"Micro Mechanical Transducers, Volume 8: Pressure Sensors, Accelerometers and Gyroscopes",,Handbook of Sensors and Actuators,,"Min-hang Bao, S. Middelhoek",2000,,Elsevier Science,,392,0,English,,,0,"044450558X,9780444505583",,,,,,,,,,,0,,,,,,,0,15881745,pdf,e7773dc8a46778425002f15a1506d42d,,,e7773dc8a46778425002f15a1506d42d.pdf,0,2000-01-01 01:00:00,2016-04-03 02:51:08,1052000/e7773dc8a46778425002f15a1506d42d-d.jpg,,
22341966,"Small-Scale Livestock Farming: A Grass-Based Approach for Health, Sustainability, and Profit",,,,Carol Ekarius,1999,1st,"Storey Publishing, LLC",,192,0,English,,,0,"1580171621,9781580171625",,,,,,,,,,,0,,,,,,,,3859784,epub,2569b1025c5df656782e37640f2a77b4,,,2569b1025c5df656782e37640f2a77b4.epub,0,2000-01-01 01:00:00,2016-04-03 02:51:08,1052000/2569b1025c5df656782e37640f2a77b4-d.jpg,,
22341967,"Nations and Nationalism since 1780: Programme, Myth, Reality",,Canto,,E. J. Hobsbawm,1992,2,Cambridge University Press,,214,0,English,,,0,"0521439612,9780521439619",,,,,,,,,,,0,,,,,,,0,21616065,pdf,0bdf713c6ced7937ade986dce2c687a0,,,0bdf713c6ced7937ade986dce2c687a0.pdf,0,2000-01-01 01:00:00,2016-04-03 02:51:08,1052000/0bdf713c6ced7937ade986dce2c687a0-d.jpg,,
22341968,Carnivore: A Memoir by One of the Deadliest American Soldiers of All Time,,,,"Dillard Johnson, James Tarr",2013,,William Morrow,,320,0,English,,,0,"0062288415,9780062288417",,,,,,,,,,,0,,,,,,,,3390178,epub,e2fa5da61554b37b5587de57ea8358b1,,,e2fa5da61554b37b5587de57ea8358b1.epub,0,2000-01-01 01:00:00,2016-04-03 02:51:08,1052000/e2fa5da61554b37b5587de57ea8358b1-d.jpg,,
22341969,Basic Structure Modeling: For Model Railroaders,,Model Railroader Books,,Jeff Wilson,2005,,Kalmbach Pub Co,,88,0,English,,,0,"0890244464,9780890244463",,,,,,,,,,,0,,,,,,,0,52841767,pdf,3910798428fb290adaa5d4241d9676bb,,,3910798428fb290adaa5d4241d9676bb.pdf,0,2000-01-01 01:00:00,2016-04-03 02:51:08,1052000/3910798428fb290adaa5d4241d9676bb-d.jpg,,
22341970,"Planar Multibody Dynamics: Formulation, Programming and Applications",,,,Parviz E. Nikravesh,2007,,CRC Press,,464,0,English,,,0,"1420045725,9781420045727",,,,,,,,,,,0,,,,,,,0,58648908,pdf,15eb84a3b8cd2b520d511200e34f7bae,,,15eb84a3b8cd2b520d511200e34f7bae.pdf,0,2000-01-01 01:00:00,2016-04-03 02:51:08,1052000/15eb84a3b8cd2b520d511200e34f7bae-d.jpg,,
22341971,The Alternative Answer: The Nontraditional Investments That Drive the World's Best-Performing Portfolios,,,,Bob Rice,2013,1,HarperBusiness,,288,0,English,,,0,"0062257900,9780062257901",,,,,,,,,,,0,,,,,,,,1854620,epub,b2cb1fd4f61bcce46b2fc99f0c999616,,,b2cb1fd4f61bcce46b2fc99f0c999616.epub,0,2000-01-01 01:00:00,2016-04-03 02:51:08,1052000/b2cb1fd4f61bcce46b2fc99f0c999616-d.jpg,,
22341972,Portugal - A Tale of Small Cities,,,,"David Stewart White, Deb Hosey White",2013,,White & Associates,,109,0,English,,,0,",",,B00E3D7CXS,,,,,,,,,0,,,,,,,,3591501,epub,5473bba56fd84f898b706c13dc9b3903,,,5473bba56fd84f898b706c13dc9b3903.epub,0,2000-01-01 01:00:00,2016-04-03 02:51:08,1052000/5473bba56fd84f898b706c13dc9b3903-d.jpg,,
22341973,Martindale's Drugs Restricted in Sport 2009 Pocket Companion,,,,Sean Sweetman,2009,1,Pharmaceutical Press,,502,0,English,,,0,"0853698708,9780853698708",,,,,,,,,,,0,,,,,,,0,9561592,pdf,9e75fdf73fa1e772a8f077ac83a0a3ae,,,9e75fdf73fa1e772a8f077ac83a0a3ae.pdf,0,2000-01-01 01:00:00,2016-04-03 02:51:08,1052000/9e75fdf73fa1e772a8f077ac83a0a3ae-d.jpg,,
22341974,Computational Fluid Dynamics,,,,John Anderson,1995,1,McGraw-Hill Science/Engineering/Math,,574,0,English,,,0,"0070016852,9780070016859",,,,,,,,,,,0,,,,,,,0,22907836,pdf,702faea3fc3e4e5d120895fe0a27b3c8,,,702faea3fc3e4e5d120895fe0a27b3c8.pdf,0,2000-01-01 01:00:00,2016-04-03 02:51:08,1052000/702faea3fc3e4e5d120895fe0a27b3c8-d.jpg,,
22341975,Achieving global sustainability: policy recommendations,,Sustainability science,,"Takamitsu Sawa, Susumu Iai, Seiji Ikkatai (editors)",2011,,United Nations University Press,,364,0,English,192,,0,"9280811843,9789280811841",,,,,338.9'27—dc23,HC79.E5A266 2011,,gP3aQgAACAAJ,,,0,,,,,0,1,1,13658793,pdf,870d67903ac37f697b79704c00b43e81,,,Achieving global sustainability_ policy recommendations (2011),0,2000-01-01 01:00:00,2016-04-03 02:51:08,1052000/870d67903ac37f697b79704c00b43e81-d.jpg,,
22341976,A Companion to Latin American History,,Wiley Blackwell Companions to World History,,Thomas H. Holloway,2008,1,Wiley-Blackwell,,544,0,English,,,0,"1405131616,9781405131612",,,,,,,,,,,0,,,,,,,0,5366393,pdf,c5cd73252a0f6f68b81552e97e93b60d,,,c5cd73252a0f6f68b81552e97e93b60d.pdf,0,2000-01-01 01:00:00,2016-04-03 02:51:08,1052000/c5cd73252a0f6f68b81552e97e93b60d-d.jpg,,
22341977,Take Control of Backing Up Your Mac,,,,Joe Kissell,2013,2,"TidBITS Publishing, Inc.",,219,0,English,,,0,",",,B00DGFUB0K,,,,,,,,,0,,,,,,,,7091808,epub,34a3794d04886852e99d5bc135aec0dd,,,34a3794d04886852e99d5bc135aec0dd.epub,0,2000-01-01 01:00:00,2016-04-03 02:51:08,1052000/34a3794d04886852e99d5bc135aec0dd-d.jpg,,
22341978,Memory Allocation Problems in Embedded Systems: Optimization Methods,,ISTE,,"Maria Soto, Marc Sevaux, André Rossi, Johann Laurent",2012,1,Wiley-ISTE,,208,0,English,,,0,"1848214286,9781848214286",,,,,,,,,,,0,,,,,,,0,4572031,pdf,e78f3a77ab4605fcd26d0fb739b15847,,,e78f3a77ab4605fcd26d0fb739b15847.pdf,0,2000-01-01 01:00:00,2016-04-03 02:51:08,1052000/e78f3a77ab4605fcd26d0fb739b15847-d.jpg,,
22341979,The Cash Flow Solution: The Nonprofit Board Member's Guide to Financial Success,,,,"Richard S. Linzer, Anna O. Linzer",2006,1,Jossey-Bass,,160,0,English,,,0,"0787978337,9780787978334",,,,,,,,,,,0,,,,,,,0,12032387,pdf,1bb550a46a9ea468f93457e413735ac7,,,1bb550a46a9ea468f93457e413735ac7.pdf,0,2000-01-01 01:00:00,2016-04-03 02:51:08,1052000/1bb550a46a9ea468f93457e413735ac7-d.jpg,,
22341980,The Rise of Free Trade Imperialism: Classical Political Economy the Empire of Free Trade and Imperialism 1750-1850,,,,Bernard Semmel,1970,First Edition,Cambridge University Press,,260,0,English,,,0,"0521077257,9780521077255",,,,,,,,,,,0,,,,,,,0,8540422,pdf,6e7dee2b64857e4a7beafdff28b85e6d,,,6e7dee2b64857e4a7beafdff28b85e6d.pdf,0,2000-01-01 01:00:00,2016-04-03 02:51:08,1052000/6e7dee2b64857e4a7beafdff28b85e6d-d.jpg,,
22341981,Learning regional innovation: Scandinavian models,,,,"Marianne Ekman, Björn Gustavsen, Björn Terje Asheim, Öyvind Pålshaugen (editors)",2010,1,Palgrave Macmillan,,288,0,English,,,0,"0230275605, 9780230275607, 023030415X, 9780230304154",,,,,338'.0640948—dc22,HC350.T4L43 2010,10.1057/9780230304154,AZp6TdoSo1AC,,,0,,,,,0,1,1,1412971,pdf,56451727bf6b5f9de16cda13bba8f8fd,,,Learning regional innovation_ Scandinavian models (2010),0,2000-01-01 01:00:00,2016-04-03 02:51:08,1052000/56451727bf6b5f9de16cda13bba8f8fd-d.png,,
22341982,Set Theory An Introduction To Independence Proofs,,Studies in Logic and the Foundations of Mathematics,,Kenneth Kunen,1983,,North Holland,,330,0,English,,,0,"0444868399,9780444868398",,,,,,,,,,,0,,,,,,,0,21458766,pdf,c5cdc7fada8bdf431f44273754b8b4a6,,,c5cdc7fada8bdf431f44273754b8b4a6.pdf,0,2000-01-01 01:00:00,2016-04-03 02:51:08,1052000/c5cdc7fada8bdf431f44273754b8b4a6-d.jpg,,
22341983,"The Global Restructuring of the Steel Industry: Innovations, Institutions and Industrial Change",,Routledge Studies in International Business and the World Economy,,Anthony D'Costa,1999,1,Routledge,,248,0,English,,,0,"0415148278,9780415148276",,,,,,,,,,,0,,,,,,,0,13105094,pdf,c6f8940d8e093ac7dde1d1797ed7dd8f,,,c6f8940d8e093ac7dde1d1797ed7dd8f.pdf,0,2000-01-01 01:00:00,2016-04-03 02:51:08,1052000/c6f8940d8e093ac7dde1d1797ed7dd8f-d.jpg,,
22341984,Force Control of Robotics Systems,,,,"Dimitry Gorinevsky, Alexander Formalsky, Anatoli Schneider",1997,1,CRC Press,,368,0,English,,,0,"0849326710,9780849326714",,,,,,,,,,,0,,,,,,,0,80207704,pdf,d47c589aeb28b52e37c50c32632b4fd6,,,d47c589aeb28b52e37c50c32632b4fd6.pdf,0,2000-01-01 01:00:00,2016-04-03 02:51:08,1052000/d47c589aeb28b52e37c50c32632b4fd6-d.jpg,,
22341985,Complex adaptive innovation systems: relatedness and transversality in the evolving region,,Regions and cities,,Philip Cooke,2012,1,Routledge,,272,0,English,,,0,"0415603757, 9780415603751, 0203126610, 9780203126615",,,,,338.9-dc23,HT391 .C636 2011,10.4324/9780203126615,C4E2bwAACAAJ,,,0,,,,,0,1,1,7988383,pdf,65645e572635eb293ad281b0f2cfc413,,,Complex adaptive innovation systems_ relatedness and transversality in the evolving region (2013),0,2000-01-01 01:00:00,2016-04-03 02:51:08,1052000/65645e572635eb293ad281b0f2cfc413-d.png,,
22341986,Office 2010 All-in-One For Dummies,,,,Peter Weverka,2010,1,For Dummies,,816,0,English,,,0,"0470497483,9780470497487",,,,,,,,,,,0,,,,,,,0,33254698,pdf,62aec24676347318211274f3e33652b1,,,62aec24676347318211274f3e33652b1.pdf,0,2000-01-01 01:00:00,2016-04-03 02:51:08,1052000/62aec24676347318211274f3e33652b1-d.jpg,,
22341987,Complex adaptive innovation systems: relatedness and transversality in the evolving region,,Regions and cities,,Philip Cooke,2012,1,Routledge,,272,0,English,,,0,"0415603757, 9780415603751, 0203126610, 9780203126615",,,,,338.9-dc23,HT391 .C636 2011,10.4324/9780203126615,C4E2bwAACAAJ,,,0,,,,,0,,,16088833,epub,303a9c9c2c29778d4e9bc3cb16be5f5b,,,Complex adaptive innovation systems_ relatedness and transversality in the evolving region (2013),0,2000-01-01 01:00:00,2016-04-03 02:51:08,1052000/65645e572635eb293ad281b0f2cfc413-d.png,,
22341988,Corona SDK Application Design,,,,Daniel Williams,2013,,Packt Publishing,,98,0,English,,,0,"1849697361,9781849697361",,,,,,,,,,,0,,,,,,,0,1782246,pdf,baa1f5d0b1fa7d1720f0527222d8bcfd,,,baa1f5d0b1fa7d1720f0527222d8bcfd.pdf,0,2000-01-01 01:00:00,2016-04-03 02:51:08,1052000/baa1f5d0b1fa7d1720f0527222d8bcfd-d.jpg,,
22341989,Second Order Elliptic Integro-Differential Problems,,Chapman & Hall/CRC Research Notes in Mathematics Series,,"Maria Giovanna Garroni, Jose Luis Menaldi",2002,1,Chapman and Hall/CRC,,240,0,English,,,0,"158488200X,9781584882008",,,,,,,,,,,0,,,,,,,0,3845815,pdf,b61c94fc7e07ad9ad8da7d16ab32a582,,,b61c94fc7e07ad9ad8da7d16ab32a582.pdf,0,2000-01-01 01:00:00,2016-04-03 02:51:08,1052000/b61c94fc7e07ad9ad8da7d16ab32a582-d.jpg,,
22341990,Handbook of Industrial Membranes,,,,K. Scott,1996,1st,Elsevier Science,,912,0,English,,,0,"1856172333,9781856172332",,,,,,,,,,,0,,,,,,,0,32962353,pdf,d083b77f85a2130443af2d861aef2f19,,,d083b77f85a2130443af2d861aef2f19.pdf,0,2000-01-01 01:00:00,2016-04-03 02:51:08,1052000/d083b77f85a2130443af2d861aef2f19-d.jpg,,
22341991,Fundamentals of Operative Dentistry: A Contemporary Approach,,,,"James B. Summitt, James B. Summitt, J. William Robbins, Thomas J. Hilton, Richard S. Schwartz, Jose Dos Santos Jr.",2006,3,Quintessence Pub Co,,612,0,English,,,0,"0867154527,9780867154528",,,,,,,,,,,0,,,,,,,0,30429814,pdf,6311a035733570db06560e4bbe6025f7,,,6311a035733570db06560e4bbe6025f7.pdf,0,2000-01-01 01:00:00,2016-04-03 02:51:08,1052000/6311a035733570db06560e4bbe6025f7-d.jpg,,
22341992,Entrepreneurship and innovation in second tier regions,,,,Heike Mayer,2011,,Edward Elgar,,272,0,English,,,0,"1847203590, 9781847203595, 085793869X, 9780857938695",,,,,338.60420973-dc23,HC110.H53 M39 2011,,wWQMmQEACAAJ,,,0,,,,,0,1,1,2645171,pdf,23eb388285113046e075ecb2cce1ed47,,,Entrepreneurship and innovation in second tier regions (2011),0,2000-01-01 01:00:00,2016-04-03 02:51:08,1052000/23eb388285113046e075ecb2cce1ed47-d.png,,
22341993,Your Personal Running Plan,,,,Jeff Galloway,2011,,Meyer & Meyer Sport (UK) Ltd,,200,0,English,,,0,"1841263400,9781841263403",,,,,,,,,,,0,,,,,,,,6973082,epub,7970084b1cbe58dcd79422d873c1b152,,,7970084b1cbe58dcd79422d873c1b152.epub,0,2000-01-01 01:00:00,2016-04-03 02:51:08,1052000/7970084b1cbe58dcd79422d873c1b152-d.jpg,,
22341994,Historya powstania listopadowego. T. 2,,,,spisana przez Stanisława Barzykowskiego ; do druku przyg. i kilku uwagami objaśnił Aër.,1883.,,nakł. Księgarni Jana Konstantego Żupańskiego,Poznań,436,0,Polish,64,,0,,,,,,,,,,,,0,,,,,,,0,15934339,pdf,f48a801e5cedc4a520ca5276843971f6,,,"Historya powstania listopadowego, Tom 2",0,2000-01-01 01:00:00,2016-04-03 02:51:08,1052000/f48a801e5cedc4a520ca5276843971f6-g.jpg,,
22341995,Cookies for Kids' Cancer: Best Bake Sale Cookbook,,,,Gretchen Holt-Witt,2011,1,Houghton Mifflin Harcourt,,176,0,English,,,0,"0470947616,9780470947616",,,,,,,,,,,0,,,,,,,,24242286,epub,bdb1372d994b88de72b730d184bec0a1,,,bdb1372d994b88de72b730d184bec0a1.epub,0,2000-01-01 01:00:00,2016-04-03 02:51:08,1052000/bdb1372d994b88de72b730d184bec0a1-d.jpg,,
22341996,Food Security  in Australia: Challenges and Prospects for the Future,,,,"Quentin Farmar-Bowers, Vaughan Higgins, Joanne Millar",2012,2013,Springer,,430,0,English,,,0,"1461444837,9781461444831",,,,,,,,,,,0,,,,,,,0,8170210,pdf,f19edc60bd9b86a2e071936ee7fee8ae,,,f19edc60bd9b86a2e071936ee7fee8ae.pdf,0,2000-01-01 01:00:00,2016-04-03 02:51:08,1052000/f19edc60bd9b86a2e071936ee7fee8ae-d.jpg,,
22341997,Historya powstania listopadowego. T. 3,,,,spisana przez Stanisława Barzykowskiego ; do druku przyg. i kilku uwagami objaśnił Aër.,1884.,,nakł. Księgarni Jana Konstantego Żupańskiego,Poznań,466,0,Polish,64,,0,,,,,,,,,,,,0,,,,,,,0,17500467,pdf,88eb7d5193260075389f2a7074dac5fa,,,"Historya powstania listopadowego, Tom 3",0,2000-01-01 01:00:00,2016-04-03 02:51:08,1052000/88eb7d5193260075389f2a7074dac5fa-g.jpg,,
22341998,"The age of knowledge: the dynamics of universities, knowledge and society",,Studies in critical social sciences,,"James Dzisah, Henry Etzkowitz (editors)",2011,,Brill,,356,0,English,,,0,"9004211020, 9789004211025, 9004211039, 9789004211032",,,,,378.01-dc23,LB2324.A34 2011,10.1163/ej.9789004211025.i-342,5FweIiK5zAQC,,,0,,,,,0,1,1,1337395,pdf,15425d78b17919e1b9e320956636fbce,,,"The age of knowledge_ the dynamics of universities, knowledge and society (2011)",0,2000-01-01 01:00:00,2016-04-03 02:51:08,1052000/15425d78b17919e1b9e320956636fbce-d.jpg,,
22341999,The Gun Digest Book of Concealed Carry,,,,"Massad Ayoob, Massad F. Ayoob",2008,1st,Gun Digest Books,,256,0,English,,,0,"0896896110,9780896896116",,,,,,,,,,,0,,,,,,,,11348211,epub,08317ef52e0b634077d28652c938f8d1,,,08317ef52e0b634077d28652c938f8d1.epub,0,2000-01-01 01:00:00,2016-04-03 02:51:08,1052000/08317ef52e0b634077d28652c938f8d1-d.jpg,,
22342000,"Schizophrenia, Culture, and Subjectivity: The Edge of Experience",,Cambridge Studies in Medical Anthropology,,"Janis Hunter Jenkins, Robert John Barrett",2003,,Cambridge University Press,,382,0,English,,,0,"0521829550,9780521829557",,,,,,,,,,,0,,,,,,,0,3235659,pdf,49ab5f212a47b15c8975b3cd2f2271ee,,,49ab5f212a47b15c8975b3cd2f2271ee.pdf,0,2000-01-01 01:00:00,2016-04-03 02:51:08,1052000/49ab5f212a47b15c8975b3cd2f2271ee-d.jpg,,
22342001,Computationally Intelligent Hybrid Systems: The Fusion of Soft Computing and Hard Computing,,IEEE Press Series on Computational Intelligence,,Seppo J. Ovaska,2004,1,Wiley-IEEE Press,,410,0,English,,,0,"0471476684,9780471476689",,,,,,,,,,,0,,,,,,,0,12508806,pdf,53e874e7e860ae3e04259767ebdf3561,,,53e874e7e860ae3e04259767ebdf3561.pdf,0,2000-01-01 01:00:00,2016-04-03 02:51:08,1052000/53e874e7e860ae3e04259767ebdf3561-d.jpg,,
22342002,Understanding Capital: Marx's Economic Theory,,,,Duncan K. Foley,1986,1St Edition,Harvard University Press,,200,0,English,,,0,"0674920880,9780674920880",,,,,,,,,,,0,,,,,,,0,3217403,pdf,a92966970175548bbe4e8cf2cbc67e76,,,a92966970175548bbe4e8cf2cbc67e76.pdf,0,2000-01-01 01:00:00,2016-04-03 02:51:08,1052000/a92966970175548bbe4e8cf2cbc67e76-d.jpg,,
22342003,Your Career as a Fashion Designer,,Careers Ebooks,,Institute For Career Research,2013,2013,Institute For Career Research,,30,0,English,,,0,",",,B00BE9K0JC,,,,,,,,,0,,,,,,,0,3476245,pdf,04e2b81a9c86a4b333973100c4a8a1e3,,,04e2b81a9c86a4b333973100c4a8a1e3.pdf,0,2000-01-01 01:00:00,2016-04-03 02:51:08,1052000/04e2b81a9c86a4b333973100c4a8a1e3-d.jpg,,
22342004,"Encyclopedia of American Religious History, Vol. 1-3",,Facts on File Library of American History,,"Edward L. Queen II, Stephen R. Prothero, Gardiner H. Shatuck Jr., Martin E. Marty",2009,3rd,Sonlight Christian,,1200,0,English,,,0,"0816066604,9780816066605",,,,,,,,,,,0,,,,,,,0,19206447,pdf,7e16dfe9eb0e70524cda85d2c163d322,,,7e16dfe9eb0e70524cda85d2c163d322.pdf,0,2000-01-01 01:00:00,2016-04-03 02:51:08,1052000/7e16dfe9eb0e70524cda85d2c163d322-d.jpg,,
22342005,The Tarskian Turn: Deflationism and Axiomatic Truth,,,,Leon Horsten,2011,,The MIT Press,,178,0,English,,,0,"0262015862,9780262015868",,,,,,,,,,,0,,,,,,,0,5810764,pdf,7786bf3aa36b60ca803a2d5456e20116,,,7786bf3aa36b60ca803a2d5456e20116.pdf,0,2000-01-01 01:00:00,2016-04-03 02:51:08,1052000/7786bf3aa36b60ca803a2d5456e20116-d.jpg,,
22342006,Historya powstania listopadowego. T. 1,,,,spisana przez Stanisława Barzykowskiego ; do druku przyg. i kilku uwagami objaśnił Aër.,1883.,,nakł. Księgarni Jana Konstantego Żupańskiego,Poznań,581,0,Polish,,,0,,,,,,,,,,,,0,,,,,,,0,27485282,pdf,c86aae42171a0b0aa17183b2c7d500f1,,,c86aae42171a0b0aa17183b2c7d500f1,0,2000-01-01 01:00:00,2016-04-03 02:51:08,1052000/c86aae42171a0b0aa17183b2c7d500f1-g.jpg,,
22342007,Environmental Aspects of Construction with Waste Materials,,Studies in Environmental Science,,"Th.G. Aalbers, H.A. van der Sloot, J.J.J.M. Goumans",1994,,Elsevier Science,,1002,0,English,,,0,"0444818537,9780444818539",,,,,,,,,,,0,,,,,,,0,15138006,pdf,8bd22cf2771f46b30f16e315fe5e42e3,,,8bd22cf2771f46b30f16e315fe5e42e3.pdf,0,2000-01-01 01:00:00,2016-04-03 02:51:08,1052000/8bd22cf2771f46b30f16e315fe5e42e3-d.jpg,,
22342008,Historya powstania listopadowego. T. 4,,,,spisana przez Stanisława Barzykowskiego ; do druku przyg. i kilku uwagami objaśnił Aër.,1884.,,nakł. Księgarni Jana Konstantego Żupańskiego,Poznań,458,0,Polish,64,,0,,,,,,,,,,,,0,,,,,,,0,16555504,pdf,f46536d670c8de7a595acb57ee243f28,,,"Historya powstania listopadowego, Tom 4",0,2000-01-01 01:00:00,2016-04-03 02:51:08,1052000/f46536d670c8de7a595acb57ee243f28-g.jpg,,
22342009,Performance Auditing: Contributing to Accountability in Democratic Government,,,,"Jeremy Lonsdale, Peter Wilkins, Tom Ling, Jeremy Lonsdale, Peter Wilkins, Tom Ling",2011,,Edward Elgar Pub,,368,0,English,,,0,"1848449720,9781848449725",,,,,,,,,,,0,,,,,,,0,4481521,pdf,da7a2a5785afdcfb460fa048618cda5b,,,da7a2a5785afdcfb460fa048618cda5b.pdf,0,2000-01-01 01:00:00,2016-04-03 02:51:08,1052000/da7a2a5785afdcfb460fa048618cda5b-d.jpg,,
22342010,Historya powstania listopadowego. T. 5,,,,spisana przez Stanisława Barzykowskiego ; do druku przyg. i kilku uwagami objaśnił Aër.,1884.,,nakł. Księgarni Jana Konstantego Żupańskiego,Poznań,460,0,Polish,64,,0,,,,,,,,,,,,0,,,,,,,0,14479367,pdf,8ca82e3b58c99000a091ea4f04355ace,,,"Historya powstania listopadowego, Tom 5",0,2000-01-01 01:00:00,2016-04-03 02:51:08,1052000/8ca82e3b58c99000a091ea4f04355ace-g.jpg,,
22342011,Time Frequency and Wavelets in Biomedical Signal Processing,,IEEE Press Series on Biomedical Engineering,,Metin Akay,1997,1,Wiley-IEEE Press,,768,0,English,,,0,"0780311477,9780780311473",,,,,,,,,,,0,,,,,,,0,46660292,pdf,99eba15bb92e5881e17bbdb6e1f51e7f,,,99eba15bb92e5881e17bbdb6e1f51e7f.pdf,0,2000-01-01 01:00:00,2016-04-03 02:51:08,1052000/99eba15bb92e5881e17bbdb6e1f51e7f-d.jpg,,
22342012,Ethics Beyond War's End,,,,Eric Patterson,2012,,Georgetown University Press,,256,0,English,,,0,"1589018885,9781589018884",,,,,,,,,,,0,,,,,,,0,4295609,pdf,94ac386dcf24dfed16a0d33b2f2f802a,,,94ac386dcf24dfed16a0d33b2f2f802a.pdf,0,2000-01-01 01:00:00,2016-04-03 02:51:08,1052000/94ac386dcf24dfed16a0d33b2f2f802a-d.jpg,,
22342013,Perinatal Mental Health: A Guide for Health Professionals and Users,,,,Jane Hanley,2009,1,Wiley,,252,0,English,,,0,"0470510684,9780470510681",,,,,,,,,,,0,,,,,,,0,3275291,pdf,2d323545e3c0dc445b4b045296049ac8,,,2d323545e3c0dc445b4b045296049ac8.pdf,0,2000-01-01 01:00:00,2016-04-03 02:51:08,1052000/2d323545e3c0dc445b4b045296049ac8-d.jpg,,
22342014,Odd Bits: How to Cook the Rest of the Animal,,,,"Jennifer McLagan, Leigh Beisch",2011,,Ten Speed Press,,256,0,English,,,0,"9781580083348,9781580083348",,,,,,,,,,,0,,,,,,,,11400063,mobi,531c5bc4925f83c1c0de62432e9395f6,,,531c5bc4925f83c1c0de62432e9395f6.mobi,0,2000-01-01 01:00:00,2016-04-03 02:51:08,1052000/531c5bc4925f83c1c0de62432e9395f6-d.jpg,,
22342015,Historya Uniwersytetu Jagiellońskiego T. 1.,,,,napis. Kazimierz Morawski,1900,,Kraków Drukarnia Uniw. Jagiellońskiego,,502,0,Polish,64,,0,,,,,,,,,,,,0,,,,,,,1,32364673,pdf,23e919c63fab58a3d4025864dcf19c95,,,"Historya Uniwersytetu Jagiellonskiego, Tom 1",0,2000-01-01 01:00:00,2016-04-03 02:51:08,1052000/23e919c63fab58a3d4025864dcf19c95-g.jpg,,
22342016,Human Response to Vibration,,,,Neil J. Mansfield,2004,1,CRC Press,,248,0,English,,,0,"041528239X,9780415282390",,,,,,,,,,,0,,,,,,,0,3581710,pdf,3c825d9b86fc944e5dfe5b73e855825e,,,3c825d9b86fc944e5dfe5b73e855825e.pdf,0,2000-01-01 01:00:00,2016-04-03 02:51:08,1052000/3c825d9b86fc944e5dfe5b73e855825e-d.jpg,,
22342017,Historya Uniwersytetu Jagiellońskiego : średnie wieki i odrodzenie; z wstepem o uniwersytecie Kazimierza Wielkiego t. 2,,,,napisał Kazimierz Morawski,1900,,Kraków Druk. Uniw. Jagiellońskiego,,498,0,Polish,64,,0,,,,,,,,,,,,0,,,,,,,1,30508905,pdf,3a3fcfeb953789f05c9ed695856ade2c,,,"Historya Uniwersytetu Jagiellonskiego, Tom 2",0,2000-01-01 01:00:00,2016-04-03 02:51:08,1052000/3a3fcfeb953789f05c9ed695856ade2c-g.jpg,,
22342018,Laptops For Seniors For Dummies,,,,Nancy C. Muir,2010,1,For Dummies,,456,0,English,,,0,"0470578300,9780470578308",,,,,,,,,,,0,,,,,,,0,21664748,pdf,9fda55c06c94af3d2d7ddfe6e64a0822,,,9fda55c06c94af3d2d7ddfe6e64a0822.pdf,0,2000-01-01 01:00:00,2016-04-03 02:51:08,1052000/9fda55c06c94af3d2d7ddfe6e64a0822-d.jpg,,
22342019,"Historya ustroju Polski w zarysie. T. 1, Korona",,,,Stanisław Kutrzeba.,1917.,Wyd. 4,nakł. Księgarni Polskiej Bernarda Połonieckiego,Lwów,312,0,Polish,64,,0,,,,,,,,,,,,0,,,,,,,1,16273315,pdf,623076ce717f78a80933fa63bb12b995,,,"Historya ustroju Polski w zarysie, Tom 1",0,2000-01-01 01:00:00,2016-04-03 02:51:08,1052000/623076ce717f78a80933fa63bb12b995-g.jpg,,
22342020,"The Finer Edge: Crocheted Trims, Motifs & Borders",,,,Kristin Omdahl,2013,,Interweave,,144,0,English,,,0,"1596685549,9781596685543",,,,,,,,,,,0,,,,,,,0,33960423,pdf,8574b1afe4f9bbab103117a0c3556b5d,,,8574b1afe4f9bbab103117a0c3556b5d.pdf,0,2000-01-01 01:00:00,2016-04-03 02:51:08,1052000/8574b1afe4f9bbab103117a0c3556b5d-d.jpg,,
22342021,Hypoglycaemia in Clinical Diabetes,,Practical Diabetes,,"Brian M. Frier, Miles Fisher",2007,2nd Edition,Wiley-Blackwell,,358,0,English,,,0,"0470018445,9780470018446",,,,,,,,,,,0,,,,,,,0,4551834,pdf,c386a4e63b490628ee90acc6c8077543,,,c386a4e63b490628ee90acc6c8077543.pdf,0,2000-01-01 01:00:00,2016-04-03 02:51:08,1052000/c386a4e63b490628ee90acc6c8077543-d.jpg,,
22342022,"Historya ustroju Polski w zarysie. T. 2, Litwa",,,,Stanisław Kutrzeba.,1914.,,B. Połaniecki,Lwów,264,0,Polish,64,,0,,,,,,,,,,,,0,,,,,,,1,9552775,pdf,745bedad18dc3b381a0aa401c876f8fd,,,"Historya ustroju Polski w zarysie, Tom 2",0,2000-01-01 01:00:00,2016-04-03 02:51:08,1052000/745bedad18dc3b381a0aa401c876f8fd-g.jpg,,
22342023,Historya ustroju polski w zarysie 3 (Po rozbiorach Cz. 1) [...],,,,Stanisław Kutrzeba,1920,,Lwów Połoniecki,,272,0,Polish,64,,0,,,,,,,,,,,,0,,,,,,,1,13360268,pdf,e207ac1d856f9f92923ce341d8c1f221,,,"Historya ustroju Polski w zarysie, Tom 3",0,2000-01-01 01:00:00,2016-04-03 02:51:08,1052000/e207ac1d856f9f92923ce341d8c1f221-g.jpg,,
22342024,"An introduction to differential geometry, with use of the tensor calculus",,,,Luther Pfahler Eisenhart,1940,,"Princeton University PressH. Milford, Oxford University Press",,0,0,English,,,0,",",,B002Z9DKXS,,,,,,,,,0,,,,,,,0,10927050,pdf,9a9d81d0a61b279c69d9b0975431a7a2,,,9a9d81d0a61b279c69d9b0975431a7a2.pdf,0,2000-01-01 01:00:00,2016-04-03 02:51:08,1052000/9a9d81d0a61b279c69d9b0975431a7a2-g.jpg,,
22342025,"Historya ustroju Polski w zarysie. T. 4, Po rozbiorach. Cz. 2",,,,Stanisław Kutrzeba.,1920,,,,302,0,Polish,64,,0,,,,,,,,,,,,0,,,,,,,1,20383265,pdf,5fe60bacb4bfd8f293e6cb0c5d68f921,,,"Historya ustroju Polski w zarysie, Tom 4",0,2000-01-01 01:00:00,2016-04-03 02:51:08,1052000/5fe60bacb4bfd8f293e6cb0c5d68f921-g.jpg,,
22342026,Reading Paradise Lost,,Wiley Blackwell Reading Poetry,,David Hopkins,2013,1,Wiley-Blackwell,,106,0,English,,,0,"1118471008,9781118471005",,,,,,,,,,,0,,,,,,,0,3227893,pdf,6aee45c93154ab6bd2773c2405ab7e05,,,6aee45c93154ab6bd2773c2405ab7e05.pdf,0,2000-01-01 01:00:00,2016-04-03 02:51:08,1052000/6aee45c93154ab6bd2773c2405ab7e05-d.jpg,,
22342027,Understanding Arabs: A Contemporary Guide to Arab Society,,,,Margaret K. Nydell,2012,5th Edition,Nicholas Brealey Publishing,,320,0,English,189,,0,"0983955808,9780983955801",,,,,,,,,,,0,,,,1,,1,1,13131876,pdf,9add88d08a1cae14852a2568b4520109,,,0983955808UArabs5,0,2000-01-01 01:00:00,2016-04-03 02:51:08,1052000/9add88d08a1cae14852a2568b4520109-d.jpg,,
22342028,"99% Inspiration: Tips, Tales, and Techniques for Liberating Your Business Creativity",,,,Bryan W. Mattimore,1993,,AMACOM,,180,0,English,,,0,"0814477887,9780814477885",,,,,,,,,,,0,,,,,,,,2335384,epub,4718d46d2af25f071d3df0b1453b370c,,,4718d46d2af25f071d3df0b1453b370c.epub,0,2000-01-01 01:00:00,2016-04-03 02:51:08,1052000/4718d46d2af25f071d3df0b1453b370c-d.jpg,,
22342029,Emile: Or On Education,,,,"Jean-Jacques Rousseau, Allan Bloom",1979,,Basic Books,,501,0,English,,,0,"0465019315,9780465019311",,,,,,,,,,,0,,,,,,,0,28110748,pdf,1761872e50cbaf97be076e0902f2ad24,,,1761872e50cbaf97be076e0902f2ad24.pdf,0,2000-01-01 01:00:00,2016-04-03 02:51:08,1052000/1761872e50cbaf97be076e0902f2ad24-d.jpg,,
22342030,Jagiellonki polskie w XVI. wieku : obrazy rodziny i dworu Zygmunta I. i Zygmunta Augusta królów polskich. T. 1,,,,przez Alexandra Przeździeckiego.,1868,,[s.n.],Kraków,426,0,Polish,64,,0,,,,,,,,,,,,0,,,,,,,0,15903006,pdf,1fe0902c2e8697c776b1250825f3b9b2,,,"Jagiellonki polskie w XVI wieku, Tom 1",0,2000-01-01 01:00:00,2016-04-03 02:51:08,1052000/1fe0902c2e8697c776b1250825f3b9b2-g.jpg,,
22342031,Jagiellonki polskie w XVI. wieku : obrazy rodziny i dworu Zygmunta I. i Zygmunta Augusta królów polskich. T. 2,,,,przez Alexandra Przeździeckiego.,1868,,[s.n.],Kraków,336.,0,Polish,64,,0,,,,,,,,,,,,0,,,,,,,0,10919573,pdf,084f1d97a902fa3bf25ef73d5267f28b,,,"Jagiellonki polskie w XVI wieku, Tom 2",0,2000-01-01 01:00:00,2016-04-03 02:51:08,1052000/084f1d97a902fa3bf25ef73d5267f28b-g.jpg,,
22342032,Jagiellonki polskie w XVI. wieku : korrespondencya polska królewnéj Zofii Jagiellonki Księżnéj Brunświckiéj i królewnéj Jadwigi Jagiellonki Margrabiny Brandeburskiéj [...] z dodaniem niektórych innych listów spółczesnych wydana i historycznym wątkiem powiązana. T. 3,,,,przez Alexandra Przeździeckiego.,1868,,[s.n.],Kraków,424,0,Polish,64,,0,,,,,,,,,,,,0,,,,,,,1,16774454,pdf,e40b09d389f9e4097fb2226d22d0dbda,,,"Jagiellonki polskie w XVI wieku, Tom 3",0,2000-01-01 01:00:00,2016-04-03 02:51:08,1052000/e40b09d389f9e4097fb2226d22d0dbda-g.jpg,,
22342033,Jagiellonki polskie w XVI. wieku : korrespondencya polska królewnéj Zofii Jagiellonki Księżnéj Brunświckiéj i królewnéj Jadwigi Jagiellonki Margrabiny Brandeburskiéj [...] z dodaniem niektórych innych listów spółczesnych wydana i historycznym wątkiem powiązana. T. 4,,,,przez Alexandra Przeździeckiego.,1868,,[s.n.],Kraków,392,0,Polish,64,,0,,,,,,,,,,,,0,,,,,,,0,15116207,pdf,15bdcddf4513244b48f75347f6850050,,,"Jagiellonki polskie w XVI wieku, Tom 4",0,2000-01-01 01:00:00,2016-04-03 02:51:08,1052000/15bdcddf4513244b48f75347f6850050-g.jpg,,
22342034,Jagiellonki polskie w XVI. wieku. T.5,,,,Szujski Józef. Oprac.; Przeździecki Aleksander,1878,,Drukarnia Uniwersytetu Jagiellońskiego,,392,0,Polish,,,0,,,,,,,,,,,,0,,,,,,,0,15116207,pdf,e4776597ef262929d220ea7709e568a0,,,"Jagiellonki polskie w XVI wieku, Tom 5",0,2000-01-01 01:00:00,2016-04-03 02:51:08,1052000/e4776597ef262929d220ea7709e568a0-g.jpg,,
22342035,Obrazy z życia kilku ostatnich pokoleń w Polsce. T. 1,,,,przez Juliusza Falkowskiego.,1877.,,nakł. Księgarni Jana Konstantego Żupańskiego,Poznań,362,0,Polish,64,,0,,,,,,,,,,,,0,,,,,,,0,6711160,pdf,42774394676d54c57ebd697ddfb0ffbf,,,"Obrazy z życia kilku ostatnich pokoleń w Polsce, Tom 1",0,2000-01-01 01:00:00,2016-04-03 02:51:08,1052000/42774394676d54c57ebd697ddfb0ffbf-g.jpg,,
22342036,Computer: A History of the Information Machine,,The Sloan Technology Series,,"Martin Campbell-Kelly, William Aspray, Nathan Ensmenger, Jeffrey R. Yost",2013,3rd,Westview Press,,376,0,English,,,0,"0813345901,9780813345901",,,,,,,,,,,0,,,,,,,0,3377174,pdf,c4da7d5c00dc2610ee2d556d299f8c01,,,c4da7d5c00dc2610ee2d556d299f8c01.pdf,0,2000-01-01 01:00:00,2016-04-03 02:51:08,1052000/c4da7d5c00dc2610ee2d556d299f8c01-d.jpg,,
22342037,Obrazy z życia kilku ostatnich pokoleń w Polsce 2 [Ksie̜stwo Warszawkie)],,,,,1882,,Poznań 1882,,410,0,Polish,64,,0,,,,,,,,,,,,0,,,,,,,0,8363884,pdf,c2db62937349449e4e5a33cf2694d80c,,,"Obrazy z życia kilku ostatnich pokoleń w Polsce, Tom 2",0,2000-01-01 01:00:00,2016-04-03 02:51:08,1052000/c2db62937349449e4e5a33cf2694d80c-g.jpg,,
22342038,"Fabulicious!: Fast & Fit: Teresa's Low-Fat, Super-Easy Italian Recipes",,,,"Teresa Giudice, Heather Maclean",2012,Original,Running Press,,192,0,English,,,0,"0762445440,9780762445448",,,,,,,,,,,0,,,,,,,,11607982,epub,6e2a9b0eda13bd9177ad30eee44400d7,,,6e2a9b0eda13bd9177ad30eee44400d7.epub,0,2000-01-01 01:00:00,2016-04-03 02:51:08,1052000/6e2a9b0eda13bd9177ad30eee44400d7-d.jpg,,
22342039,Obrazy z życia kilku ostatnich pokoleń w Polsce. T. 3,,,,przez Juliusza Falkowskiego.,1884.,,nakł. Księgarni Jana Konstantego Żupańskiego,Poznań,562,0,Polish,64,,0,,,,,,,,,,,,0,,,,,,,0,11239738,pdf,2d68dc384472e436d51b01c4347e66bf,,,"Obrazy z życia kilku ostatnich pokoleń w Polsce, Tom 3",0,2000-01-01 01:00:00,2016-04-03 02:51:08,1052000/2d68dc384472e436d51b01c4347e66bf-g.jpg,,
22342040,E-discovery: Creating and Managing an Enterprisewide Program - A Technical Guide to Digital Investigation and Litigation Support,,,,Karen A. Schuler,2008,1,Syngress,,328,0,English,,,0,"1597492965,9781597492966",,,,,,,,,,,0,,,,,,,0,7120199,pdf,d7d13cc74a058b0fb980296b96b1efed,,,d7d13cc74a058b0fb980296b96b1efed.pdf,0,2000-01-01 01:00:00,2016-04-03 02:51:08,1052000/d7d13cc74a058b0fb980296b96b1efed-d.jpg,,
22342041,"Arab France: Islam and the Making of Modern Europe, 1798-1831",,,,Ian Coller,2010,1,University of California Press,,304,0,English,,,0,"0520260651,9780520260658",,,,,,,,,,,0,,,,,,,0,4793267,pdf,bf45e15920615530646018751fd63fa3,,,bf45e15920615530646018751fd63fa3.pdf,0,2000-01-01 01:00:00,2016-04-03 02:51:08,1052000/bf45e15920615530646018751fd63fa3-d.jpg,,
22342042,Obrazy z życia kilku ostatnich pokoleń w Polsce. T. 4,,,,przez Juliusza Falkowskiego.,1886.,,nakł. Księgarni Jana Konstantego Żupańskiego,Poznań,372,0,Polish,64,,0,,,,,,,,,,,,0,,,,,,,0,6612076,pdf,578722a21cc6b298af49b5e4414a16ce,,,"Obrazy z życia kilku ostatnich pokoleń w Polsce, Tom 4",0,2000-01-01 01:00:00,2016-04-03 02:51:08,1052000/578722a21cc6b298af49b5e4414a16ce-g.jpg,,
22342043,Primal Management: Unraveling the Secrets of Human Nature to Drive High Performance,,,,Paul Herr,2009,1,AMACOM,,288,0,English,,,0,"081441396X,9780814413968",,,,,,,,,,,0,,,,,,,0,3742828,pdf,2f878e6cb120ab770b8d4334cc2e643e,,,2f878e6cb120ab770b8d4334cc2e643e.pdf,0,2000-01-01 01:00:00,2016-04-03 02:51:08,1052000/2f878e6cb120ab770b8d4334cc2e643e-d.jpg,,
22342044,Obrazy z życia kilku ostatnich pokoleń w Polsce. T. 5,,,,przez Juliusza Falkowskiego.,,,,,610,0,Polish,,,0,,,,,,,,,,,,0,,,,,,,0,10458098,pdf,71413d00af7f5d8e66e555804dc779f5,,,"Obrazy z życia kilku ostatnich pokoleń w Polsce, Tom 5",0,2000-01-01 01:00:00,2016-04-03 02:51:08,1052000/71413d00af7f5d8e66e555804dc779f5-g.jpg,,
22342045,The mystical theology of Saint Bernard,,,,"Etienne Downes, Alfred Howard Campbell, Gilson",1940,,Sheed & Ward,,0,0,English,,,0,",",,B007T2JLTS,,,,,,,,,0,,,,,,,0,3740594,pdf,4fc86b0856b9e05393f9d680c397bf71,,,4fc86b0856b9e05393f9d680c397bf71.pdf,0,2000-01-01 01:00:00,2016-04-03 02:51:08,1052000/4fc86b0856b9e05393f9d680c397bf71-g.jpg,,
22342046,The Engineer's Manual of Construction Site Planning,,,,"J?ri Sutt, Irene Lill, Olev M??rsepp",2013,1,Wiley-Blackwell,,196,0,English,,,0,"1118556097,9781118556092",,,,,,,,,,,0,,,,,,,0,3726438,pdf,823c8a0fc369edcc68c52b00d9f7dbb5,,,823c8a0fc369edcc68c52b00d9f7dbb5.pdf,0,2000-01-01 01:00:00,2016-04-03 02:51:08,1052000/823c8a0fc369edcc68c52b00d9f7dbb5-d.jpg,,
22342047,Litwa w roku 1812.,,"Monografie w zakresie dziejów nowożytnych, t. 9.",,,1912,,"Kraków, Druk W.L. Anczyca",,470,0,Polish,64,,0,,,,,,,,,,,,0,,,,,,,1,25113292,pdf,a0f98ed4ca31ba89f47fe0318058679d,,,Litwa w roku 1812 (1912),0,2000-01-01 01:00:00,2016-04-03 02:51:08,1052000/a0f98ed4ca31ba89f47fe0318058679d-g.jpg,,
22342048,Why Your Life Sucks,,,,Alan Cohen,2005,,Bantam,,224,0,English,,,0,"0553383620,9780553383621",,,,,,,,,,,0,,,,,,,,507620,mobi,9e32191e7e8814bce56decb48db708fe,,,9e32191e7e8814bce56decb48db708fe.mobi,0,2000-01-01 01:00:00,2016-04-03 02:51:08,1052000/9e32191e7e8814bce56decb48db708fe-d.jpg,,
22342049,JasperReports 3.5 for Java Developers,,,,David Heffelfinger,2009,,Packt Publishing,,350,0,English,,,0,"1847198082,9781847198082",,,,,,,,,,,0,,,,,,,0,10879936,pdf,669ff3332ed25038ee6c4afb1e114d8c,,,669ff3332ed25038ee6c4afb1e114d8c.pdf,0,2000-01-01 01:00:00,2016-04-03 02:51:08,1052000/669ff3332ed25038ee6c4afb1e114d8c-d.jpg,,
22342050,Grimoire Sympathia - Workshop of the Infinite,,,,"Charubel, Aubrey Beardsley (Illustrator)",2003,,I-H-O Books,,374,0,English,,,0,"1872189490,9781872189499",,,,,,,,,,,0,,,,,,,0,20427975,pdf,31ee9f7cc967fa4df7fd2a33edb6d069,,,31ee9f7cc967fa4df7fd2a33edb6d069.pdf,0,2000-01-01 01:00:00,2016-04-03 02:51:08,1052000/31ee9f7cc967fa4df7fd2a33edb6d069-d.jpg,,
22342051,Szkice z historyi Galicyi w 19 wieku.,,,,,1913.,,Gubrynowicz,Lwów,488,0,Polish,64,,0,,,,,,,,,,,,0,,,,,,,1,24480400,pdf,ffe3bf2572dabb57b91ebaf2440e99a2,,,Szkice z historyi Galicyi w 19 wieku (1913),0,2000-01-01 01:00:00,2016-04-03 02:51:08,1052000/ffe3bf2572dabb57b91ebaf2440e99a2-g.jpg,,
22342052,Optical Scanning Holography with MATLAB®,,,,Ting-Chung Poon,2007,2007,Springer,,153,0,English,98,,0,"0387368264,9780387368269",,,,,,,,,,,0,,,,,,,0,8203036,pdf,e721fc909ef6221395b4f1c94abe0028,,,e721fc909ef6221395b4f1c94abe0028.pdf,0,2000-01-01 01:00:00,2016-04-03 02:51:08,1052000/e721fc909ef6221395b4f1c94abe0028-d.jpg,,
22342053,The Onion Presents: Christmas Exposed,,Onion Ad Nauseam,,The Onion Staff,2011,,Quirk Books,,176,0,English,,,0,"1594745420,9781594745423",,,,,,,,,,,0,,,,,,,,8868275,mobi,3ebfb4562ba9135de95faa1ed45a8d46,,,3ebfb4562ba9135de95faa1ed45a8d46.mobi,0,2000-01-01 01:00:00,2016-04-03 02:51:08,1053000/3ebfb4562ba9135de95faa1ed45a8d46-d.jpg,,
22342054,"Recording Tips for Engineers: For cleaner, brighter tracks",,Mastering Music,,Tim Crich,2010,3,Focal Press,,320,0,English,,,0,"0240521765,9780240521763",,,,,,,,,,,0,,,,,,,0,5390655,pdf,b71559b4176daef8400477e9889402c3,,,b71559b4176daef8400477e9889402c3.pdf,0,2000-01-01 01:00:00,2016-04-03 02:51:08,1053000/b71559b4176daef8400477e9889402c3-d.jpg,,
22342055,Kwestya polska a socyalizm,,,,Władysław Gumplowicz.,1908.,,"Nakładem Wydawnictwa Dzieł Społeczno-Politycznych \Życie\""""",Warszawa,422,0,Polish,64,,0,,,,,,,,,,,,0,,,,,,,1,24198353,pdf,c341c247caccb82e67954b8d9555d588,,,Kwestya polska a socyalizm (1908),0,2000-01-01 01:00:00,2016-04-03 02:51:08,1053000/c341c247caccb82e67954b8d9555d588-g.jpg,,
22342056,Challenges to The Second Law of Thermodynamics: Theory and Experiment,,Fundamental Theories of Physics,,"Vladislav Capek, Daniel P. Sheehan",2005,2005,Springer,,348,0,English,,,0,"1402030150,9781402030154",,,,,,,,,,,0,,,,,,,1,3151178,pdf,2975675de379ac2416d02aec1a1c67a9,,,2975675de379ac2416d02aec1a1c67a9.pdf,0,2000-01-01 01:00:00,2016-04-03 02:51:08,1053000/2975675de379ac2416d02aec1a1c67a9-d.jpg,,
22342057,"Fundamentals of Grid Computing: Theory, Algorithms and Technologies",,Chapman & Hall/CRC Numerical Analysis and Scientific Computing Series,,Frederic Magoules,2009,1,Chapman and Hall/CRC,,322,0,English,,,0,"1439803676,9781439803677",,,,,,,,,,,0,,,,,,,0,4113159,pdf,e9debf7dc30936c80c31d0957c767722,,,e9debf7dc30936c80c31d0957c767722.pdf,0,2000-01-01 01:00:00,2016-04-03 02:51:08,1053000/e9debf7dc30936c80c31d0957c767722-d.jpg,,
22342058,Fun with Papers,,,,Madhav Khare,2007,,Jyotsna Prakashan,,0,0,English,,,0,"8179251438,9788179251430",,,,,,,,,,,0,,,,,,,0,4850827,pdf,50cea94b02a8833754a0df7d8b486193,,,50cea94b02a8833754a0df7d8b486193.pdf,0,2000-01-01 01:00:00,2016-04-03 02:51:08,1053000/50cea94b02a8833754a0df7d8b486193-d.jpg,,
22342059,Genomics: Essential Methods,,,,"Mike Starkey, Ramnath Elaswarapu",2010,1,Wiley,,350,0,English,,,0,"0470711574,9780470711576",,,,,,,,,,,0,,,,,,,0,8976739,pdf,35eac14314174d3d8cca83ae4678e584,,,35eac14314174d3d8cca83ae4678e584.pdf,0,2000-01-01 01:00:00,2016-04-03 02:51:08,1053000/35eac14314174d3d8cca83ae4678e584-d.jpg,,
22342060,Sams Teach Yourself Visual C++.NET in 21 Days,,,,Davis Chapman,2001,2,Sams Publishing,,800,0,English,87,,0,"0672321971,9780672321979",,,,,,,,,,,0,,,,,,,0,6140150,pdf,93b8203b642ef51df42ddc2f853c273a,,,93b8203b642ef51df42ddc2f853c273a.pdf,0,2000-01-01 01:00:00,2016-04-03 02:51:08,1053000/93b8203b642ef51df42ddc2f853c273a-d.jpg,,
22342061,Medical Ethics: A Very Short Introduction,,,,Tony Hope,2004,1st,Oxford University Press,,170,0,English,,,0,"0192802828,9780192802828",,,,,,,,,,,0,,,,,,,0,3288517,pdf,afa1fb7121dce29b6e495b0128896e9c,,,afa1fb7121dce29b6e495b0128896e9c.pdf,0,2000-01-01 01:00:00,2016-04-03 02:51:08,1053000/afa1fb7121dce29b6e495b0128896e9c-d.jpg,,
22342062,"The Embrace of Eros: Bodies, Desires, and Sexuality in Christianity",,,,"Margaret D. Kamitsuka, Margaret D. Kamitsuka",2010,,Fortress Press,,352,0,English,,,0,"0800696670,9780800696672",,,,,,,,,,,0,,,,,,,0,5356490,pdf,1fb936bb85ef6aca2dc53d9c290c7758,,,1fb936bb85ef6aca2dc53d9c290c7758.pdf,0,2000-01-01 01:00:00,2016-04-03 02:51:08,1053000/1fb936bb85ef6aca2dc53d9c290c7758-d.jpg,,
22342063,"Practical Machinery Management for Process Plants: Volume 1, Third Edition: Improving Machinery Reliability",,,,Heinz P. Bloch,1998,3,Gulf Professional Publishing,,680,0,English,,,0,"0884156613,9780884156611",,,,,,,,,,,0,,,,,,,0,14790959,pdf,32d3bd286e3d0e9c7a256475dba2bb5f,,,32d3bd286e3d0e9c7a256475dba2bb5f.pdf,0,2000-01-01 01:00:00,2016-04-03 02:51:08,1053000/32d3bd286e3d0e9c7a256475dba2bb5f-d.jpg,,
22342064,The Going Lean Fieldbook: A Practical Guide to Lean Transformation and Sustainable Success,,,,Stephen A. Ruffa,2010,,AMACOM,,224,0,English,,,0,"081441558X,9780814415580",,,,,,,,,,,0,,,,,,,0,3684624,pdf,379c810d929e51bf956f46dbee122944,,,379c810d929e51bf956f46dbee122944.pdf,0,2000-01-01 01:00:00,2016-04-03 02:51:08,1053000/379c810d929e51bf956f46dbee122944-d.jpg,,
22342065,Dinosaur Train Little Golden Book Favorites,,Dinosaur Train,,"Andrea Posner-Sanchez, Golden Books",2012,,Golden Books,,80,0,English,,,0,"0307931064,9780307931061",,,,,,,,,,,0,,,,,,,,21343855,epub,c247d11e59cfb483aecf014d4c7c7e2b,,,c247d11e59cfb483aecf014d4c7c7e2b.epub,0,2000-01-01 01:00:00,2016-04-03 02:51:08,1053000/c247d11e59cfb483aecf014d4c7c7e2b-d.jpg,,
22342066,"The Pope Who Quit: A True Medieval Tale of Mystery, Death, and Salvation",,,,Jon M. Sweeney,2012,Original,Image,,304,0,English,,,0,"0385531893,9780385531894",,,,,,,,,,,0,,,,,,,,942429,mobi,6c99a08b1f039418a1841fd5476c9197,,,6c99a08b1f039418a1841fd5476c9197.mobi,0,2000-01-01 01:00:00,2016-04-03 02:51:08,1053000/6c99a08b1f039418a1841fd5476c9197-d.jpg,,
22342067,"Netter's Orthopaedic Clinical Examination: An Evidence-Based Approach, 2e",,Netter Clinical Science,,"Joshua Cleland PT  DPT  PhD  OCS  FAAOMPT, Shane Koppenhaver PT PhD OCS FAAOMPT",2010,2,Saunders,,576,0,English,,,0,"143771384X,9781437713848",,,,,,,,,,,0,,,,,,,0,64106510,pdf,4122d0831a5393b4fd5cec23271c0c7a,,,4122d0831a5393b4fd5cec23271c0c7a.pdf,0,2000-01-01 01:00:00,2016-04-03 02:51:08,1053000/4122d0831a5393b4fd5cec23271c0c7a-d.jpg,,
22342068,"Why Don't Jumbo Jets Flap Their Wings?: Flying Animals, Flying Machines, and How They Are Different",,,,Professor David Alexander,2009,,Rutgers University Press,,288,0,English,,,0,"0813544793,9780813544793",,,,,,,,,,,0,,,,,,,0,23690356,pdf,0e783dfd4193b5bac1bb382965293158,,,0e783dfd4193b5bac1bb382965293158.pdf,0,2000-01-01 01:00:00,2016-04-03 02:51:08,1053000/0e783dfd4193b5bac1bb382965293158-d.jpg,,
22342069,101 Design Ingredients to Solve Big Tech Problems,,,,Eewei Chen,2013,,Pragmatic Bookshelf,,250,0,English,,,0,"1937785327,9781937785321",,,,,,,,,,,0,,,,,,,0,21238591,pdf,bc1bca84a5e713d45c731d9fb7c30d33,,,bc1bca84a5e713d45c731d9fb7c30d33.pdf,0,2000-01-01 01:00:00,2016-04-03 02:51:08,1053000/bc1bca84a5e713d45c731d9fb7c30d33-d.jpg,,
22342070,Atlassian Confluence 5 Essentials,,,,Stefan Kohler,2013,,Packt Publishing,,334,0,English,,,0,"1849689520,9781849689526",,,,,,,,,,,0,,,,,,,0,5601268,pdf,1c5f95fde69cf7a01e6fac2551f822a5,,,1c5f95fde69cf7a01e6fac2551f822a5.pdf,0,2000-01-01 01:00:00,2016-04-03 02:51:08,1053000/1c5f95fde69cf7a01e6fac2551f822a5-d.jpg,,
22342071,Early Aegean Warrior 5000-1450 BC,,,,"Raffaele D'Amato, Andrea Salimbeti, Giuseppe Rava",2013,,Osprey Publishing,,64,0,English,,,0,"1780968582,9781780968582",,,,,,,,,,,0,,,,,,,0,3881920,pdf,3ea0c5eb734860c4fdd9ac44995b2ac0,,,3ea0c5eb734860c4fdd9ac44995b2ac0.pdf,0,2000-01-01 01:00:00,2016-04-03 02:51:08,1053000/3ea0c5eb734860c4fdd9ac44995b2ac0-d.jpg,,
22342072,Young Guns: The Fearless Entrepreneur's Guide to Chasing Your Dreams and Breaking Out on Your Own,,,,Robert Tuchman,2009,1,AMACOM,,224,0,English,,,0,"0814410707,9780814410707",,,,,,,,,,,0,,,,,,,0,3859991,pdf,e34abac31431ab8f408d3bffb66e6cc5,,,e34abac31431ab8f408d3bffb66e6cc5.pdf,0,2000-01-01 01:00:00,2016-04-03 02:51:08,1053000/e34abac31431ab8f408d3bffb66e6cc5-d.jpg,,
22342073,Sensor Technology in Neuroscience,,RSC Detection Scienc,,"Larisa-Emilia Cheran, Saman Sadeghi, Subrayal M Reddy, Damien Arrigan",2013,,Royal Society of Chemistry,,250,0,English,,,0,"1849733791,9781849733793",,,,,,,,,,,0,,,,,,,0,7959130,pdf,31a1247137f06691fdb651dea0d52aa1,,,31a1247137f06691fdb651dea0d52aa1.pdf,0,2000-01-01 01:00:00,2016-04-03 02:51:08,1053000/31a1247137f06691fdb651dea0d52aa1-d.jpg,,
22342074,Market Wizards: Interviews with Top Traders,,,,Jack D. Schwager,1992,Reissue,Harper Paperbacks,,480,0,English,,,0,"9780887306105,9780887306105",,,,,,,,,,,0,,,,,,,0,4912005,pdf,4aa26e6c38e65fd7cc6776ddd92727ea,,,4aa26e6c38e65fd7cc6776ddd92727ea.pdf,0,2000-01-01 01:00:00,2016-04-03 02:51:08,1053000/4aa26e6c38e65fd7cc6776ddd92727ea-d.jpg,,
22342075,"Vectors, Tensors and the Basic Equations of Fluid Mechanics",,Dover Books on Mathematics,,"Rutherford Aris, Mathematics",1990,,Dover Publications,,320,0,English,,,0,"0486661105,9780486661100",,,,,,,,,,,0,,,,,,,0,10066677,pdf,26918cb796f43dc719a378874fea37ac,,,26918cb796f43dc719a378874fea37ac.pdf,0,2000-01-01 01:00:00,2016-04-03 02:51:08,1053000/26918cb796f43dc719a378874fea37ac-d.gif,,
22342076,Clinical Sports Psychiatry: An International Perspective,,World Psychiatric Association,,"David A. Baron, Claudia L. Reardon, Steven H. Baron",2013,1,Wiley-Blackwell,,246,0,English,,,0,"1118404882,9781118404881",,,,,,,,,,,0,,,,,,,0,4841989,pdf,21249ea7ded4d52698a0c4bb55c6ed6e,,,21249ea7ded4d52698a0c4bb55c6ed6e.pdf,0,2000-01-01 01:00:00,2016-04-03 02:51:08,1053000/21249ea7ded4d52698a0c4bb55c6ed6e-d.jpg,,
22342077,Worldmark Encyclopedia of the Nations,,Worldmark Encyclopedia of the Nations (5v.),,Timothy L. Gall,2006,12,Gale,,0,0,English,,,0,"1414410891,9781414410890",,,,,,,,,,,0,,,,,,,0,11318775,pdf,670845e045bd744313c0e011d28179a6,,,670845e045bd744313c0e011d28179a6.pdf,0,2000-01-01 01:00:00,2016-04-03 02:51:08,1053000/670845e045bd744313c0e011d28179a6-d.jpg,,
22342078,"Scalix: Linux Administrator's Guide: Install, configure, and administer your Scalix Collaboration Platform email and groupware server",,,,Markus Feilner,2008,,Packt Publishing,,276,0,English,,,0,"1847192769,9781847192769",,,,,,,,,,,0,,,,,,,0,9509429,pdf,8b5aceb29a846bcb7fb81bceabe7bb16,,,8b5aceb29a846bcb7fb81bceabe7bb16.pdf,0,2000-01-01 01:00:00,2016-04-03 02:51:08,1053000/8b5aceb29a846bcb7fb81bceabe7bb16-d.jpg,,
22342079,Financial Crimes: A Threat to Global Security,,Advances in Police Theory and Practice,,"Maximillian Edelbacher, Peter C. Kratcoski, Michael Theil",2012,1,CRC Press,,447,0,English,,,0,"1439869227,9781439869222",,,,,,,,,,,0,,,,,,,,3083655,epub,8f87bc7d3860fd62b50c60fdf7d83e95,,,8f87bc7d3860fd62b50c60fdf7d83e95.epub,0,2000-01-01 01:00:00,2016-04-03 02:51:08,1053000/8f87bc7d3860fd62b50c60fdf7d83e95-d.jpg,,
22342080,Hacking For Dummies,,,,Kevin Beaver,2010,3,For Dummies,,408,0,English,,,0,"0470550937,9780470550939",,,,,,,,,,,0,,,,,,,,7662365,mobi,2d1d13ca7968a7f6b422b024526673a1,,,2d1d13ca7968a7f6b422b024526673a1.mobi,0,2000-01-01 01:00:00,2016-04-03 02:51:08,1053000/2d1d13ca7968a7f6b422b024526673a1-d.jpg,,
22342081,Practising the Witch's Craft: Real Magic Under a Southern Sky,,,,Douglas Ezzy,2005,,Allen & Unwin,,264,0,English,,,0,"1865089125,9781865089126",,,,,,,,,,,0,,,,,,,0,3672105,pdf,7344e1bdcd4dc6f03ad317b7f9520025,,,7344e1bdcd4dc6f03ad317b7f9520025.pdf,0,2000-01-01 01:00:00,2016-04-03 02:51:08,1053000/7344e1bdcd4dc6f03ad317b7f9520025-d.jpg,,
22342082,Egyptian Myth: A Very Short Introduction,,,,Geraldine Pinch,2004,,Oxford University Press,,160,0,English,,,0,"0192803468,9780192803467",,,,,,,,,,,0,,,,,,,0,3382356,pdf,fb851c8f88990f21e707e05c987ed671,,,fb851c8f88990f21e707e05c987ed671.pdf,0,2000-01-01 01:00:00,2016-04-03 02:51:08,1053000/fb851c8f88990f21e707e05c987ed671-d.jpg,,
22342083,Goat School: A Master Class in Caprine Care and Cooking,,,,Janice Spaulding,2011,,Down East Books,,224,0,English,,,0,"0892729562,9780892729562",,,,,,,,,,,0,,,,,,,,4438761,mobi,ceadcf8c479be07b7b51d14e82961be9,,,ceadcf8c479be07b7b51d14e82961be9.mobi,0,2000-01-01 01:00:00,2016-04-03 02:51:08,1053000/ceadcf8c479be07b7b51d14e82961be9-d.jpg,,
22342084,"Plastic Surgery Secrets Plus, 2e",,,,Jeffrey Weinzweig MD  FACS,2010,2,Mosby,,1080,0,English,,,0,"0323034705,9780323034708",,,,,,,,,,,0,,,,,,,0,30595641,pdf,c85693bc9353060457555d5452b4fab6,,,c85693bc9353060457555d5452b4fab6.pdf,0,2000-01-01 01:00:00,2016-04-03 02:51:08,1053000/c85693bc9353060457555d5452b4fab6-d.jpg,,
22342085,bash Pocket Reference,,Pocket Reference (O'Reilly),,Arnold Robbins,2010,1,O'Reilly Media,,134,0,English,,,0,"1449387888,9781449387884",,,,,,,,,,,0,,,,,,,0,1657847,pdf,79993a44d62ecd2260471bae12fc9f6e,,,79993a44d62ecd2260471bae12fc9f6e.pdf,0,2000-01-01 01:00:00,2016-04-03 02:51:08,1053000/79993a44d62ecd2260471bae12fc9f6e-d.jpg,,
22342086,"Competing Visions of World Order: Global Moments and Movements, 1880s-1930s",,Palgrave MacMillan Series in Transnational History,,"Sebastian Conrad, Dominic Sachsenmaier",2007,First Edition,Palgrave Macmillan,,276,0,English,,,0,"140397988X,9781403979889",,,,,,,,,,,0,,,,,,,0,3271087,pdf,502f8cb3117e1bf89627afbdfe07d902,,,502f8cb3117e1bf89627afbdfe07d902.pdf,0,2000-01-01 01:00:00,2016-04-03 02:51:08,1053000/502f8cb3117e1bf89627afbdfe07d902-d.jpg,,
22342087,Environmental Encyclopedia,,,,Deirdre S. Blanchfield,2011,4,Gale,,1967,0,English,,,0,"1414487363,9781414487366",,,,,,,,,,,0,,,,,,,0,55841176,pdf,ceb7f1a09129198997e77bd1bf05fe04,,,ceb7f1a09129198997e77bd1bf05fe04.pdf,0,2000-01-01 01:00:00,2016-04-03 02:51:08,1053000/ceb7f1a09129198997e77bd1bf05fe04-d.jpg,,
22342088,Children of the Greek Civil War: Refugees and the Politics of Memory,,,,"Loring M. Danforth, Riki Van Boeschoten",2011,,University Of Chicago Press,,352,0,English,,,0,"0226135985,9780226135984",,,,,,,,,,,0,,,,,,,0,4032226,pdf,6d0981827c637bb1bbd08d399b78d358,,,6d0981827c637bb1bbd08d399b78d358.pdf,0,2000-01-01 01:00:00,2016-04-03 02:51:08,1053000/6d0981827c637bb1bbd08d399b78d358-d.jpg,,
22342089,"Yen & Jaffe's Reproductive Endocrinology: Expert Consult - Online and Print, 6e",,Expert Consult Title: Online + Print,,"Jerome F. Strauss III MD  PhD, Robert L. Barbieri MD",2009,6,Saunders,,944,0,English,,,0,"141604907X,9781416049074",,,,,,,,,,,0,,,,,,,0,42634256,pdf,83b9aa9ba8fd76405dab96c02089c9fc,,,83b9aa9ba8fd76405dab96c02089c9fc.pdf,0,2000-01-01 01:00:00,2016-04-03 02:51:08,1053000/83b9aa9ba8fd76405dab96c02089c9fc-d.jpg,,
22342090,Stalingrad: The Infernal Cauldron,,,,Stephen Walsh,2000,,Simon & Schuster Ltd,,176,0,English,,,0,"0743209168,9780743209168",,,,,,,,,,,0,,,,,,,0,76330024,pdf,7a5a3ad855417f64cb5b515210bf1658,,,7a5a3ad855417f64cb5b515210bf1658.pdf,0,2000-01-01 01:00:00,2016-04-03 02:51:08,1053000/7a5a3ad855417f64cb5b515210bf1658-d.jpg,,
22342091,The Inflammasome: Methods and Protocols,,Methods in Molecular Biology,,"Christine M. De Nardo, Eicke Latz",2013,2013,Humana Press,,215,0,English,,,0,"1627035222,9781627035224",,,,,,,,,,,0,,,,,,,0,5254114,pdf,4d9545a1e92f33c1def1ad940b213963,,,4d9545a1e92f33c1def1ad940b213963.pdf,0,2000-01-01 01:00:00,2016-04-03 02:51:08,1053000/4d9545a1e92f33c1def1ad940b213963-d.jpg,,
22342092,William Harvey and the Mechanics of the Heart,,Oxford Portraits in Science,,Jole Shackelford,2003,1St Edition,"Oxford University Press, USA",,144,0,English,,,0,"0195120493,9780195120493",,,,,,,,,,,0,,,,,,,0,10888564,pdf,190430afb512bb9d4c23cda4c429110d,,,190430afb512bb9d4c23cda4c429110d.pdf,0,2000-01-01 01:00:00,2016-04-03 02:51:08,1053000/190430afb512bb9d4c23cda4c429110d-d.jpg,,
22342093,The Corpse Walker: Real Life Stories: China From the Bottom Up,,,,Liao Yiwu,2009,Reprint,Anchor,,352,0,English,,,0,"0307388379,9780307388377",,,,,,,,,,,0,,,,,,,,655500,mobi,7894411ced2f77315f53d84eeb4759c7,,,7894411ced2f77315f53d84eeb4759c7.mobi,0,2000-01-01 01:00:00,2016-04-03 02:51:08,1053000/7894411ced2f77315f53d84eeb4759c7-d.jpg,,
22342094,Fix Your Own Computer For Seniors For Dummies,,,,Corey Sandler,2009,1,For Dummies,,388,0,English,,,0,"0470500875,9780470500873",,,,,,,,,,,0,,,,,,,0,18470652,pdf,961f33c93a8122e917b75cc47d14151c,,,961f33c93a8122e917b75cc47d14151c.pdf,0,2000-01-01 01:00:00,2016-04-03 02:51:08,1053000/961f33c93a8122e917b75cc47d14151c-d.jpg,,
22342095,"Elizabeth's Women: Friends, Rivals, and Foes Who Shaped the Virgin Queen",,,,Tracy Borman,2010,,Bantam,,496,0,English,,,0,"055380698X,9780553806984",,,,,,,,,,,0,,,,,,,,6032707,mobi,3a204ec724ebfac6c0abd3962def6a68,,,3a204ec724ebfac6c0abd3962def6a68.mobi,0,2000-01-01 01:00:00,2016-04-03 02:51:08,1053000/3a204ec724ebfac6c0abd3962def6a68-d.jpg,,
22342096,Prebiotics: Development and Application,,,,"Bob Rastall, Glenn Gibson",2006,1,Wiley,,264,0,English,,,0,"0470023139,9780470023136",,,,,,,,,,,0,,,,,,,0,3982526,pdf,2645462d253b010da9dcc3622c749967,,,2645462d253b010da9dcc3622c749967.pdf,0,2000-01-01 01:00:00,2016-04-03 02:51:08,1053000/2645462d253b010da9dcc3622c749967-d.jpg,,
22342097,Практикум по математической статистике,,,,"Н. П. Алексеева, Т. М. Товстик",2002,,Издательство СПбГУ,Санкт-Петербург,122,0,Russian,,,0,5-87403-044-1,,,,,,,,,,,400,,,,,,,1,4507852,djvu,34b617a33c37e9afadbf4a5e7e301979,,,Практикум по математической статистике,0,2000-01-01 01:00:00,2016-04-03 02:51:08,1053000/34b617a33c37e9afadbf4a5e7e301979-g.jpg,,
22342098,"The Eudemian Ethics on the Voluntary, Friendship, and Luck: The Sixth S.V. Keeling Colloquium in Ancient Philosophy",,Philosophia Antiqua,,Fiona Leigh,2012,,Brill Academic Pub,,197,0,English,,,0,"9004225366,9789004225367",,,,,,,,,,,0,,,,,,,0,3886918,pdf,c51d8b28dbf20b33a9625bc4d4fa50a7,,,c51d8b28dbf20b33a9625bc4d4fa50a7.pdf,0,2000-01-01 01:00:00,2016-04-03 02:51:08,1053000/c51d8b28dbf20b33a9625bc4d4fa50a7-d.jpg,,
22342099,The Butler's Guide to Running the Home and Other Graces,,,,"Stanley Ager, Fiona St. Aubyn",2012,Reissue,Potter Style,,208,0,English,,,0,"9780385344708,9780385344708",,,,,,,,,,,0,,,,,,,,9340791,epub,3f6cace017c7868fd5fa09265d61c740,,,3f6cace017c7868fd5fa09265d61c740.epub,0,2000-01-01 01:00:00,2016-04-03 02:51:08,1053000/3f6cace017c7868fd5fa09265d61c740-d.jpg,,
22342100,Consumption as an Investment,,Routledge Studies in the History of Economics,,Cosimo Perrotta,2004,1,Routledge,,400,0,English,,,0,"0415306191,9780415306195",,,,,,,,,,,0,,,,,,,0,3347713,pdf,699eaf61aa3090c164d26e3024747e33,,,699eaf61aa3090c164d26e3024747e33.pdf,0,2000-01-01 01:00:00,2016-04-03 02:51:08,1053000/699eaf61aa3090c164d26e3024747e33-d.jpg,,
22342101,Alpine Skiing,,Outdoor Adventures Series,,Ronald Kipp,2011,1,Human Kinetics,,224,0,English,,,0,"0736083553,9780736083553",,,,,,,,,,,0,,,,,,,,36769208,epub,88f31809efbfb91feefc5361076e4af6,,,88f31809efbfb91feefc5361076e4af6.epub,0,2000-01-01 01:00:00,2016-04-03 02:51:08,1053000/88f31809efbfb91feefc5361076e4af6-d.jpg,,
22342102,Practical Raspberry Pi,,,,Brendan Horan,2013,1,Apress,,272,0,English,,,0,"1430249714,9781430249719",,,,,,,,,,,0,,,,,,,0,13436829,pdf,84ec7d1e42c8b7bc1c70aee73a45b7ed,,,84ec7d1e42c8b7bc1c70aee73a45b7ed.pdf,0,2000-01-01 01:00:00,2016-04-03 02:51:08,1053000/84ec7d1e42c8b7bc1c70aee73a45b7ed-d.jpg,,
22342103,Applied Spatial Data Analysis with R,,Use R!,,"Roger S. Bivand, Edzer Pebesma, Virgilio Gómez-Rubio",2013,2nd ed. 2013,Springer,,420,0,English,,,0,"1461476178,9781461476177",,,,,,,,,,,0,,,,,,,0,11490007,pdf,7b31d2cc74ad274b8ec004b282a60df4,,,7b31d2cc74ad274b8ec004b282a60df4.pdf,0,2000-01-01 01:00:00,2016-04-03 02:51:08,1053000/7b31d2cc74ad274b8ec004b282a60df4-d.jpg,,
22342104,Molecular and Cell Biology of Neuropsychiatric Diseases,,Molecular and Cell Biology of Human Diseases Series,,"F. Owen, Ruth Itzhaki",2012,Softcover reprint of the original 1st ed. 1994,Springer,,201,0,English,,,0,"9401043051,9789401043052",,,,,,,,,,,0,,,,,,,0,13394889,pdf,40951d45b4e472b0bb4af15d40dc258e,,,40951d45b4e472b0bb4af15d40dc258e.pdf,0,2000-01-01 01:00:00,2016-04-03 02:51:08,1053000/40951d45b4e472b0bb4af15d40dc258e-d.jpg,,
22342105,A Companion to Rock Art,,,,"Jo McDonald, Peter Veth",2012,1,Wiley-Blackwell,,714,0,English,,,0,"1444334247,9781444334241",,,,,,,,,,,0,,,,,,,0,8862879,pdf,97efbb912a3965b225490e4dadc3672a,,,97efbb912a3965b225490e4dadc3672a.pdf,0,2000-01-01 01:00:00,2016-04-03 02:51:08,1053000/97efbb912a3965b225490e4dadc3672a-d.jpg,,
22342106,Communication Protocol Engineering,,,,Miroslav Popovic,2006,1,CRC Press,,472,0,English,,,0,"0849398142,9780849398148",,,,,,,,,,,0,,,,,,,0,5673566,pdf,5007ae68aaa88b9b915a9a551ec4be9a,,,5007ae68aaa88b9b915a9a551ec4be9a.pdf,0,2000-01-01 01:00:00,2016-04-03 02:51:08,1053000/5007ae68aaa88b9b915a9a551ec4be9a-d.jpg,,
22342107,Java For Dummies,,,,Barry Burd,2011,5th,For Dummies,,432,0,English,,,0,"0470371730,9780470371732",,,,,,,,,,,0,,,,,,,,8855720,mobi,ad21b3faf24cfd95b4b3e3717abe00eb,,,ad21b3faf24cfd95b4b3e3717abe00eb.mobi,0,2000-01-01 01:00:00,2016-04-03 02:51:08,1053000/ad21b3faf24cfd95b4b3e3717abe00eb-d.jpg,,
22342108,The Orthodox Study Bible: Ancient Christianity Speaks to Today's World,,,,St. Athanasius Academy of Orthodox Theology,2008,,Thomas Nelson,,1856,0,English,,,0,"0718003594,9780718003593",,,,,,,,,,,0,,,,,,,,6979199,epub,9d5f52e77e66ccfdc289f306cd92e63c,,,9d5f52e77e66ccfdc289f306cd92e63c.epub,0,2000-01-01 01:00:00,2016-04-03 02:51:08,1053000/9d5f52e77e66ccfdc289f306cd92e63c-d.jpg,,
22342109,Von Willebrand Disease: Basic and Clinical Aspects,,,,"Augusto B. Federici, Christine A. Lee, Erik E. Berntorp, David Lillicrap, Robert R. Montgomery",2011,1,Wiley-Blackwell,,268,0,English,,,0,"1405195126,9781405195126",,,,,,,,,,,0,,,,,,,0,6336175,pdf,c26af1d0cfa382670be4e76a26aa8e16,,,c26af1d0cfa382670be4e76a26aa8e16.pdf,0,2000-01-01 01:00:00,2016-04-03 02:51:08,1053000/c26af1d0cfa382670be4e76a26aa8e16-d.jpg,,
22342110,The 'War on Terror' and the Framework of International Law,,,,Dr Helen Duffy,2005,,Cambridge University Press,,544,0,English,,,0,"0521838509,9780521838504",,,,,,,,,,,0,,,,,,,0,4880177,pdf,538913c4725f6ba21c2ddf6e5af7ff74,,,538913c4725f6ba21c2ddf6e5af7ff74.pdf,0,2000-01-01 01:00:00,2016-04-03 02:51:08,1053000/538913c4725f6ba21c2ddf6e5af7ff74-d.jpg,,
22342111,Inside the Publishing Revolution: The Adobe Story,,,,Pamela Pfiffner,2002,1,Adobe Press,,256,0,English,,,0,"0321115643,9780321115645",,,,,,,,,,,0,,,,,,,0,19391666,pdf,76a1fd451eecd62325f012fadb5563bf,,,76a1fd451eecd62325f012fadb5563bf.pdf,0,2000-01-01 01:00:00,2016-04-03 02:51:08,1053000/76a1fd451eecd62325f012fadb5563bf-d.jpg,,
22342112,Balkan and Eastern European Countries in the Midst of the Global Economic Crisis,,Contributions to Economics,,"Anastasios Karasavvoglou, Persefoni Polychronidou",2012,2013,Physica,,160,0,English,,,0,"3790828726,9783790828726",,,,,,,,,,,0,,,,,,,0,3237141,pdf,2c9451033b5be110a76c81013ddb9c9a,,,2c9451033b5be110a76c81013ddb9c9a.pdf,0,2000-01-01 01:00:00,2016-04-03 02:51:08,1053000/2c9451033b5be110a76c81013ddb9c9a-d.jpg,,
22342113,Psychology: Modules for Active Learning,,with Concept Modules with Note-Taking and Practice Exams Booklet,,"Dennis Coon, John O. Mitterer",2011,12,Cengage Learning,,864,0,English,,,0,"1111342849,9781111342845",,,,,,,,,,,0,,,,,,,0,60289913,pdf,eea4b72da26ea1f952a802e54c654ee4,,,eea4b72da26ea1f952a802e54c654ee4.pdf,0,2000-01-01 01:00:00,2016-04-03 02:51:08,1053000/eea4b72da26ea1f952a802e54c654ee4-d.jpg,,
22342114,Mobile WiMAX: Toward Broadband Wireless Metropolitan Area Networks,,Wireless Networks and Mobile Communications,,"Yan Zhang, Hsiao-Hwa Chen",2007,,Auerbach Publications,,472,0,English,,,0,"0849326249,9780849326240",,,,,,,,,,,0,,,,,,,0,11775266,pdf,d1e5bae96a269048a65b797add69c902,,,d1e5bae96a269048a65b797add69c902.pdf,0,2000-01-01 01:00:00,2016-04-03 02:51:08,1053000/d1e5bae96a269048a65b797add69c902-d.jpg,,
22342115,Progress and New Trends in 3D Geoinformation Sciences,,Lecture Notes in Geoinformation and Cartography,,"Jacynthe Pouliot, Sylvie Daniel, Frédéric Hubert, Alborz Zamyadi",2012,2013,Springer,,400,0,English,,,0,"3642297927,9783642297922",,,,,,,,,,,0,,,,,,,0,10444154,pdf,043c7fef4e8c299679571386a7412da3,,,043c7fef4e8c299679571386a7412da3.pdf,0,2000-01-01 01:00:00,2016-04-03 02:51:08,1053000/043c7fef4e8c299679571386a7412da3-d.jpg,,
22342116,"The mark inside : a perfect swindle, a cunning revenge, and a small history of the big con",,,,Amy Reading,2012,1,Knopf,,304,0,English,,,0,"0307272486,9780307272485,9780307957610",,,,,364.16'3—dc23,HV6695.R43 2012,,7Kz_ISIU-9kC,,,0,,,,,0,,,3663572,epub,9a0cddc55634508fd07f12672792713b,,,The Mark Inside,0,2000-01-01 01:00:00,2016-04-03 02:51:08,1053000/9a0cddc55634508fd07f12672792713b-d.jpg,,
22342117,Salinger,,,,"David Shields, Shane Salerno",2013,First Edition,Simon & Schuster,,720,0,English,,,0,"1476744831,9781476744834",,,,,,,,,,,0,,,,,,,,28969911,mobi,2bd51a1ad64bedf15407682dc4e2ca45,,,2bd51a1ad64bedf15407682dc4e2ca45.mobi,0,2000-01-01 01:00:00,2016-04-03 02:51:08,1053000/2bd51a1ad64bedf15407682dc4e2ca45-d.jpg,,
22342118,"Realm of Racket: Learn to Program, One Game at a Time!",,,,"Matthias Felleisen, Conrad Barski M.D., David Van Horn, Eight Students Northeastern University of",2013,,No Starch Press,,312,0,English,,,0,"1593274912,9781593274917",,,,,,,,,,,0,,,,,,,,9183369,epub,c247f1b848ea2947aa53da389bb0b8bf,,,c247f1b848ea2947aa53da389bb0b8bf.epub,0,2000-01-01 01:00:00,2016-04-03 02:51:08,1053000/c247f1b848ea2947aa53da389bb0b8bf-d.jpg,,
22342119,Marriage and Divorce in a Multicultural Context: Multi-Tiered Marriage and the Boundaries of Civil Law and Religion,,,,Professor Joel A. Nichols,2013,Reprint,Cambridge University Press,,418,0,English,,,0,"1107614368,9781107614369",,,,,,,,,,,0,,,,,,,0,3344441,pdf,22bc0a986a3968492cee71829ee01d93,,,22bc0a986a3968492cee71829ee01d93.pdf,0,2000-01-01 01:00:00,2016-04-03 02:51:08,1053000/22bc0a986a3968492cee71829ee01d93-d.jpg,,
22342120,Corona SDK Application Design,,,,Daniel Williams,2013,,Packt Publishing,,98,0,English,,,0,"1849697361,9781849697361",,,,,,,,,,,0,,,,,,,,1918330,epub,0f75395fa8d70182819d5f9f074b5b13,,,0f75395fa8d70182819d5f9f074b5b13.epub,0,2000-01-01 01:00:00,2016-04-03 02:51:08,1053000/0f75395fa8d70182819d5f9f074b5b13-d.jpg,,
22342121,The Weather Makers: Our Changing Climate and What It Means for Life on Earth,,,,Tim F. (Tim Fridtjof) Flannery,2007,New Ed,Penguin Books,,368,0,English,,,0,"0141026278,9780141026275",,,,,,,,,,,0,,,,,,,,6962100,epub,af22ef7c623291ed8119a5db9761e95a,,,af22ef7c623291ed8119a5db9761e95a.epub,0,2000-01-01 01:00:00,2016-04-03 02:51:08,1053000/af22ef7c623291ed8119a5db9761e95a-d.jpg,,
22342122,Kenya: A History Since Independence,,,,Charles Hornsby,2012,,I. B. Tauris,,976,0,English,64,,0,"1848858868,9781848858862",,,,,,,,,,,0,,,,1,,1,1,40190299,pdf,9e73ddbd744bfce4806238c841ad8dea,,,1848858868Kenya,0,2000-01-01 01:00:00,2016-04-03 02:51:08,1053000/9e73ddbd744bfce4806238c841ad8dea-d.jpg,,
22342123,Fundamentals of Logic Design,,,,"Jr.  Charles H. Roth, Larry L Kinney",2013,7,Cengage Learning,,816,0,English,,,0,"1133628478,9781133628477",,,,,,,,,,,0,,,,,,,0,25694546,pdf,f711c37e6bea880798353492c892f757,,,f711c37e6bea880798353492c892f757.pdf,0,2000-01-01 01:00:00,2016-04-03 02:51:08,1053000/f711c37e6bea880798353492c892f757-d.jpg,,
22342124,Easy Openwork Knit Tops,,,,Kennita Tully,2013,,Annie's,,32,0,English,,,0,"159635741X,9781596357419",,,,,,,,,,,0,,,,,,,0,10142526,pdf,7c29d29ea5ff60e5984551651635181b,,,7c29d29ea5ff60e5984551651635181b.pdf,0,2000-01-01 01:00:00,2016-04-03 02:51:08,1053000/7c29d29ea5ff60e5984551651635181b-d.jpg,,
22342125,"Influence from Abroad: Foreign Voices, the Media, and U.S. Public Opinion",,,,"Danny Hayes, Matt Guardino",2013,1,Cambridge University Press,,196,0,English,,,0,"110703552X,9781107035522",,,,,,,,,,,0,,,,,,,0,3940099,pdf,837c93de8c75b11f2732af1e7930acb5,,,837c93de8c75b11f2732af1e7930acb5.pdf,0,2000-01-01 01:00:00,2016-04-03 02:51:08,1053000/837c93de8c75b11f2732af1e7930acb5-d.jpg,,
22342126,The Companion to British History,,,,Charles Arnold-Baker,2001,2,CRC Press,,1408,0,English,,,0,"0415185831,9780415185837",,,,,,,,,,,0,,,,,,,0,13887152,pdf,4a4b667fbb08011c9351d9352ecf9b6b,,,4a4b667fbb08011c9351d9352ecf9b6b.pdf,0,2000-01-01 01:00:00,2016-04-03 02:51:08,1053000/4a4b667fbb08011c9351d9352ecf9b6b-d.jpg,,
22342127,Live Raw Around the World: International Raw Food Recipes for Good Health and Timeless Beauty,,,,Mimi Kirk,2013,1,Skyhorse Publishing,,224,0,English,,,0,"1620876132,9781620876138",,,,,,,,,,,0,,,,,,,,7068530,epub,6021bb4367704fae21d342a8253cc87c,,,6021bb4367704fae21d342a8253cc87c.epub,0,2000-01-01 01:00:00,2016-04-03 02:51:08,1053000/6021bb4367704fae21d342a8253cc87c-d.jpg,,
22342128,The User Experience Team of One,,,,Leah Buley,2013,1st,Rosenfeld Media,,264,0,English,,,0,"1933820187,9781933820187",,,,,,,,,,,0,,,,,,,,14755604,epub,8be5809330b7db0d46977cfab7cbd203,,,8be5809330b7db0d46977cfab7cbd203.epub,0,2000-01-01 01:00:00,2016-04-03 02:51:08,1053000/8be5809330b7db0d46977cfab7cbd203-d.jpg,,
22342129,Autodesk 3ds Max 2014 Essentials: Autodesk Official Press,,,,"Randi L. Derakhshani, Dariush Derakhshani",2013,1,Sybex,,416,0,English,,,0,"1118575148,9781118575147",,,,,,,,,,,0,,,,,,,,97348497,epub,f22befc4dbf7ab7be3a7c139a4ab5223,,,f22befc4dbf7ab7be3a7c139a4ab5223.epub,0,2000-01-01 01:00:00,2016-04-03 02:51:08,1053000/f22befc4dbf7ab7be3a7c139a4ab5223-d.jpg,,
22342130,Embrion ludzki - pytanie o status Human Embryo Status,,,Semina Scientiarum,Szymanski Lukasz,6 (2007),,,,20,0,Polish,,,0,,1644-3365,,,,,,,,,,0,0,,,1,0,,1,427249,pdf,d9e2d193c150831e4592d1dc1a7e0ce6,,,Embrion_ludzki_pytanie_o_status,0,2000-01-01 01:00:00,2016-04-03 02:51:08,1053000/d9e2d193c150831e4592d1dc1a7e0ce6-g.jpg,,
22342131,Grammatik-Turbo Englisch: 3 einfache Schritte zum kompletten Verb-Zeiten-System und seiner Verwendung,,German Edition,,Julia Evers,2012,,CreateSpace Independent Publishing Platform,,64,0,German,,,0,"1477698388,9781477698389",,,,,,,,,,,0,,,,,,,,3593886,epub,38a07f660e443661e7824824c4c38ed1,,,38a07f660e443661e7824824c4c38ed1.epub,0,2000-01-01 01:00:00,2016-04-03 02:51:08,1053000/38a07f660e443661e7824824c4c38ed1-d.jpg,,
22342132,Great Foundations: A 360-Degree Guide to Building Resilient and Effective Not-for-Profit Organisations,,,,Catherine J. Brown,2010,,ACER Press,,152,0,English,,,0,"0864318863,9780864318862",,,,,,,,,,,0,,,,,,,0,3340393,pdf,a1805ccd9282e99fe304eaca9bb996ac,,,a1805ccd9282e99fe304eaca9bb996ac.pdf,0,2000-01-01 01:00:00,2016-04-03 02:51:08,1053000/a1805ccd9282e99fe304eaca9bb996ac-d.jpg,,
22342133,A Pocket Guide to Business for Engineers and Surveyors,,,,H. Edmund Bergeron,2009,1,Wiley,,288,0,English,,,0,"0471758493,9780471758495",,,,,,,,,,,0,,,,,,,0,3377172,pdf,530c68390358365537dc655e41fe0c0d,,,530c68390358365537dc655e41fe0c0d.pdf,0,2000-01-01 01:00:00,2016-04-03 02:51:08,1053000/530c68390358365537dc655e41fe0c0d-d.jpg,,
22342134,The Vietnam War and Theologies of Memory: Time and Eternity in the Far Country,,Challenges in Contemporary Theology,,Jonathan Tran,2010,1,Wiley-Blackwell,,304,0,English,,,0,"1405183209,9781405183208",,,,,,,,,,,0,,,,,,,0,4397600,pdf,fd216a01831bc5555015f4c8304c3ec4,,,fd216a01831bc5555015f4c8304c3ec4.pdf,0,2000-01-01 01:00:00,2016-04-03 02:51:08,1053000/fd216a01831bc5555015f4c8304c3ec4-d.jpg,,
22342135,Learn Cocoa on the Mac,,,,"Jack Nutting, Peter Clark",2013,2,Apress,,424,0,English,,,0,"1430245425,9781430245421",,,,,,,,,,,0,,,,,,,0,19786971,pdf,69a5d6f19c2cd76b6a059c643c040cb5,,,69a5d6f19c2cd76b6a059c643c040cb5.pdf,0,2000-01-01 01:00:00,2016-04-03 02:51:08,1053000/69a5d6f19c2cd76b6a059c643c040cb5-d.jpg,,
22342136,Introduction to Random Signals and Applied Kalman Filtering with Matlab Exercises,,,,"Robert Grover Brown, Patrick Y. C. Hwang",2012,4,Wiley,,400,0,English,98,,0,"0470609699,9780470609699",,,,,,,,,,,0,,,,,,,0,4879002,pdf,19721278a2beba3cc0adbefd41e7de16,,,19721278a2beba3cc0adbefd41e7de16.pdf,0,2000-01-01 01:00:00,2016-04-03 02:51:08,1053000/19721278a2beba3cc0adbefd41e7de16-d.jpg,,
22342137,C A Software Engineering Approach,,,,"Peter A. Darnell, Philip E. Margolis",1996,3rd,Springer,,498,0,English,,,0,"0387946756,9780387946757",,,,,,,,,,,0,,,,,,,0,48320209,pdf,5f05aea7eb1d3ac6ef43fc3cda4da24e,,,5f05aea7eb1d3ac6ef43fc3cda4da24e.pdf,0,2000-01-01 01:00:00,2016-04-03 02:51:08,1053000/5f05aea7eb1d3ac6ef43fc3cda4da24e-d.jpg,,
22342138,A Course on Group Theory,,Dover Books on Mathematics,,John S. Rose,2012,1,Dover Publications,,320,0,English,,,0,"0486681947,9780486681948",,,,,,,,,,,0,,,,,,,,13062197,epub,198b2bbef00645afe99d5fbf149c02d6,,,198b2bbef00645afe99d5fbf149c02d6.epub,0,2000-01-01 01:00:00,2016-04-03 02:51:08,1053000/198b2bbef00645afe99d5fbf149c02d6-d.jpg,,
22342139,Principles of Computerized Tomographic Imaging,,Classics in Applied Mathematics,,"Aninash C. Kak, Malcolm Slaney",2001,,Society for Industrial and Applied Mathematics,,327,0,English,,,0,"089871494X,9780898714944",,,,,,,,,,,0,,,,,,,0,34768948,pdf,ca5ed71b8c7bfd9cdc6ddca1db0899c3,,,ca5ed71b8c7bfd9cdc6ddca1db0899c3.pdf,0,2000-01-01 01:00:00,2016-04-03 02:51:08,1053000/ca5ed71b8c7bfd9cdc6ddca1db0899c3-d.jpg,,
22342140,Sherlock Holmes in Babylon and Other Tales of Mathematical History,,Spectrum,,"Marlow Anderson, Victor Katz, Robin Wilson",2004,,The Mathematical Association of America,,398,0,English,,,0,"0883855461,9780883855461",,,,,,,,,,,0,,,,,,,0,7424575,pdf,82095f9d58ca7d4653e24e764364e842,,,82095f9d58ca7d4653e24e764364e842.pdf,0,2000-01-01 01:00:00,2016-04-03 02:51:08,1053000/82095f9d58ca7d4653e24e764364e842-d.jpg,,
22342141,Marked for Death: Islam's War Against the West and Me,,,,Geert Wilders,2012,,Regnery Publishing,,256,0,English,,,0,"1596987960,9781596987968",,,,,,,,,,,0,,,,,,,,626429,mobi,da7d41f5f27dad1d0ec42865d739153f,,,da7d41f5f27dad1d0ec42865d739153f.mobi,0,2000-01-01 01:00:00,2016-04-03 02:51:08,1053000/da7d41f5f27dad1d0ec42865d739153f-d.jpg,,
22342142,Geology of the Pacific Northwest: Investigate How the Earth Was Formed with 15 Projects,,Build It Yourself series,,Cynthia Light Brown,2011,,Nomad Press,,128,0,English,,,0,"1936313383,9781936313389",,,,,,,,,,,0,,,,,,,0,27006550,pdf,c9de06af6e743ab89f150e1c4faf53d5,,,c9de06af6e743ab89f150e1c4faf53d5.pdf,0,2000-01-01 01:00:00,2016-04-03 02:51:08,1053000/c9de06af6e743ab89f150e1c4faf53d5-d.jpg,,
22342143,Introduction to Set Theory,,Chapman & Hall/CRC Pure and Applied Mathematics,,"Karel Hrbacek, Thomas Jech",1999,3rd,Marcel Dekker,,310,0,English,,,0,"0824779150,9780824779153",,,,,,,,,,,0,,,,,,,0,10827155,pdf,0fae92de580a6e092998a100628d94bd,,,0fae92de580a6e092998a100628d94bd.pdf,0,2000-01-01 01:00:00,2016-04-03 02:51:08,1053000/0fae92de580a6e092998a100628d94bd-d.jpg,,
22342144,Baked Chicago's Simply Decadent Brownies Cookbook,,,,"Harvey Morris, Pamela Smith, Kat Riley",2012,1st,Baked Chicago,,70,0,English,,,0,"0615727425,9780615727424",,,,,,,,,,,0,,,,,,,,3404795,epub,b57106a2eb5af37762a31ca0e6ff7886,,,b57106a2eb5af37762a31ca0e6ff7886.epub,0,2000-01-01 01:00:00,2016-04-03 02:51:08,1053000/b57106a2eb5af37762a31ca0e6ff7886-d.jpg,,
22342145,Real Analysis with Economic Applications,,,,Efe A. Ok,2007,,Princeton University Press,,664,0,English,,,0,"0691117683,9780691117683",,,,,,,,,,,0,,,,,,,0,5239817,pdf,01707d44cf97d401bcce1754462b005f,,,01707d44cf97d401bcce1754462b005f.pdf,0,2000-01-01 01:00:00,2016-04-03 02:51:08,1053000/01707d44cf97d401bcce1754462b005f-d.jpg,,
22342146,"The Versatile Shed: How To Build, Renovate and Customize Your Bonus Space",,,,Chris Gleason,2012,,Betterway,,144,0,English,,,0,"1440319235,9781440319235",,,,,,,,,,,0,,,,,,,,13895521,epub,dc677cc9c96843d2129890081c19f7dc,,,dc677cc9c96843d2129890081c19f7dc.epub,0,2000-01-01 01:00:00,2016-04-03 02:51:08,1053000/dc677cc9c96843d2129890081c19f7dc-d.jpg,,
22342147,Software Testing as a Service,,,,Ashfaque Ahmed,2009,1,Auerbach Publications,,228,0,English,,,0,"1420099566,9781420099560",,,,,,,,,,,0,,,,,,,0,5136521,pdf,86e87bc443add161032632a63afe299a,,,86e87bc443add161032632a63afe299a.pdf,0,2000-01-01 01:00:00,2016-04-03 02:51:08,1053000/86e87bc443add161032632a63afe299a-d.jpg,,
22342148,Kolyma: the arctic death camps,,,,Robert Conquest,1979,,Oxford University Press,,256,0,English,,,0,"0192850911,9780192850911",,,,,,,,,,,0,,,,,1,0,0,7269671,pdf,105a2b718476b928baff439560c8505d,,,Kolyma_ the arctic death camps,0,2000-01-01 01:00:00,2016-04-03 02:51:08,1053000/105a2b718476b928baff439560c8505d-d.png,,
22342149,"Madagascar, 10th: The Bradt Travel Guide",,,,Hilary Bradt,2011,Tenth,Bradt Travel Guides,,448,0,English,,,0,"1841623415,9781841623412",,,,,,,,,,,0,,,,,,,,6600419,epub,42dddfcf71a90cb89b3d019949b6ce71,,,42dddfcf71a90cb89b3d019949b6ce71.epub,0,2000-01-01 01:00:00,2016-04-03 02:51:08,1053000/42dddfcf71a90cb89b3d019949b6ce71-d.jpg,,
22342150,River of Fire: The Clydebank Blitz,,,,John MacLeod,2011,Revised & Expanded,Birlinn Ltd,,352,0,English,,,0,"1841589683,9781841589688",,,,,,,,,,,0,,,,,,,,2456185,mobi,f58d30a2ff3e9f3bc3b30f126ba15e9b,,,f58d30a2ff3e9f3bc3b30f126ba15e9b.mobi,0,2000-01-01 01:00:00,2016-04-03 02:51:08,1053000/f58d30a2ff3e9f3bc3b30f126ba15e9b-d.jpg,,
22342151,Prosperity for all: consumer activism in an era of globalization,,,,Matthew Hilton,2009,1,Cornell University Press,,328,0,English,,,0,"0801446449, 9780801446443, 0801475074, 9780801475078, 0801461634, 9780801461637",,,,,381.3'4—dc22,HC79.C63H55 2009,,B-gLPZVAKfgC,,,0,,,,,0,1,1,12556365,pdf,14d238262a9bdb66ffd14123fd43ae68,,,Prosperity for all_ consumer activism in an era of globalization (2009),0,2000-01-01 01:00:00,2016-04-03 02:51:08,1053000/14d238262a9bdb66ffd14123fd43ae68-d.jpg,,
22342152,"Wiley CPA Examination Review 2013-2014, Problems and Solutions",,Wiley Cpa Examination Review Vol 2: Problems and Solutions) (Volume 2,,O. Ray Whittington,2013,Volume 2,Wiley,,1539,0,English,,,0,"1118583868,9781118583869",,,,,,,,,,,0,,,,,,,0,20985426,pdf,3b334157fab9faa112033e922c0b5609,,,3b334157fab9faa112033e922c0b5609.pdf,0,2000-01-01 01:00:00,2016-04-03 02:51:08,1053000/3b334157fab9faa112033e922c0b5609-d.jpg,,
22342153,A statistical history of the Korean war 1950–1953,,,,Micheal Clodfelter,1989,,Merriam Press,,31,0,English,67,,0,,,,,,,,,,,,0,,,,,1,0,0,19092229,pdf,8e1118dd90e733b025b8aeb7bd7a898a,,,A Statistical History of the Korean War 1950-1953,0,2000-01-01 01:00:00,2016-04-03 02:51:08,1053000/8e1118dd90e733b025b8aeb7bd7a898a-g.jpg,,
22342154,Greenhouse Technology and Management,,,,Nicolás Castilla,2013,2,CABI,,360,0,English,,,0,"1780641036,9781780641034",,,,,,,,,,,0,,,,,,,0,12581753,pdf,81e3f56c3b383653d107441625d3380a,,,81e3f56c3b383653d107441625d3380a.pdf,0,2000-01-01 01:00:00,2016-04-03 02:51:08,1053000/81e3f56c3b383653d107441625d3380a-d.jpg,,
22342155,Molecular Diagnostics: Promises and Possibilities,,,,"Mousumi Debnath, Godavarthi B.K.S. Prasad, Prakash S. Bisen",2010,2010,Springer,,541,0,English,,,0,",",,B008CN2IWA,,,,,,,,,0,,,,,,,0,6274538,pdf,e72ec2102050afc5229c69af980172fb,,,e72ec2102050afc5229c69af980172fb.pdf,0,2000-01-01 01:00:00,2016-04-03 02:51:08,1053000/e72ec2102050afc5229c69af980172fb-d.jpg,,
22342156,The Black Hole-Neutron Star Binary Merger in Full General Relativity: Dependence on Neutron Star Equations of State,,Springer Theses,,Koutarou Kyutoku,2013,2013,Springer,,142,0,English,,,0,"4431542000,9784431542001",,,,,,,,,,,0,,,,,,,0,4631406,pdf,a616a97464840c27d2f82a85acfe7f38,,,a616a97464840c27d2f82a85acfe7f38.pdf,0,2000-01-01 01:00:00,2016-04-03 02:51:08,1053000/a616a97464840c27d2f82a85acfe7f38-d.jpg,,
22342157,In Search of Pre-Exilic Israel: Proceedings of the Oxford Old Testament Seminar,,Journal for the Study of the Old Testament Supplement 406,,John Day,2004,,T. & T. Clark,,xvi+432,0,English,64,,0,"0567081966, 9780567081964",,,,,,,,yM_X2yzRLx4C,,,300,1,1,0,1,1,1,1,27690339,pdf,8b2c44769728708fb360106e1825feed,,,JSOTSupp406_Day_In Search of Pre-exilic Israel - Proceedings of the Oxford Old Testament Seminar,0,2000-01-01 01:00:00,2016-04-03 02:51:08,1053000/8b2c44769728708fb360106e1825feed-d.jpg,,
22342158,The Vitamins,,,,Gerald F. Combs  Jr.,2012,4th,Academic Press,,598,0,English,,,0,"0123819806,9780123819802",,,,,,,,,,,0,,,,,,,0,7556873,pdf,898b2f9204a0f05b3e92c48d671bfa3d,,,898b2f9204a0f05b3e92c48d671bfa3d.pdf,0,2000-01-01 01:00:00,2016-04-03 02:51:08,1053000/898b2f9204a0f05b3e92c48d671bfa3d-d.jpg,,
22342159,Fighting for MacArthur: The Navy and Marine Corps' Desperate Defense of the Phillipines,,,,IV John Gordon,,,,,0,0,English,,,0,"1612510620,9781612510620",,,,,,,,,,,0,,,,,,,0,5779582,pdf,44eb765f44246400bd61f733a02b82fb,,,44eb765f44246400bd61f733a02b82fb.pdf,0,2000-01-01 01:00:00,2016-04-03 02:51:08,1053000/44eb765f44246400bd61f733a02b82fb-g.jpg,,
22342160,The arena of everyday life,,Maushalt Publication,,"Carja Butijn, Johan van Ophem, Gerda Casimir",2013,,Wageningen Pers,,174,0,English,,,0,"9086862217,9789086862214",,,,,,,,,,,0,,,,,,,0,3712118,pdf,e153861e582a83cef1468c6401936750,,,e153861e582a83cef1468c6401936750.pdf,0,2000-01-01 01:00:00,2016-04-03 02:51:08,1053000/e153861e582a83cef1468c6401936750-d.jpg,,
22342161,The Colors of Clay: Special Techniques in Athenian Vases,,,,"Susan Lansing-Maish, Kenneth Lapatin, Jeffrey Maish, Joan R. Mertens, Marie Svoboda, Marion True, Dyfri Williams",2006,,The J. Paul Getty Museum,,385,0,English,66,,0,978-0-89236-571-5,,,,,,,,,,,0,,,,,,,0,43223112,pdf,6f9f16508d1c6aa7b2435317fb6c3d7d,,,COHEN The colors of clay,0,2000-01-01 01:00:00,2016-04-03 02:51:08,1053000/6f9f16508d1c6aa7b2435317fb6c3d7d-g.jpg,,
22342162,"Electrochemical Sensors, Biosensors and their Biomedical Applications",,,,"Xueji Zhang, Huangxian Ju, Joseph Wang",2007,1,Academic Press,,616,0,English,,,0,"0123737389,9780123737380",,,,,,,,,,,0,,,,,,,0,14998696,pdf,0b1e80e6b906836794081eeceefb74ea,,,0b1e80e6b906836794081eeceefb74ea.pdf,0,2000-01-01 01:00:00,2016-04-03 02:51:08,1053000/0b1e80e6b906836794081eeceefb74ea-d.jpg,,
22342163,A Piece of My Heart: The Stories of 26 American Women Who Served in Vietnam,,,,Keith Walker,1997,Reprint,Presidio Press,,400,0,English,,,0,"089141617X,9780891416173",,,,,,,,,,,0,,,,,,,,5847390,mobi,f0260cf51e2502160f061b80dc14d45f,,,f0260cf51e2502160f061b80dc14d45f.mobi,0,2000-01-01 01:00:00,2016-04-03 02:51:08,1053000/f0260cf51e2502160f061b80dc14d45f-d.jpg,,
22342164,SignalR: Real-time Application Development,,,,Einar Ingebrigtsen,2013,,Packt Publishing,,124,0,English,,,0,"1782164243,9781782164241",,,,,,,,,,,0,,,,,,,0,3118974,pdf,fc1a86686517edaa767d69c742faceeb,,,fc1a86686517edaa767d69c742faceeb.pdf,0,2000-01-01 01:00:00,2016-04-03 02:51:08,1053000/fc1a86686517edaa767d69c742faceeb-d.jpg,,
22342165,Biblical Interpretation in Judaism and Christianity,,Library of Hebrew Bible/Old Testament Studies 439,,"Isaac Kalimi, Peter J. Haas",2006,,Bloomsbury T&T Clark,,xiv+266,0,English,205,,0,"0567026825, 9780567026828",,,,,,,,h6bSc6ksh0YC,,,0,1,1,0,1,0,1,,3607024,pdf,fea40bb5dfea013c7ef8341c8842e610,,,JSOTSupp439_Kalimi_amp;Haas_Biblical Interpretation in Judaism and Christianity,0,2000-01-01 01:00:00,2016-04-03 02:51:08,1053000/fea40bb5dfea013c7ef8341c8842e610-d.jpg,,
22342166,Global Tourism,,,,William F. Theobald,2011,3,Routledge,,592,0,English,,,0,"0750677899,9780750677899",,,,,,,,,,,0,,,,,,,0,3195948,pdf,5965eb7bf544bedca6775d58881cdb57,,,5965eb7bf544bedca6775d58881cdb57.pdf,0,2000-01-01 01:00:00,2016-04-03 02:51:08,1053000/5965eb7bf544bedca6775d58881cdb57-d.jpg,,
22342167,Beginners Guide To Knitting Socks,,How to Knit,,"Chloe Thompson, Lilly Jones",2013,,Knitting Books,,99,0,English,,,0,",",,B00E9M0H3U,,,,,,,,,0,,,,,,,,1862438,epub,0608450a12f59e09451e2edacef9f8b5,,,0608450a12f59e09451e2edacef9f8b5.epub,0,2000-01-01 01:00:00,2016-04-03 02:51:08,1053000/0608450a12f59e09451e2edacef9f8b5-d.jpg,,
22342168,Pre-Hospital Paediatric Life Support: The Practical Approach,,,,Advanced Life Support Group,2005,2,BMJ Books,,240,0,English,,,0,"0727918524,9780727918529",,,,,,,,,,,0,,,,,,,0,4112014,pdf,a0c3e7bb264461ce2bb403bdb6923449,,,a0c3e7bb264461ce2bb403bdb6923449.pdf,0,2000-01-01 01:00:00,2016-04-03 02:51:08,1053000/a0c3e7bb264461ce2bb403bdb6923449-d.jpg,,
22342169,Homotopical Algebra: A Collection of Informal Reports and Seminars,,"Lecture Notes in Mathematics, Vol. 43",,Daniel G. Quillen,1967,1st,Springer-Verlag,,0,0,English,,,0,"0387039147,9780387039145",,,,,,,,,,,0,,,,,,,0,3980720,pdf,6da7d5945c6ad289c761326f1a672678,,,6da7d5945c6ad289c761326f1a672678.pdf,0,2000-01-01 01:00:00,2016-04-03 02:51:08,1053000/6da7d5945c6ad289c761326f1a672678-g.jpg,,
22342170,Aleister Crowley and Western Esotericism,,,,"Henrik Bogdan, Martin P. Starr",2012,,"Oxford University Press, USA",,432,0,English,,,0,"0199863091,9780199863099",,,,,,,,,,,0,,,,,,,0,5163325,pdf,475abe97caaf5ef106ceceea9ef250fe,,,475abe97caaf5ef106ceceea9ef250fe.pdf,0,2000-01-01 01:00:00,2016-04-03 02:51:08,1053000/475abe97caaf5ef106ceceea9ef250fe-d.jpg,,
22342171,Lady Sings the Blues the 50th Anniversary Edition,,Harlem Moon Classics,,"Billie Holiday, William Dufty, David Ritz",2006,50 Anv,Three Rivers Press,,256,0,English,,,0,"0767923863,9780767923866",,,,,,,,,,,0,,,,,,,,488683,mobi,1833db4c493cdb958b3d83c0607dfcfe,,,1833db4c493cdb958b3d83c0607dfcfe.mobi,0,2000-01-01 01:00:00,2016-04-03 02:51:08,1053000/1833db4c493cdb958b3d83c0607dfcfe-d.jpg,,
22342172,Disability Studies and the Hebrew Bible: Figuring Mephibosheth in the David Story,,Library of Hebrew Bible/Old Testament Studies 441,,Jeremy Schipper,2006,,T&T Clark,,x+158,0,English,205,,0,"0567027821, 9780567027825",,,,,,,,RCNJ1CHI6nMC,,,0,1,1,0,1,0,1,,2869986,pdf,cf83aa7c20c4fe098dea0fa01635068f,,,JSOTSupp441_Schipper_Disability Studies and the Hebrew Bible - Figuring Mephibosheth in the David Story,0,2000-01-01 01:00:00,2016-04-03 02:51:08,1053000/cf83aa7c20c4fe098dea0fa01635068f-d.jpg,,
22342173,"The Anti-Inflammatory Diet Plan: Your Guide to Beating Inflammation and Pain for Optimal Health, FAST! Includes a Month of Delicious Recipes to Protect your Family from Disease and Allergies",,,,Robert M Fleischer,2013,,CreateSpace Independent Publishing Platform,,146,0,English,,,0,"1491010312,9781491010310",,,,,,,,,,,0,,,,,,,0,3048365,pdf,01cb56c03a1040b93b244d750a4e3353,,,01cb56c03a1040b93b244d750a4e3353.pdf,0,2000-01-01 01:00:00,2016-04-03 02:51:08,1053000/01cb56c03a1040b93b244d750a4e3353-d.jpg,,
22342174,L'Épire de la mort de Pyrrhos à la conquête romaine (272 - 167 av. J.C.),,,,Pierre Cabanes,1976,,Presses Univ. Franche-Comté,,644,0,French,,,0,,,,,,,,,,,,0,,,,,,,1,24770032,pdf,257a03f3e79f8e1a079061026a5146ca,,,Cabanes P. - L_Epire de la mort de Pyrrhos...,0,2000-01-01 01:00:00,2016-04-03 02:51:08,1053000/257a03f3e79f8e1a079061026a5146ca-g.jpg,,
22342175,Biblical Corpora: Representations of Disability in Hebrew Biblical Literature,,Library of Hebrew Bible/Old Testament Studies 445,,Rebecca Raphael,2008,,Bloomsbury T&T Clark,,xii+154,0,English,205,,0,"056702802X, 9780567028020",,,,,,,,,,,0,1,1,0,1,0,1,,2184359,pdf,b5fa2c5004e1623149226ba2bc0ad959,,,JSOTSupp445_Raphael_Biblical Corpora - Representations of Disability in Hebrew Biblical Literature,0,2000-01-01 01:00:00,2016-04-03 02:51:08,1053000/b5fa2c5004e1623149226ba2bc0ad959-d.jpg,,
22342176,Vision on Fire: Emma Goldman on the Spanish Revolution,,,,"Emma Goldman, David Porter",2006,2nd,AK Press,,347,0,English,,,0,"1904859577,9781904859574",,,,,,,,,,,0,,,,,,,0,31219418,pdf,ae8289224325ba6b5a19ffa15afa8d9d,,,ae8289224325ba6b5a19ffa15afa8d9d.pdf,0,2000-01-01 01:00:00,2016-04-03 02:51:08,1053000/ae8289224325ba6b5a19ffa15afa8d9d-d.jpg,,
22342177,Formation and Structure of Human Hair,,Experientia Supplementum,,"P. Jolles, H. Zahn",2011,Softcover reprint of the original 1st ed. 1997,Birkhäuser,,280,0,English,,,0,"3034899513,9783034899512",,,,,,,,,,,0,,,,,,,0,8941971,pdf,f49361b3dc2f35c56f9729f28052cd24,,,f49361b3dc2f35c56f9729f28052cd24.pdf,0,2000-01-01 01:00:00,2016-04-03 02:51:08,1053000/f49361b3dc2f35c56f9729f28052cd24-d.jpg,,
22342178,"Differential algebraic groups, Volume 114",,Pure and Applied Mathematics,,Author Unknown,1985,1St Edition,Academic Press,,271,0,English,,,0,"0124176402,9780124176409",,,,,,,,,,,0,,,,,,,0,11071933,pdf,d674b844b20b2042ebd6664dc05d2127,,,d674b844b20b2042ebd6664dc05d2127.pdf,0,2000-01-01 01:00:00,2016-04-03 02:51:08,1053000/d674b844b20b2042ebd6664dc05d2127-d.jpg,,
22342179,Fungal Biology,,,,J. W. Deacon,2005,4,Wiley-Blackwell,,384,0,English,,,0,"1405130660,9781405130660",,,,,,,,,,,0,,,,,,,0,13125124,pdf,2e2e81eac4456a1e1885aa48cdce2c85,,,2e2e81eac4456a1e1885aa48cdce2c85.pdf,0,2000-01-01 01:00:00,2016-04-03 02:51:08,1053000/2e2e81eac4456a1e1885aa48cdce2c85-d.jpg,,
22342180,Wire Art Jewelry Workshop: Step-by-Step Techniques and Projects,,,,Sharilyn Miller,2011,Pap/DVD,Interweave,,160,0,English,,,0,"1596684089,9781596684089",,,,,,,,,,,0,,,,,,,0,27529222,pdf,ad32fa703978ab16035881785fdaed68,,,ad32fa703978ab16035881785fdaed68.pdf,0,2000-01-01 01:00:00,2016-04-03 02:51:08,1053000/ad32fa703978ab16035881785fdaed68-d.jpg,,
22342181,CiviCRM Cookbook,,,,Tony Horrocks,2013,,Packt Publishing,,236,0,English,,,0,"1782160442,9781782160441",,,,,,,,,,,0,,,,,,,0,6387037,pdf,ea84160facf760aa81d34181a9e3cb5c,,,ea84160facf760aa81d34181a9e3cb5c.pdf,0,2000-01-01 01:00:00,2016-04-03 02:51:08,1053000/ea84160facf760aa81d34181a9e3cb5c-d.jpg,,
22342182,Thai Cooking Made Easy: Delectable Thai Meals in Minutes,,Learn to Cook Series,,Periplus Editors,2005,SPI,Periplus Editions (HK) ltd.,,96,0,English,,,0,"0794601561,9780794601560",,,,,,,,,,,0,,,,,,,0,21238426,pdf,0325c77d9f766e671dbaef5374dd4309,,,0325c77d9f766e671dbaef5374dd4309.pdf,0,2000-01-01 01:00:00,2016-04-03 02:51:08,1053000/0325c77d9f766e671dbaef5374dd4309-d.jpg,,
22342183,Forgotten Voices of Dunkirk,,,,"Joshua Levine, Peter Snow",2010,,Ebury Press,,320,0,English,,,0,"0091932203,9780091932206",,,,,,,,,,,0,,,,,,,,6331926,mobi,d6e06f0c342c7a26f8bd23676c289390,,,d6e06f0c342c7a26f8bd23676c289390.mobi,0,2000-01-01 01:00:00,2016-04-03 02:51:08,1053000/d6e06f0c342c7a26f8bd23676c289390-d.jpg,,
22342184,Being Peace,,,,Thich Nhat Hanh,2005,,,,118,0,English,,,0,,,,,,,,,,,,0,,,,,,,1,826912,pdf,346e98fe0673b429e2bca891eb63a428,,,Being Peace,0,2000-01-01 01:00:00,2016-04-03 02:51:08,1053000/346e98fe0673b429e2bca891eb63a428-g.jpg,,
22342185,"A Communion of Subjects: Animals in Religion, Science, and Ethics",,,,Paul Waldau,2006,,Columbia University Press,,720,0,English,,,0,"0231136420,9780231136426",,,,,,,,,,,0,,,,,,,0,10160592,pdf,489bc9bee6dd349a923dd78fa25fe946,,,489bc9bee6dd349a923dd78fa25fe946.pdf,0,2000-01-01 01:00:00,2016-04-03 02:51:08,1053000/489bc9bee6dd349a923dd78fa25fe946-d.jpg,,
22342186,Troubleshooting SQL Server - A Guide for the Accidental DBA,,,,"Jonathan Kehayias, Ted Krueger",2011,,Red gate books,,370,0,English,76,,0,"1906434786,9781906434786",,,,,,,,,,,0,,,,,,,0,2172128,pdf,105ef31bf768a7ca58db0a48dde4bffd,,,105ef31bf768a7ca58db0a48dde4bffd.pdf,0,2000-01-01 01:00:00,2016-04-03 02:51:08,1053000/105ef31bf768a7ca58db0a48dde4bffd-d.jpg,,
22342187,Uprooting and Planting: Essays on Jeremiah for Leslie Allen,,Library of Hebrew Bible/Old Testament Studies 459,,John Goldingay,2007,,T&T Clark,,xii+378,0,English,205,,0,"0567029522, 9780567029522",,,,,,,,kJFz5BpO4tYC,,,300,1,1,0,1,1,1,1,21646549,pdf,7096a08b5e6f49517926da70b4dbf231,,,JSOTSupp459_Goldingay_Uprooting and Planting - Essays on Jeremiah for Leslie Allen,0,2000-01-01 01:00:00,2016-04-03 02:51:08,1053000/7096a08b5e6f49517926da70b4dbf231-d.jpg,,
22342188,A Primer on Statistical Distributions,,,,"N. Balakrishnan, V. B. Nevzorov",2003,1,Wiley-Interscience,,328,0,English,,,0,"0471427985,9780471427988",,,,,,,,,,,0,,,,,,,0,8032234,pdf,b59c21f0b9f1bbb337794bafc58f5b2c,,,b59c21f0b9f1bbb337794bafc58f5b2c.pdf,0,2000-01-01 01:00:00,2016-04-03 02:51:08,1053000/b59c21f0b9f1bbb337794bafc58f5b2c-d.jpg,,
22342189,Η αυγή του ελληνικού καπιταλισμού,,,,Σεραφείμ Μάξιμος,1973,Τρίτη Έκδοση,Στοχαστής,,186,0,Greek,,,0,,,,,,,,,,,,600,,,0,,1,0,0,7468668,pdf,138516e3abd6addd903c226f7d276473,,,H_aygh_toy_ellhnikoy_kapitalismoy,0,2000-01-01 01:00:00,2016-04-03 02:51:08,1053000/138516e3abd6addd903c226f7d276473-g.jpg,,
22342190,Η αυγή του ελληνικού καπιταλισμού,,,,Σεραφείμ Μάξιμος,1973,Τρίτη Έκδοση,Στοχαστής,,186,0,Greek,,,0,,,,,,,,,,,,600,,,0,,1,0,0,3247156,djvu,85bb45857898588b5424d1850361b521,,,H_aygh_toy_ellhnikoy_kapitalismoy,0,2000-01-01 01:00:00,2016-04-03 02:51:08,1053000/85bb45857898588b5424d1850361b521-g.jpg,,
22342191,Design For How People Learn,,Voices That Matter,,Julie Dirksen,2011,1,New Riders,,272,0,English,,,0,"0321768434,9780321768438",,,,,,,,,,,0,,,,,,,,18105295,mobi,27ff9e83dc15b6b7ef644e7d76a481b9,,,27ff9e83dc15b6b7ef644e7d76a481b9.mobi,0,2000-01-01 01:00:00,2016-04-03 02:51:08,1053000/27ff9e83dc15b6b7ef644e7d76a481b9-d.jpg,,
22342192,Crystal Structures: Lattices and Solids in Stereoview,,Horwood Series in Chemical Science,,Mark Ladd,1999,,Woodhead Publishing,,192,0,English,,,0,"1898563632,9781898563631",,,,,,,,,,,0,,,,,,,0,22821485,pdf,27aeeca8276633ce314b9c819f2ea750,,,27aeeca8276633ce314b9c819f2ea750.pdf,0,2000-01-01 01:00:00,2016-04-03 02:51:08,1053000/27aeeca8276633ce314b9c819f2ea750-d.jpg,,
22342193,Lily Chin's Crochet Tips & Tricks: Shortcuts and Techniques Every Crocheter Should Know,,,,Lily Chin,2009,,Potter Craft,,208,0,English,,,0,"0307461068,9780307461063",,,,,,,,,,,0,,,,,,,,15321435,epub,289dce170a72c18cf50819aad25332a4,,,289dce170a72c18cf50819aad25332a4.epub,0,2000-01-01 01:00:00,2016-04-03 02:51:08,1053000/289dce170a72c18cf50819aad25332a4-d.jpg,,
22342194,Plato: A Very Short Introduction,,,,Julia Annas,2003,,Oxford University Press,,120,0,English,,,0,"019280216X,9780192802163",,,,,,,,,,,0,,,,,,,0,3312331,pdf,fefcb1ec0dbf86a8f151d99309bbd4b1,,,fefcb1ec0dbf86a8f151d99309bbd4b1.pdf,0,2000-01-01 01:00:00,2016-04-03 02:51:08,1053000/fefcb1ec0dbf86a8f151d99309bbd4b1-d.jpg,,
22342195,"Greed, Lust and Gender: A History of Economic Ideas",,,,Nancy Folbre,2010,,"Oxford University Press, USA",,304,0,English,,,0,"0199238421,9780199238422",,,,,,,,,,,0,,,,,,,0,4349665,pdf,5e8053e155790398617d5cb18bdb2cf1,,,5e8053e155790398617d5cb18bdb2cf1.pdf,0,2000-01-01 01:00:00,2016-04-03 02:51:08,1053000/5e8053e155790398617d5cb18bdb2cf1-d.jpg,,
22342196,Woodimals: Creative Animal Puzzles for the Scroll Saw,,ScrollSaw Woodworking & Crafts Books,,Jim Sweet,2012,,Fox Chapel Publishing,,64,0,English,,,0,"156523748X,9781565237483",,,,,,,,,,,0,,,,,,,0,3211106,pdf,3899288620364ccc57548ff6c08ad24c,,,3899288620364ccc57548ff6c08ad24c.pdf,0,2000-01-01 01:00:00,2016-04-03 02:51:08,1053000/3899288620364ccc57548ff6c08ad24c-d.jpg,,
22342197,"Chemical Dynamics in Condensed Phases: Relaxation, Transfer, and Reactions in Condensed Molecular Systems",,Oxford Graduate Texts,,Abraham Nitzan,2006,,"Oxford University Press, USA",,744,0,English,,,0,"0198529791,9780198529798",,,,,,,,,,,0,,,,,,,0,10758807,pdf,83bdf0b660b8196cb85f44bcecf147ec,,,83bdf0b660b8196cb85f44bcecf147ec.pdf,0,2000-01-01 01:00:00,2016-04-03 02:51:08,1053000/83bdf0b660b8196cb85f44bcecf147ec-d.jpg,,
22342198,Mechanical Vibrations and Shocks: Mechanical Shock v. 2,,Mechanical vibration & shock,,Christian Lalanne,2002,,Kogan Page Science,,320,0,English,,,0,"190399604X,9781903996041",,,,,,,,,,,0,,,,,,,0,11166311,pdf,ea24d5c2b82c887ba402970979775c31,,,ea24d5c2b82c887ba402970979775c31.pdf,0,2000-01-01 01:00:00,2016-04-03 02:51:08,1053000/ea24d5c2b82c887ba402970979775c31-d.jpg,,
22342199,ZeroMQ,,,,Faruk Akgul,2013,,Packt Publishing,,108,0,English,,,0,"178216104X,9781782161042",,,,,,,,,,,0,,,,,,,,714964,epub,39998c12c1303f2749bde9791f80e3c9,,,39998c12c1303f2749bde9791f80e3c9.epub,0,2000-01-01 01:00:00,2016-04-03 02:51:08,1053000/39998c12c1303f2749bde9791f80e3c9-d.jpg,,
22342200,The Ancient Future of the Itza: The Book of Chilam Balam of Tizimin,,Texas Pan American Series,,Munro S. Edmonson,1982,1st,Univ of Texas Pr,,220,0,English,,,0,"0292703538,9780292703537",,,,,,,,,,,0,,,,,,,1,4536872,pdf,173e7fefaeb46f3750b81b88942e86c3,,,1982-Edmunson - The ancient future of the itza The book of chilam balam of Tizimin,0,2000-01-01 01:00:00,2016-04-03 02:51:08,1053000/173e7fefaeb46f3750b81b88942e86c3-d.jpg,,
22342201,The New New Rules: A Funny Look at How Everybody but Me Has Their Head Up Their Ass,,,,Bill Maher,2011,First Edition,Blue Rider Press,,368,0,English,,,0,"0399158413,9780399158414",,,,,,,,,,,0,,,,,,,,4545017,epub,ea933ad59670100b58fdd1312cc0c5e2,,,ea933ad59670100b58fdd1312cc0c5e2.epub,0,2000-01-01 01:00:00,2016-04-03 02:51:08,1053000/ea933ad59670100b58fdd1312cc0c5e2-d.jpg,,
22342202,Tools for Collaborative Decision-Making,,FOCUS Series,,Pascale Zaraté,2013,1,Wiley-ISTE,,128,0,English,,,0,"1848215169,9781848215160",,,,,,,,,,,0,,,,,,,0,3951797,pdf,fb600fd002f7c0b4dd90a4a9e8a64669,,,fb600fd002f7c0b4dd90a4a9e8a64669.pdf,0,2000-01-01 01:00:00,2016-04-03 02:51:08,1053000/fb600fd002f7c0b4dd90a4a9e8a64669-d.jpg,,
22342203,"Mathletics: How Gamblers, Managers, and Sports Enthusiasts Use Mathematics in Baseball, Basketball, and Football",,,,Wayne L. Winston,2009,First Edition,Princeton University Press,,376,0,English,,,0,"069113913X,9780691139135",,,,,,,,,,,0,,,,,,,0,3211682,pdf,5250e1d128d8ee596dd1c7a425b9429a,,,5250e1d128d8ee596dd1c7a425b9429a.pdf,0,2000-01-01 01:00:00,2016-04-03 02:51:08,1053000/5250e1d128d8ee596dd1c7a425b9429a-d.jpg,,
22342204,Chinnamasta: The Aweful Buddhist & Hindu Tantri Goddess,,Buddhist Traditions,,Elisabeth Anne Benard,2010,1st,Montilal Banarsidass,,184,0,English,,,0,"8120810651,9788120810655",,,,,,,,,,,0,,,,,,,1,5929442,pdf,0145bd2ae8a971f48e1ba0ffa1e2462b,,,Elisabeth Anne Benard - Chinnamasta [Revised],0,2000-01-01 01:00:00,2016-04-03 02:51:08,1053000/0145bd2ae8a971f48e1ba0ffa1e2462b-d.jpg,,
22342205,Paleolithic Diet: Digging Deeper In To The Original Human Diet and Paleo Recipes,,,,"Lindsay Sullivan, Bill Summers",2013,,CreateSpace Independent Publishing Platform,,312,0,English,,,0,"149124528X,9781491245286",,,,,,,,,,,0,,,,,,,,1497674,mobi,80f1fd20927090f4fc789bb675f4fe15,,,80f1fd20927090f4fc789bb675f4fe15.mobi,0,2000-01-01 01:00:00,2016-04-03 02:51:08,1053000/80f1fd20927090f4fc789bb675f4fe15-d.jpg,,
22342206,Linear and Quasi-linear Equations of Parabolic Type,23,Translations of Mathematical Monographs,,"Ladyženskaja, O. A.; Solonnikov, V. A.; Uralʹceva, N. N.",1968,reprint,American Mathematical Society,"Providence, R.I.",xi+648,0,English,125,,0,"0821886533, 9780821886533",,,,,,68019440,,dolUcRSDPgkC,,,0,0,,,,1,0,0,14007884,djvu,3f5ecfb2c07566f7365f4b48f40e5b8b,,,test,0,2000-01-01 01:00:00,2016-04-03 02:51:08,1053000/3f5ecfb2c07566f7365f4b48f40e5b8b-d.jpg,,
22342207,Sock Monkey Kama Sutra: Tantric Sex Positions for Your Naughty Little Monkey,,,,Vatsyayana Banana,2013,,Adams Media,,96,0,English,,,0,"144055451X,9781440554513",,,,,,,,,,,0,,,,,,,,2394197,mobi,ccbf8b9dd8ead06e6e6825008337b681,,,ccbf8b9dd8ead06e6e6825008337b681.mobi,0,2000-01-01 01:00:00,2016-04-03 02:51:08,1053000/ccbf8b9dd8ead06e6e6825008337b681-d.jpg,,
22342208,Beyond Smoke and Mirrors: Climate Change and Energy in the 21st Century,,,,Dr Burton Richter,2010,1,Cambridge University Press,,244,0,English,,,0,"0521763843,9780521763844",,,,,,,,,,,0,,,,,,,0,3491334,pdf,e6e3bb5c7c386555bca7e5996557482f,,,e6e3bb5c7c386555bca7e5996557482f.pdf,0,2000-01-01 01:00:00,2016-04-03 02:51:08,1053000/e6e3bb5c7c386555bca7e5996557482f-d.jpg,,
22342209,"Creative Portrait Photography: Tips and Ideas on Photographing People, Women, Children, Couples and More! A Complete Guide on How to Photograph People",,,,Stephen Hockman,2013,,,,107,0,English,,,0,",",,B00D8DYNGI,,,,,,,,,0,,,,,,,,2269233,epub,44b60ad966dac5ee60b14048acc6c282,,,44b60ad966dac5ee60b14048acc6c282.epub,0,2000-01-01 01:00:00,2016-04-03 02:51:08,1053000/44b60ad966dac5ee60b14048acc6c282-d.jpg,,
22342210,Religion in Roman Britain,,,,"Mr Martin Henig, Martin Henig",1995,Reissue,Routledge,,264,0,English,,,0,"0713460474,9780713460476",,,,,,,,,,,0,,,,,,,0,8019766,pdf,af3d8cc6ae8f5e3a75b300f8a942a8b8,,,af3d8cc6ae8f5e3a75b300f8a942a8b8.pdf,0,2000-01-01 01:00:00,2016-04-03 02:51:08,1053000/af3d8cc6ae8f5e3a75b300f8a942a8b8-d.jpg,,
22342211,FlexRay and its Applications: Real Time Multiplexed Network,,,,Dominique Paret,2012,2,Wiley,,256,0,English,,,0,"1119979560,9781119979562",,,,,,,,,,,0,,,,,,,0,4507671,pdf,7c531130c13111d3ea48f8bb17f6b755,,,7c531130c13111d3ea48f8bb17f6b755.pdf,0,2000-01-01 01:00:00,2016-04-03 02:51:08,1053000/7c531130c13111d3ea48f8bb17f6b755-d.jpg,,
22342212,"The Quest: Energy, Security, and the Remaking of the Modern World",,,,Daniel Yergin,2011,1st Edition,Penguin Press,,816,0,English,,,0,"1594202834,9781594202834",,,,,,,,,,,0,,,,,,,,3646960,mobi,e3b9c7953df99fa8a18787f0581d7033,,,e3b9c7953df99fa8a18787f0581d7033.mobi,0,2000-01-01 01:00:00,2016-04-03 02:51:08,1053000/e3b9c7953df99fa8a18787f0581d7033-d.jpg,,
22342213,Multithreading Applications in Win32: The Complete Guide to Threads,,,,"Jim Beveridge, Robert Wiener",1996,,Addison-Wesley Professional,,400,0,English,,,0,"0201442345,9780201442342",,,,,,,,,,,0,,,,,,,0,24072958,pdf,b25b6f8dfae2ca39833cdb75a2fb684b,,,b25b6f8dfae2ca39833cdb75a2fb684b.pdf,0,2000-01-01 01:00:00,2016-04-03 02:51:08,1053000/b25b6f8dfae2ca39833cdb75a2fb684b-d.jpg,,
