22401213,Physiology of Mollusca. Volume I,,,,Karl M. Wilbur and C. M. Yonge (Eds.),1964,,,,473,0,English,,,,978-1-4832-3241-6,,,,,,,,,,,0,,,,,,,1,9519420,pdf,51f1261b4f86425536ff9040bcdf4c6a,,,A:\\sciencedirect_books\\9781483232416 (22).pdf,0,2000-01-01 01:00:00,2016-04-03 02:51:08,1112000/51f1261b4f86425536ff9040bcdf4c6a-d.gif,,
22401214,Physiology of Mollusca. Volume II,,,,Karl M. Wilbur and C. M. Yonge (Eds.),1966,,,,647,0,English,,,,978-1-4832-3242-3,,,,,,,,,,,0,,,,,,,1,11560903,pdf,76dcdbfe81d7a6531d3bda4f8447007a,,,A:\\sciencedirect_books\\9781483232423 (24).pdf,0,2000-01-01 01:00:00,2016-04-03 02:51:08,1112000/76dcdbfe81d7a6531d3bda4f8447007a-d.gif,,
22401215,Plant Biochemistry,,,,James Bonner and J. E. Varner (Eds.),1965,,,,1049,0,English,,,,978-1-4832-3243-0,,,,,,,,,,,0,,,,,,,1,31200178,pdf,c45c687f28089f121eb2cfa3542a9cdf,,,A:\\sciencedirect_books\\9781483232430 (42).pdf,0,2000-01-01 01:00:00,2016-04-03 02:51:08,1112000/c45c687f28089f121eb2cfa3542a9cdf-d.gif,,
22401216,Pleuropneumonia-Like Organisms (PPLO): Mycoplasmataceae,,,,E. Klieneberger-Nobel (Auth.),1961,,,,156,0,English,,,,978-1-4832-3244-7,,,,,,,,,,,0,,,,,,,1,7369917,pdf,4e695761ed4ef3897edf7fd3f50dc2af,,,A:\\sciencedirect_books\\9781483232447 (17).pdf,0,2000-01-01 01:00:00,2016-04-03 02:51:08,1112000/4e695761ed4ef3897edf7fd3f50dc2af-d.gif,,
22401217,Polymer Fractionation,,,,Manfred J. R. Cantow (Eds.),1967,,,,525,0,English,,,,978-1-4832-3245-4,,,,,,,,,,,0,,,,,,,1,9648099,pdf,4628cefc4bdc3381d36f78d639ddb3d6,,,A:\\sciencedirect_books\\9781483232454 (22).pdf,0,2000-01-01 01:00:00,2016-04-03 02:51:08,1112000/4628cefc4bdc3381d36f78d639ddb3d6-d.gif,,
22401218,Positronium Chemistry,,,,James Green and John C. Lee (Auth.),1964,,,,111,0,English,,,,978-1-4832-3246-1,,,,,,,,,,,0,,,,,,,1,4582233,pdf,994dcf1847874fa91041a40face6a2cb,,,A:\\sciencedirect_books\\9781483232461 (14).pdf,0,2000-01-01 01:00:00,2016-04-03 02:51:08,1112000/994dcf1847874fa91041a40face6a2cb-d.gif,,
22401219,Practical Heterocyclic Chemistry,,,,A. O. Fitton and R. K. Smalley (Auth.),1968,,,,150,0,English,,,,978-1-4832-3247-8,,,,,,,,,,,0,,,,,,,1,4872964,pdf,75159385880c8459aef08c3fe1b27bbc,,,A:\\sciencedirect_books\\9781483232478 (15).pdf,0,2000-01-01 01:00:00,2016-04-03 02:51:08,1112000/75159385880c8459aef08c3fe1b27bbc-d.gif,,
22401220,Principles of Ophthalmology,,,,Thomson Henderson (Auth.),1950,,,,239,0,English,,,,978-1-4832-3248-5,,,,,,,,,,,0,,,,,,,1,7726960,pdf,69bb64beb508ebbe314dfe760162001f,,,A:\\sciencedirect_books\\9781483232485 (12).pdf,0,2000-01-01 01:00:00,2016-04-03 02:51:08,1112000/69bb64beb508ebbe314dfe760162001f-d.gif,,
22401221,Principles of Ophthalmology,,,,H. E. Hobbs (Auth.),1965,,,,268,0,English,,,,978-1-4832-3249-2,,,,,,,,,,,0,,,,,,,1,11738951,pdf,80174b72e937f8755fb13dee612dd8fa,,,A:\\sciencedirect_books\\9781483232492 (25).pdf,0,2000-01-01 01:00:00,2016-04-03 02:51:08,1112000/80174b72e937f8755fb13dee612dd8fa-d.gif,,
22401222,Principles of Regeneration,,,,Richard J. Goss (Auth.),1969,,,,292,0,English,,,,978-1-4832-3250-8,,,,,,,,,,,0,,,,,,,1,7023018,pdf,04bcc3eb0441959059aaefb8ac988ffe,,,A:\\sciencedirect_books\\9781483232508 (16).pdf,0,2000-01-01 01:00:00,2016-04-03 02:51:08,1112000/04bcc3eb0441959059aaefb8ac988ffe-d.gif,,
22401223,Principles of Sugar Technology,,,,Pieter Honig (Eds.),1953,,,,773,0,English,,,,978-1-4832-3252-2,,,,,,,,,,,0,,,,,,,1,12219698,pdf,a976373da657eb4d092a91624533f792,,,A:\\sciencedirect_books\\9781483232522 (25).pdf,0,2000-01-01 01:00:00,2016-04-03 02:51:08,1112000/a976373da657eb4d092a91624533f792-d.gif,,
22401224,Quantitative Research in Human Biology and Medicine,,,,Sigismund Peller (Auth.),1967,,,,429,0,English,,,,978-1-4832-3256-0,,,,,,,,,,,0,,,,,,,1,20768768,pdf,896a998b785f288c56ef68fc0a357c84,,,A:\\sciencedirect_books\\9781483232560 (44).pdf,0,2000-01-01 01:00:00,2016-04-03 02:51:08,1112000/896a998b785f288c56ef68fc0a357c84-d.gif,,
22401225,Radiation Dosimetry,,,,Gerald J. Hine and Gordon L. Brownell (Eds.),1956,,,,956,0,English,,,,978-1-4832-3257-7,,,,,,,,,,,0,,,,,,,1,16771490,pdf,88510fbe85782b345805846f50dd3b32,,,A:\\sciencedirect_books\\9781483232577 (29).pdf,0,2000-01-01 01:00:00,2016-04-03 02:51:08,1112000/88510fbe85782b345805846f50dd3b32-d.gif,,
22401226,Rapid Mixing and Sampling Techniques in Biochemistry,,,,"Britton Chance, Quentin H. Gibson and Rudolf H. Eisenhardt (Eds.)",1964,,,,365,0,English,,,,978-1-4832-3260-7,,,,,,,,,,,0,,,,,,,1,12715372,pdf,d43cf4408699c1678baf24d2cd8b7d8b,,,A:\\sciencedirect_books\\9781483232607 (53).pdf,0,2000-01-01 01:00:00,2016-04-03 02:51:08,1112000/d43cf4408699c1678baf24d2cd8b7d8b-d.gif,,
22401227,Research in Verbal Behavior and Some Neurophysiological Implications,,,,Kurt Salzinger and Suzanne Salzinger (Eds.),1967,,,,470,0,English,,,,978-1-4832-3264-5,,,,,,,,,,,0,,,,,,,1,7309638,pdf,5e5635d6336b459745edabfa295042c2,,,A:\\sciencedirect_books\\9781483232645 (36).pdf,0,2000-01-01 01:00:00,2016-04-03 02:51:08,1112000/5e5635d6336b459745edabfa295042c2-d.gif,,
22401228,Screening Methods in Pharmacology,,,,Robert A. Turner (Auth.),1965,,,,336,0,English,,,,978-1-4832-3266-9,,,,,,,,,,,0,,,,,,,1,15598146,pdf,8f1e65c4fda1e17775459f9922940636,,,A:\\sciencedirect_books\\9781483232669 (54).pdf,0,2000-01-01 01:00:00,2016-04-03 02:51:08,1112000/8f1e65c4fda1e17775459f9922940636-d.gif,,
22401229,Semimicro Quantitative Organic Analysis,,,,E. P. Clark (Auth.),1943,,,,139,0,English,,,,978-1-4832-3267-6,,,,,,,,,,,0,,,,,,,1,6158473,pdf,c300d5ed3cdbf8914704581998192035,,,A:\\sciencedirect_books\\9781483232676 (17).pdf,0,2000-01-01 01:00:00,2016-04-03 02:51:08,1112000/c300d5ed3cdbf8914704581998192035-d.gif,,
22401230,Social Insect Populations,,,,M. V. Brian (Auth.),1965,,,,137,0,English,,,,978-1-4832-3269-0,,,,,,,,,,,0,,,,,,,1,2340289,pdf,35b8299e5f56154175974f646b11aeb6,,,A:\\sciencedirect_books\\9781483232690 (23).pdf,0,2000-01-01 01:00:00,2016-04-03 02:51:08,1112000/35b8299e5f56154175974f646b11aeb6-d.gif,,
22401231,Spectra–Structure Correlation,,,,John P. Phillips (Auth.),1964,,,,171,0,English,,,,978-1-4832-3270-6,,,,,,,,,,,0,,,,,,,1,3404547,pdf,6122e986ce9048ce685b4e45338b7ced,,,A:\\sciencedirect_books\\9781483232706 (13).pdf,0,2000-01-01 01:00:00,2016-04-03 02:51:08,1112000/6122e986ce9048ce685b4e45338b7ced-d.gif,,
22401232,Studies in Mathematics and Mechanics,,,,Richard von Mises (Auth.),1954,,,,357,0,English,,,,978-1-4832-3272-0,,,,,,,,,,,0,,,,,,,1,10466711,pdf,24bafad2f2dfa8b23eee94ae0b197da8,,,A:\\sciencedirect_books\\9781483232720 (47).pdf,0,2000-01-01 01:00:00,2016-04-03 02:51:08,1112000/24bafad2f2dfa8b23eee94ae0b197da8-d.gif,,
22401233,Surface-Active Quaternary Ammonium Germicides,,,,Carl A. Lawrence (Auth.),1950,,,,257,0,English,,,,978-1-4832-3275-1,,,,,,,,,,,0,,,,,,,1,4532109,pdf,69e4b9ccc74d9555d2fe4b06e0999eda,,,A:\\sciencedirect_books\\9781483232751 (17).pdf,0,2000-01-01 01:00:00,2016-04-03 02:51:08,1112000/69e4b9ccc74d9555d2fe4b06e0999eda-d.gif,,
22401234,Symptomatology and Therapy of Toxicological Emergencies,,,,William B. Deichmann and Horace W. Gerarde (Auth.),1964,,,,614,0,English,,,,978-1-4832-3279-9,,,,,,,,,,,0,,,,,,,1,8266931,pdf,9151feb2416fe8e4ccab872c1c92cd59,,,A:\\sciencedirect_books\\9781483232799 (14).pdf,0,2000-01-01 01:00:00,2016-04-03 02:51:08,1112000/9151feb2416fe8e4ccab872c1c92cd59-d.gif,,
22401235,Synchytrium,,,,John S. Karling (Auth.),1964,,,,482,0,English,,,,978-1-4832-3280-5,,,,,,,,,,,0,,,,,,,1,11316929,pdf,c8ede53dd7277c47bd907e7acf276f85,,,A:\\sciencedirect_books\\9781483232805 (21).pdf,0,2000-01-01 01:00:00,2016-04-03 02:51:08,1112000/c8ede53dd7277c47bd907e7acf276f85-d.gif,,
22401236,Systems Analysis in Ecology,,,,Kenneth E. F. Watt (Eds.),1966,,,,280,0,English,,,,978-1-4832-3283-6,,,,,,,,,,,0,,,,,,,1,4610585,pdf,ab975f2d7d88806197d21e899e0548da,,,A:\\sciencedirect_books\\9781483232836 (18).pdf,0,2000-01-01 01:00:00,2016-04-03 02:51:08,1112000/ab975f2d7d88806197d21e899e0548da-d.gif,,
22401237,Textbook of Special Pathological Anatomy of Domestic Animals,,,,Paul Cohrs (Auth.),1966,,,,997,0,English,,,,978-1-4832-3284-3,,,,,,,,,,,0,,,,,,,1,53511738,pdf,2b6004074b13c0e602e419df7b0beeaa,,,A:\\sciencedirect_books\\9781483232843 (16).pdf,0,2000-01-01 01:00:00,2016-04-03 02:51:08,1112000/2b6004074b13c0e602e419df7b0beeaa-d.gif,,
22401238,The Biology of Hair Growth,,,,William Montagna and Richard A. Ellis (Eds.),1958,,,,517,0,English,,,,978-1-4832-3287-4,,,,,,,,,,,0,,,,,,,1,21130421,pdf,a4754eb95cba1303f8fab8119d390e19,,,A:\\sciencedirect_books\\9781483232874 (29).pdf,0,2000-01-01 01:00:00,2016-04-03 02:51:08,1112000/a4754eb95cba1303f8fab8119d390e19-d.gif,,
22401239,The Care of Radiation Casualties,,,,John Blakely (Auth.),1968,,,,147,0,English,,,,978-1-4832-3288-1,,,,,,,,,,,0,,,,,,,1,3739665,pdf,5ef77ab4e6f110b60b49eb335092abad,,,A:\\sciencedirect_books\\9781483232881 (18).pdf,0,2000-01-01 01:00:00,2016-04-03 02:51:08,1112000/5ef77ab4e6f110b60b49eb335092abad-d.gif,,
22401240,The Control of Fertility,,,,Gregory Pincus (Auth.),1965,,,,361,0,English,,,,978-1-4832-3291-1,,,,,,,,,,,0,,,,,,,1,6360713,pdf,fa777f8d9ad0f60cc09c460ca99cd30f,,,A:\\sciencedirect_books\\9781483232911 (20).pdf,0,2000-01-01 01:00:00,2016-04-03 02:51:08,1112000/fa777f8d9ad0f60cc09c460ca99cd30f-d.gif,,
22401241,The Dynamics of Living Protoplasm,,,,L. V. Heilbrunn (Auth.),1956,,,,332,0,English,,,,978-1-4832-3292-8,,,,,,,,,,,0,,,,,,,1,5438649,pdf,4d0f2a88af9983b27cf402e1838ecf59,,,A:\\sciencedirect_books\\9781483232928 (22).pdf,0,2000-01-01 01:00:00,2016-04-03 02:51:08,1112000/4d0f2a88af9983b27cf402e1838ecf59-d.gif,,
22401242,The Epidermis,,,,William Montagna and Walter C. Lobitz (Eds.),1964,,,,647,0,English,,,,978-1-4832-3293-5,,,,,,,,,,,0,,,,,,,1,27931565,pdf,3ce9b15e4f12eb46dc313f3b76b002e9,,,A:\\sciencedirect_books\\9781483232935 (41).pdf,0,2000-01-01 01:00:00,2016-04-03 02:51:08,1112000/3ce9b15e4f12eb46dc313f3b76b002e9-d.gif,,
22401243,The Evolution of Differentiation,,,,William S. Bullough (Auth.),1967,,,,210,0,English,,,,978-1-4832-3294-2,,,,,,,,,,,0,,,,,,,1,5343725,pdf,f37c8fce100c18fc0842a3d936549e38,,,A:\\sciencedirect_books\\9781483232942 (13).pdf,0,2000-01-01 01:00:00,2016-04-03 02:51:08,1112000/f37c8fce100c18fc0842a3d936549e38-d.gif,,
22401244,The Growing of Sugar Cane,,,,Roger P. Humbert (Auth.),1963,,,,707,0,English,,,,978-1-4832-3295-9,,,,,,,,,,,0,,,,,,,1,22506631,pdf,faf8354e55abf77b48e5e7fdef2e58cb,,,A:\\sciencedirect_books\\9781483232959 (20).pdf,0,2000-01-01 01:00:00,2016-04-03 02:51:08,1112000/faf8354e55abf77b48e5e7fdef2e58cb-d.gif,,
22401245,The Kjeldahl Method for Organic Nitrogen,,,,R. B. Bradstreet (Auth.),1965,,,,241,0,English,,,,978-1-4832-3298-0,,,,,,,,,,,0,,,,,,,1,3004510,pdf,fb47dba973bdfb7983aed859a2637381,,,A:\\sciencedirect_books\\9781483232980 (9).pdf,0,2000-01-01 01:00:00,2016-04-03 02:51:08,1112000/fb47dba973bdfb7983aed859a2637381-d.gif,,
22401246,The Logic of Explanation in Psychoanalysis,,,,Michael Sherwood (Auth.),1969,,,,281,0,English,,,,978-1-4832-3299-7,,,,,,,,,,,0,,,,,,,1,3903947,pdf,09c03c83f39dd8df7a382568a7ce0b83,,,A:\\sciencedirect_books\\9781483232997 (14).pdf,0,2000-01-01 01:00:00,2016-04-03 02:51:08,1112000/09c03c83f39dd8df7a382568a7ce0b83-d.gif,,
22401247,The Physics of Viruses,,,,Ernest C. Pollard (Auth.),1953,,,,235,0,English,,,,978-1-4832-3302-4,,,,,,,,,,,0,,,,,,,1,4191497,pdf,89aadad1f841de9749a4e5e281033410,,,A:\\sciencedirect_books\\9781483233024 (13).pdf,0,2000-01-01 01:00:00,2016-04-03 02:51:08,1112000/89aadad1f841de9749a4e5e281033410-d.gif,,
22401248,The Principal Diseases of Lower Vertebrates,,,,H. Reichenbach-Klinke and E. Elkan (Auth.),1965,,,,597,0,English,,,,978-1-4832-3303-1,,,,,,,,,,,0,,,,,,,1,22488096,pdf,90ab86687582cbb91fadc0f4b4a81ddb,,,A:\\sciencedirect_books\\9781483233031 (34).pdf,0,2000-01-01 01:00:00,2016-04-03 02:51:08,1112000/90ab86687582cbb91fadc0f4b4a81ddb-d.gif,,
22401249,The Principles of Heterocyclic Chemistry,,,,Alan R. Katritzky and J. M. Lagowski (Auth.),1968,,,,185,0,English,,,,978-1-4832-3304-8,,,,,,,,,,,0,,,,,,,1,2711542,pdf,bb03c8f606cd63a8878b7d74f5e57b18,,,A:\\sciencedirect_books\\9781483233048 (11).pdf,0,2000-01-01 01:00:00,2016-04-03 02:51:08,1112000/bb03c8f606cd63a8878b7d74f5e57b18-d.gif,,
22401250,The Principles of Nutrition for Practitioners and Students,,,,C. F. Brockington (Auth.),1952,,,,155,0,English,,,,978-1-4832-3305-5,,,,,,,,,,,0,,,,,,,1,4628781,pdf,8ac3c90f7f213599e622760a0514a173,,,A:\\sciencedirect_books\\9781483233055 (22).pdf,0,2000-01-01 01:00:00,2016-04-03 02:51:08,1112000/8ac3c90f7f213599e622760a0514a173-d.gif,,
22401251,The Rheumatic Diseases,,,,G. D. Kersley (Auth.),1962,,,,170,0,English,,,,978-1-4832-3307-9,,,,,,,,,,,0,,,,,,,1,6457474,pdf,03680c18b1a7b7f4237503cba204f7c2,,,A:\\sciencedirect_books\\9781483233079 (15).pdf,0,2000-01-01 01:00:00,2016-04-03 02:51:08,1112000/03680c18b1a7b7f4237503cba204f7c2-d.gif,,
22401252,The Rumen and its Microbes,,,,Robert E. Hungate (Auth.),1966,,,,536,0,English,,,,978-1-4832-3308-6,,,,,,,,,,,0,,,,,,,1,11011209,pdf,25377fe832e7fc1360eaf8a87fdc9091,,,A:\\sciencedirect_books\\9781483233086 (17).pdf,0,2000-01-01 01:00:00,2016-04-03 02:51:08,1112000/25377fe832e7fc1360eaf8a87fdc9091-d.gif,,
22401253,The Science of Adhesive Joints,,,,J. J. Bikerman (Auth.),1968,,,,353,0,English,,,,978-1-4832-3309-3,,,,,,,,,,,0,,,,,,,1,8396664,pdf,ffdfe5dd12c014e34b96f78de2fdb794,,,A:\\sciencedirect_books\\9781483233093 (17).pdf,0,2000-01-01 01:00:00,2016-04-03 02:51:08,1112000/ffdfe5dd12c014e34b96f78de2fdb794-d.gif,,
22401254,The Squirrel Monkey,,,,Leonard A. Rosenblum and Robert W. Cooper (Eds.),1968,,,,448,0,English,,,,978-1-4832-3310-9,,,,,,,,,,,0,,,,,,,1,13182278,pdf,88edebb2837abc97049fcd314d10ac72,,,A:\\sciencedirect_books\\9781483233109 (23).pdf,0,2000-01-01 01:00:00,2016-04-03 02:51:08,1112000/88edebb2837abc97049fcd314d10ac72-d.gif,,
22401255,Theoretical and Methodological Basis of Continuous Culture of Microorganisms,,,,Ivan Málek and Zdeněk Fenel (Eds.),1966,,,,645,0,English,,,,978-1-4832-3311-6,,,,,,,,,,,0,,,,,,,1,12396003,pdf,0e4e86b006e129e4c543faf1263b7ead,,,A:\\sciencedirect_books\\9781483233116 (12).pdf,0,2000-01-01 01:00:00,2016-04-03 02:51:08,1112000/0e4e86b006e129e4c543faf1263b7ead-d.gif,,
22401256,Theory of Groups and its Application to Physical Problems,,,,S. Bhagavantam and T. Venkatarayudu (Auth.),1969,,,,281,0,English,,,,978-1-4832-3313-0,,,,,,,,,,,0,,,,,,,1,6855587,pdf,9ccd34b471b2fc9314b8b9e7727be1f9,,,A:\\sciencedirect_books\\9781483233130 (29).pdf,0,2000-01-01 01:00:00,2016-04-03 02:51:08,1112000/9ccd34b471b2fc9314b8b9e7727be1f9-d.gif,,
22401257,Tissue Culture Technique,,,,Gladys Cameron (Auth.),1950,,,,195,0,English,,,,978-1-4832-3315-4,,,,,,,,,,,0,,,,,,,1,5124984,pdf,c5649d2426ea9ac3b17ff26aa06219cd,,,A:\\sciencedirect_books\\9781483233154 (29).pdf,0,2000-01-01 01:00:00,2016-04-03 02:51:08,1112000/c5649d2426ea9ac3b17ff26aa06219cd-d.gif,,
22401258,Ultracentrifugation in Biochemistry,,,,Howard K. Schachman (Auth.),1959,,,,278,0,English,,,,978-1-4832-3317-8,,,,,,,,,,,0,,,,,,,1,7990084,pdf,c18d13604cfe2427e16e25b29de97c96,,,A:\\sciencedirect_books\\9781483233178 (16).pdf,0,2000-01-01 01:00:00,2016-04-03 02:51:08,1112000/c18d13604cfe2427e16e25b29de97c96-d.gif,,
22401259,Ultrasonic Methods in Solid State Physics,,,,"Rohn Truell, Charles Elbaum and Bruce B. Chick (Auth.)",1969,,,,469,0,English,,,,978-1-4832-3318-5,,,,,,,,,,,0,,,,,,,1,8152372,pdf,10ffa569453475b45e25de600e2d28db,,,A:\\sciencedirect_books\\9781483233185 (21).pdf,0,2000-01-01 01:00:00,2016-04-03 02:51:08,1112000/10ffa569453475b45e25de600e2d28db-d.gif,,
22401260,Viral and Rickettsial Infections of Animals,,,,A. O. Betts and C. J. York (Eds.),1967,,,,389,0,English,,,,978-1-4832-3319-2,,,,,,,,,,,0,,,,,,,1,6794908,pdf,7c6f760d6ae5bc551ba39b35dfb15d90,,,A:\\sciencedirect_books\\9781483233192 (16).pdf,0,2000-01-01 01:00:00,2016-04-03 02:51:08,1112000/7c6f760d6ae5bc551ba39b35dfb15d90-d.gif,,
22401261,X-ray Optics and X-ray Microanalysis,,,,"H. H. Pattee, V. E. Cosslett and Arne Engström (Eds.)",1963,,,,606,0,English,,,,978-1-4832-3322-2,,,,,,,,,,,0,,,,,,,1,34018658,pdf,89e5505750f70bb8afe17c7b2c7313fd,,,A:\\sciencedirect_books\\9781483233222 (60).pdf,0,2000-01-01 01:00:00,2016-04-03 02:51:08,1112000/89e5505750f70bb8afe17c7b2c7313fd-d.gif,,
22401262,"Symmetries in Elementary Particle Physics. 1964 International School of Physics Ettore Majorana, a CERN-MPI-NATO Advanced Study Institute",,,,A. Zichichi (Eds.),1965,,,,434,0,English,,,,978-1-4832-5648-1,,,,,,,,,,,0,,,,,,,1,7241543,pdf,519dc363881deaa73be0c11d4a933f64,,,A:\\sciencedirect_books\\9781483256481 (27).pdf,0,2000-01-01 01:00:00,2016-04-03 02:51:08,1112000/519dc363881deaa73be0c11d4a933f64-d.gif,,
22401263,Fragments of a Revolution. Essays on Indian Problems,,,,M. Chalapathi Rau (Auth.),1965,,Pergamon,,122,0,English,,,,978-1-4832-5654-2,,,,,,,,,,,0,,,,,,,1,2366311,pdf,1a1624e13505f7828d902cae1d2125ec,,,A:\\sciencedirect_books\\9781483256542 (40).pdf,0,2000-01-01 01:00:00,2016-04-03 02:51:08,1112000/1a1624e13505f7828d902cae1d2125ec-d.jpg,,
22401264,Nutrition and Victory. Food Problems in War and Peace,,,,Erwin Pulay (Auth.),1941,,Butterworth-Heinemann,,121,0,English,,,,978-1-4832-5655-9,,,,,,,,,,,0,,,,,,,1,1621718,pdf,e60b00e83855d907a5d82b6989e9809d,,,A:\\sciencedirect_books\\9781483256559 (21).pdf,0,2000-01-01 01:00:00,2016-04-03 02:51:08,1112000/e60b00e83855d907a5d82b6989e9809d-d.jpg,,
22401265,New Aspects of Cheap Food. With a Table of Foods in Alphabetic Order Showing in a Single Figure the Comparative Value in Nutritive Units of Potato,,,,Rudolph Keller (Auth.),1943,,Butterworth-Heinemann,,55,0,English,,,,978-1-4832-5661-0,,,,,,,,,,,0,,,,,,,1,2109504,pdf,267cbb61841926be0e4569268ae1cc7d,,,A:\\sciencedirect_books\\9781483256610 (13).pdf,0,2000-01-01 01:00:00,2016-04-03 02:51:08,1112000/267cbb61841926be0e4569268ae1cc7d-d.jpg,,
22401266,"The Preparation of Solutions Isoosmotic with Blood, Tears, and Tissue",,,,"C. G. Lund, E. Peülicke Nielsen and K. Pedersen-Bjergaard (Auth.)",1947,,Butterworth-Heinemann,,166,0,English,,,,978-1-4832-5665-8,,,,,,,,,,,0,,,,,,,1,4470817,pdf,5124ae37f078ecce85f83659407e1ac4,,,A:\\sciencedirect_books\\9781483256658 (13).pdf,0,2000-01-01 01:00:00,2016-04-03 02:51:08,1112000/5124ae37f078ecce85f83659407e1ac4-d.jpg,,
22401267,Pulmonary Deposition and Retention of Inhaled Aerosols,,,,"Theodore F. Hatch, Paul Gross and George D. Clayton (Auth.)",1964,,,,197,0,English,,,,978-1-4832-5671-9,,,,,,,,,,,0,,,,,,,1,6162844,pdf,52af174873bc7615ab03fa569a8e546e,,,A:\\sciencedirect_books\\9781483256719 (17).pdf,0,2000-01-01 01:00:00,2016-04-03 02:51:08,1112000/52af174873bc7615ab03fa569a8e546e-d.gif,,
22401268,A Laboratory Introduction to Psychology,,,,"John W. P. Ost, James Allison and William B. Vance (Auth.)",1969,0,Academic Press,,192,0,English,,,,978-1-4832-5674-0,,,,,,,,,,,0,,,,,,,1,3876546,pdf,ca02c3a1b43cc3bcac0c3c4cb45051f5,,,A:\\sciencedirect_books\\9781483256740 (28).pdf,0,2000-01-01 01:00:00,2016-04-03 02:51:08,1112000/ca02c3a1b43cc3bcac0c3c4cb45051f5-d.jpg,,
22401269,An Introduction to Human Blood Groups,,,,Fulton Roberts (Auth.),1960,,Butterworth-Heinemann,,83,0,English,,,,978-1-4832-5675-7,,,,,,,,,,,0,,,,,,,1,3360313,pdf,5f47bc2897768d97168ced39fc83e373,,,A:\\sciencedirect_books\\9781483256757 (19).pdf,0,2000-01-01 01:00:00,2016-04-03 02:51:08,1112000/5f47bc2897768d97168ced39fc83e373-d.jpg,,
22401270,Classical Dynamics of Particles and Systems,,,,Jerry B. Marion (Auth.),1965,,Academic Press,,582,0,English,,,,978-1-4832-5676-4,,,,,,,,,,,0,,,,,,,1,16555697,pdf,0ab3bb769b2603fe9b83bf42dde627b9,,,A:\\sciencedirect_books\\9781483256764 (30).pdf,0,2000-01-01 01:00:00,2016-04-03 02:51:08,1112000/0ab3bb769b2603fe9b83bf42dde627b9-d.jpg,,
22401271,Elements of Abstract Harmonic Analysis,,,,George Bachman (Auth.),1964,,Academic Press,,262,0,English,,,,978-1-4832-5678-8,,,,,,,,,,,0,,,,,,,1,4542646,pdf,11dc8e3e034348a447b6a8618eeba134,,,A:\\sciencedirect_books\\9781483256788 (19).pdf,0,2000-01-01 01:00:00,2016-04-03 02:51:08,1112000/11dc8e3e034348a447b6a8618eeba134-d.jpg,,
22401272,Energy Changes in Biochemical Reactions,,,,Irving M. Klotz (Auth.),1967,,Academic Press,,113,0,English,,,,978-1-4832-5679-5,,,,,,,,,,,0,,,,,,,1,3866089,pdf,3fd7e6424809c2158278bdfaa18a7128,,,A:\\sciencedirect_books\\9781483256795 (14).pdf,0,2000-01-01 01:00:00,2016-04-03 02:51:08,1112000/3fd7e6424809c2158278bdfaa18a7128-d.jpg,,
22401273,Renewable Energy. Prospects for Implementation,,,,Tim Jackson (Eds.),1993,,,,262,0,English,,,,978-1-4832-5695-5,,,,,,,,,,,0,,,,,,,1,6429934,pdf,b9acf65c26094f89b91b1e38edfbb02a,,,A:\\sciencedirect_books\\9781483256955 (25).pdf,0,2000-01-01 01:00:00,2016-04-03 02:51:08,1112000/b9acf65c26094f89b91b1e38edfbb02a-d.gif,,
22401274,Basic Cartography for Students and Technicians. Exercise Manual,,,,R. W. Anson and F. J. Ormeling (Eds.),1991,,,,256,0,English,,,,"978-1-4832-5712-9,1-85166-590-0",,,,,,,,,,,0,,,,,,,1,38492428,pdf,ec44e09d0a856328e1b5f409a96ee37c,,,A:\\sciencedirect_books\\9781483257129 (72).pdf,0,2000-01-01 01:00:00,2016-04-03 02:51:08,1112000/ec44e09d0a856328e1b5f409a96ee37c-d.gif,,
22401275,"Tabacologia. Hoc est, Tabaci, seu nicotianae descriptio medico-cheirurgico-pharmaceutica",,,,Johann Neander (Auth.),,,,,287,0,English,,,,978-1-4832-8299-2,,,,,,,,,,,0,,,,,,,1,15189286,pdf,38d592da90f22b01a01d789d268910b5,,,A:\\sciencedirect_books\\9781483282992 (18).pdf,0,2000-01-01 01:00:00,2016-04-03 02:51:08,1112000/38d592da90f22b01a01d789d268910b5-d.gif,,
22401276,De Architectura. Libri decem,,,,Marcus Vitruvius Pollio and Johannes De Laet (Auth.),,,,,573,0,English,,,,978-1-4832-8300-5,,,,,,,,,,,0,,,,,,,1,29815380,pdf,4862217df5db7f942006aa480a4cc203,,,A:\\sciencedirect_books\\9781483283005 (33).pdf,0,2000-01-01 01:00:00,2016-04-03 02:51:08,1112000/4862217df5db7f942006aa480a4cc203-d.gif,,
22401277,Observationum Medicarum. Libri tres,,,,Nicolaas Tulp (Auth.),,,,,404,0,English,,,,978-1-4832-8301-2,,,,,,,,,,,0,,,,,,,1,42117867,pdf,14b02cf2f2b85d2998be75c35a9fa76e,,,A:\\sciencedirect_books\\9781483283012 (166).pdf,0,2000-01-01 01:00:00,2016-04-03 02:51:08,1112000/14b02cf2f2b85d2998be75c35a9fa76e-d.gif,,
22401278,Mare Liberum. Sive De iure quod Batavis competit ad indicana commercia dissertatio,,,,Hugo de Groot (Auth.),,,,,119,0,English,,,,978-1-4832-8303-6,,,,,,,,,,,0,,,,,,,1,7030202,pdf,5a7cb421110ff3d4067bee413ba99dde,,,A:\\sciencedirect_books\\9781483283036 (17).pdf,0,2000-01-01 01:00:00,2016-04-03 02:51:08,1112000/5a7cb421110ff3d4067bee413ba99dde-d.gif,,
22401279,An Atlas of the Commoner Skin Diseases. With 147 Plates Reproduced by Direct Colour Photography from the Living Subject,,,,Henry C. G. Semon (Auth.),1953,,,,341,0,English,,,,978-1-4832-8304-3,,,,,,,,,,,0,,,,,,,1,50924365,pdf,d764824eac8ad8422179144b3bbb105f,,,A:\\sciencedirect_books\\9781483283043 (145).pdf,0,2000-01-01 01:00:00,2016-04-03 02:51:08,1112000/d764824eac8ad8422179144b3bbb105f-d.gif,,
22401280,A Synopsis of Ophthalmology,,,,J. L. C. Martin-Doyle (Auth.),1967,,,,296,0,English,,,,978-1-4832-8305-0,,,,,,,,,,,0,,,,,,,1,5807554,pdf,9059cc5bc6b31e0c740e5f44f20e6f25,,,A:\\sciencedirect_books\\9781483283050 (34).pdf,0,2000-01-01 01:00:00,2016-04-03 02:51:08,1112000/9059cc5bc6b31e0c740e5f44f20e6f25-d.gif,,
22401281,Atlas of Human Anatomy,,,,Werner Spalteholz and Rudolf Spanner (Auth.),1967,,,,913,0,English,,,,978-1-4832-8308-1,,,,,,,,,,,0,,,,,,,1,369120069,pdf,63be7e380189cd5ca8f42e0baa415476,,,A:\\sciencedirect_books\\9781483283081 (18).pdf,0,2000-01-01 01:00:00,2016-04-03 02:51:08,1112000/63be7e380189cd5ca8f42e0baa415476-d.gif,,
22401282,De Indiae Utriusque Re Naturali et Medica Libri Quatuordecim,,,,Willem Piso (Auth.),,,,,616,0,English,,,,978-1-4832-8309-8,,,,,,,,,,,0,,,,,,,1,43251646,pdf,0d16b431dcf20e1e3dcfba433f7d1033,,,A:\\sciencedirect_books\\9781483283098 (31).pdf,0,2000-01-01 01:00:00,2016-04-03 02:51:08,1112000/0d16b431dcf20e1e3dcfba433f7d1033-d.gif,,
22401283,Discorsi e Dimostrazioni Matematiche,,,,Galileo Galilei (Auth.),,,,,328,0,English,,,,978-1-4832-8311-1,,,,,,,,,,,0,,,,,,,1,12614263,pdf,403f07e0005bc966fb471335d614ffc7,,,A:\\sciencedirect_books\\9781483283111 (10).pdf,0,2000-01-01 01:00:00,2016-04-03 02:51:08,1112000/403f07e0005bc966fb471335d614ffc7-d.gif,,
22401284,A Companion to Modal Logic,,,,"G. E. Hughes, M. J. Cresswell",1985,,Methuen,,xviii+203,0,English,130,,0,"0416375103, 9780416375107",,,,,,84-8939,,1EYOAAAAQAAJ,,,600,0,1,0,1,1,1,1,3832151,pdf,37b589fe10d7d65386fe434024ccf61c,,,1985  A Companion To MODAL LOGIC,0,2000-01-01 01:00:00,2016-04-03 02:51:08,1112000/37b589fe10d7d65386fe434024ccf61c-d.jpg,,
22401285,L'architecture Militaire Ou la Fortification Nouvelle,,,,Adam Freitag (Auth.),,,,,305,0,English,,,,978-1-4832-8314-2,,,,,,,,,,,0,,,,,,,1,41630238,pdf,a4fa423f64ef224df4ac06b8fc8567cf,,,A:\\sciencedirect_books\\9781483283142 (61).pdf,0,2000-01-01 01:00:00,2016-04-03 02:51:08,1112000/a4fa423f64ef224df4ac06b8fc8567cf-d.gif,,
22401286,Le Pastissier François,,,,François Pierre de la Varenne (Auth.),,,,,278,0,English,,,,978-1-4832-8315-9,,,,,,,,,,,0,,,,,,,1,13143717,pdf,93a08c459df8fbb207b0dde9a517c4b2,,,A:\\sciencedirect_books\\9781483283159 (36).pdf,0,2000-01-01 01:00:00,2016-04-03 02:51:08,1112000/93a08c459df8fbb207b0dde9a517c4b2-d.gif,,
22401287,"Neuro-Psychopharmacology. Proceedings of the Tenth Congress of the Collegium Internationale Neuro-Psychopharmacologicum Qu�bec, July 4-9, 1976",,,,P. Deniker (Eds.),1978,,,,1572,0,English,,,,"978-1-4832-8322-7,0-08-021506-8",,,,,,,,,,,0,,,,,,,1,88451369,pdf,aa6e1618ecef4785b5d4860c2cc128fc,,,A:\\sciencedirect_books\\9781483283227 (235).pdf,0,2000-01-01 01:00:00,2016-04-03 02:51:08,1112000/aa6e1618ecef4785b5d4860c2cc128fc-d.gif,,
22401288,"Catecholamines: Basic and Clinical Frontiers. Proceedings of the Fourth International Catecholamine Symposium, Pacific Grove, California, September 17-22, 1978",,,,Earl Usdin (Eds.),1979,,,,1954,0,English,,,,978-1-4832-8363-0,,,,,,,,,,,0,,,,,,,1,128327273,pdf,1f2c7b9c9387bc84a38d5f2064d1d47b,,,A:\\sciencedirect_books\\9781483283630 (599).pdf,0,2000-01-01 01:00:00,2016-04-03 02:51:08,1112000/1f2c7b9c9387bc84a38d5f2064d1d47b-d.gif,,
22401289,Logistical Excellence. It's Not Business As Usual,,,,Donald J. Bowersox (Auth.),1992,,Digital Press,,249,0,English,,,,"978-1-55558-087-2,1-55558-087-4",,,,,,,,,,,0,,,,,,,1,5870143,pdf,ecb1067b3ba756b81166922b7b9f73b4,,,A:\\sciencedirect_books\\9781555580872 (16).pdf,0,2000-01-01 01:00:00,2016-04-03 02:51:08,1112000/ecb1067b3ba756b81166922b7b9f73b4-d.jpg,,
22401290,Information Technology Standards. Quest for the Common Byte,,,,Martin Libicki (Auth.),1995,,Digital Press,,399,0,English,,,,"978-1-55558-131-2,1-55558-131-5",,,,,,,,,,,0,,,,,,,1,10483180,pdf,8cbcdb3de62d9347c49faaeb091dd86e,,,A:\\sciencedirect_books\\9781555581312 (26).pdf,0,2000-01-01 01:00:00,2016-04-03 02:51:08,1112000/8cbcdb3de62d9347c49faaeb091dd86e-d.jpg,,
22401291,Open: VMS Alpha Internals and Data Structures. Memory Management,,,,Ruth E. Goldenberg (Auth.),2003,1,Digital Press,,542,0,English,,,,978-1-55558-159-6,,,,,,,,,,,0,,,,,,,1,10640321,pdf,8226926699bb39dfd6672b3cd4e1c50c,,,A:\\sciencedirect_books\\9781555581596 (10).pdf,0,2000-01-01 01:00:00,2016-04-03 02:51:08,1112000/8226926699bb39dfd6672b3cd4e1c50c-d.jpg,,
22401292,Tru: Cluster Server Handbook,,,,"Scott Fafrak, Jim Lola, Dennis O'Brien, Greg Yates and Brad Nichols (Auth.)",2003,1,Digital Press,,846,0,English,,,,978-1-55558-259-3,,,,,,,,,,,0,,,,,,,1,84519137,pdf,81b064a4c17167280bf493aad496627d,,,A:\\sciencedirect_books\\9781555582593 (32).pdf,0,2000-01-01 01:00:00,2016-04-03 02:51:08,1112000/81b064a4c17167280bf493aad496627d-d.jpg,,
22401293,"Open: VMS with Apache, WASD, and OSU. The Nonstop Webserver",,,,Alan Winston (Auth.),2003,1,Digital Press,,452,0,English,,,,978-1-55558-264-7,,,,,,,,,,,0,,,,,,,1,14693759,pdf,7556d239fd2f178edbf01a02270a4795,,,A:\\sciencedirect_books\\9781555582647 (27).pdf,0,2000-01-01 01:00:00,2016-04-03 02:51:08,1112000/7556d239fd2f178edbf01a02270a4795-d.jpg,,
22401294,"Linux and Open: VMS Interoperability. Tricks for Old Dogs, New Dogs and Hot Dogs with Open Systems",,,,John Robert Wisniewski (Auth.),2003,1,Digital Press,,196,0,English,,,,978-1-55558-267-8,,,,,,,,,,,0,,,,,,,1,20663740,pdf,3ba916f144e94350147c366c3485e02e,,,A:\\sciencedirect_books\\9781555582678 (12).pdf,0,2000-01-01 01:00:00,2016-04-03 02:51:08,1112000/3ba916f144e94350147c366c3485e02e-d.jpg,,
22401295,UNIX for Open: VMS Users,,,,"Philip Bourne, Richard Holstein and Joseph McMullen (Auth.)",2003,3,Digital Press,,534,0,English,,,,978-1-55558-276-0,,,,,,,,,,,0,,,,,,,1,8056860,pdf,e259ba2750941fa3d146eda78c65e89d,,,A:\\sciencedirect_books\\9781555582760 (21).pdf,0,2000-01-01 01:00:00,2016-04-03 02:51:08,1112000/e259ba2750941fa3d146eda78c65e89d-d.jpg,,
22401296,Getting Started with Open: VMS. A Guide for New Users,,,,Michael D. Duffy (Auth.),2003,1,Digital Press,,294,0,English,,,,978-1-55558-279-1,,,,,,,,,,,0,,,,,,,1,5547718,pdf,29fe758d8d2f32d27d510ba82cbf30b0,,,A:\\sciencedirect_books\\9781555582791 (29).pdf,0,2000-01-01 01:00:00,2016-04-03 02:51:08,1112000/29fe758d8d2f32d27d510ba82cbf30b0-d.jpg,,
22401297,Getting Started with Open: VMS System Management,,,,David Donald Miller (Auth.),2003,1,Digital Press,,188,0,English,,,,978-1-55558-281-4,,,,,,,,,,,0,,,,,,,1,2571980,pdf,f1a47867881a3ebb8c1d57d7eedcd75f,,,A:\\sciencedirect_books\\9781555582814 (19).pdf,0,2000-01-01 01:00:00,2016-04-03 02:51:08,1112000/f1a47867881a3ebb8c1d57d7eedcd75f-d.jpg,,
22401298,"Microsoft Share: Point Technologies. Planning, Design, and Implementation",,,,"Kevin Laahs, Emer McKenna and Veli-Matti Vanamo (Auth.)",2005,1,Digital Press,,646,0,English,,,,978-1-55558-301-9,,,,,,,,,,,0,,,,,,,1,44388091,pdf,e433528df55acf57b302bfaa9c746711,,,A:\\sciencedirect_books\\9781555583019 (21).pdf,0,2000-01-01 01:00:00,2016-04-03 02:51:08,1112000/e433528df55acf57b302bfaa9c746711-d.jpg,,
22401299,HP Non: Stop Server Security. A Practical Handbook,,,,Terri Hill and Ellen Alvarado (Auth.),2004,1,Digital Press,,622,0,English,,,,978-1-55558-314-9,,,,,,,,,,,0,,,,,,,1,8734772,pdf,fe16f59ecc480e2aa5eddf4defb67180,,,A:\\sciencedirect_books\\9781555583149 (15).pdf,0,2000-01-01 01:00:00,2016-04-03 02:51:08,1112000/fe16f59ecc480e2aa5eddf4defb67180-d.jpg,,
22401300,Business Continuity and Disaster Recovery for Info: Sec Managers,,,,"Ph.D., CISM John W. Rittinghouse and Ph.D., CISM, CISSP James F. Ransome (Auth.)",2006,1,Digital Press,,382,0,English,,,,978-1-55558-339-2,,,,,,,,,,,0,,,,,,,1,5923802,pdf,8bb82e0827e7567cc8de0b3199290c2c,,,A:\\sciencedirect_books\\9781555583392 (17).pdf,0,2000-01-01 01:00:00,2016-04-03 02:51:08,1112000/8bb82e0827e7567cc8de0b3199290c2c-d.jpg,,
22401301,"Securing HP Non: Stop Servers in an Open Systems World. TCP/IP, OSS, & SQL",,,,XYPRO Technology (Auth.),2006,2nd,Digital Press,,948,0,English,76,,,978-1-55558-344-6,,,,,,,,,,,0,,,,,,,1,13291639,pdf,4ac1f8f47107b91e6cdb42b68383dc1e,,,A:\\sciencedirect_books\\9781555583446 (21).pdf,0,2000-01-01 01:00:00,2016-04-03 02:51:08,1112000/4ac1f8f47107b91e6cdb42b68383dc1e-d.jpg,,
22401302,Oracle Performance Tuning for 10g: R2,,,,Gavin Powell (Auth.),2007,2,Digital Press,,911,0,English,,,,978-1-55558-345-3,,,,,,,,,,,0,,,,,,,1,28532418,pdf,4816f39fc18d7cca5f8abe2dfa0afe42,,,A:\\sciencedirect_books\\9781555583453 (33).pdf,0,2000-01-01 01:00:00,2016-04-03 02:51:08,1112000/4816f39fc18d7cca5f8abe2dfa0afe42-d.jpg,,
22401303,Advanced Graphics Programming Using Open: GL,,,,Tom Mcreynolds and David Blythe (Auth.),2005,1,Morgan Kaufmann,,637,0,English,,,,"978-1-55860-659-3,1-55860-659-9",,,,,,,,,,,0,,,,,,,1,14592013,pdf,30ba81475c7f7240b0f8d43bb2a221ec,,,A:\\sciencedirect_books\\9781558606593 (32).pdf,0,2000-01-01 01:00:00,2016-04-03 02:51:08,1112000/30ba81475c7f7240b0f8d43bb2a221ec-d.jpg,,
22401304,Interactive Quick: Time. Authoring wired media,,,,Matthew Peterson (Auth.),2004,,Morgan Kaufmann,,570,0,English,,,,978-1-55860-746-0,,,,,,,,,,,0,,,,,,,1,13692576,pdf,321f23830500602f1acabf13c4f28878,,,A:\\sciencedirect_books\\9781558607460 (71).pdf,0,2000-01-01 01:00:00,2016-04-03 02:51:08,1112000/321f23830500602f1acabf13c4f28878-d.jpg,,
22401305,JSP. Practical Guide for Java Programmers,,,,Robert J. Brunner (Auth.),2003,1,Morgan Kaufmann,,179,0,English,,,,978-1-55860-836-8,,,,,,,,,,,0,,,,,,,1,9357549,pdf,b9014ea490005040cafd4d68c9b35e30,,,A:\\sciencedirect_books\\9781558608368 (11).pdf,0,2000-01-01 01:00:00,2016-04-03 02:51:08,1112000/b9014ea490005040cafd4d68c9b35e30-d.jpg,,
22401306,Real-Time Shader Programming. Covering Direct: X 9.0,,,,Ron Fosner (Auth.),2003,,Morgan Kaufmann,,402,0,English,,,,978-1-55860-853-5,,,,,,,,,,,0,,,,,,,1,307783399,pdf,a5856b0a944348f64a80c39330047680,,,A:\\sciencedirect_books\\9781558608535 (15).pdf,0,2000-01-01 01:00:00,2016-04-03 02:51:08,1112000/a5856b0a944348f64a80c39330047680-d.jpg,,
22401307,The Grid 2. Blueprint for a New Computing Infrastructure,,,,Ian Foster and Carl Kesselman (Eds.),2004,2,Morgan Kaufmann,,737,0,English,,,,978-1-55860-933-4,,,,,,,,,,,0,,,,,,,1,47401771,pdf,37b476f6953dc2b678461bebd5f5dffa,,,A:\\sciencedirect_books\\9781558609334 (43).pdf,0,2000-01-01 01:00:00,2016-04-03 02:51:08,1112000/37b476f6953dc2b678461bebd5f5dffa-d.jpg,,
22401308,Advances in Computational Biology,,,,Hugo O. Villar (Eds.),1996,1,Elsevier Science,,268,0,English,,,,"978-1-55938-979-2,1-55938-979-6",,,,,,,,,,,0,,,,,,,1,7242710,pdf,6519780f618d0a65c7c36afd9efcd2dd,,,A:\\sciencedirect_books\\9781559389792 (10).pdf,0,2000-01-01 01:00:00,2016-04-03 02:51:08,1112000/6519780f618d0a65c7c36afd9efcd2dd-d.jpg,,
22401309,Management of Patients with Neuromuscular Disease,,,,"John R. Bach, MD (Auth.)",2004,,Hanley & Belfus,,413,0,English,,,,"978-1-56053-604-8,1-56053-604-7",,,,,,,,,,,0,,,,,,,1,10166521,pdf,cb63109b92254fd15674784cf4ea679e,,,A:\\sciencedirect_books\\9781560536048 (25).pdf,0,2000-01-01 01:00:00,2016-04-03 02:51:08,1112000/cb63109b92254fd15674784cf4ea679e-d.jpg,,
22401310,Embedded Free: BSD Cookbook,,,,Paul Cevoli (Auth.),2003,,Newnes,,232,0,English,,,,978-1-58995-004-7,,,,,,,,,,,0,,,,,,,1,3632292,pdf,8be5cdcebf09c36e2285b8e096cda24a,,,A:\\sciencedirect_books\\9781589950047 (17).pdf,0,2000-01-01 01:00:00,2016-04-03 02:51:08,1112000/8be5cdcebf09c36e2285b8e096cda24a-d.jpg,,
22401311,OS X for Hackers at Heart. The Apple of Every Hacker's Eye,,,,"Ken Caruso, Chris Hurley, Johnny Long, Preston Norvell, Tom Owad and Bruce Potter (Eds.)",2005,1,Syngress,,444,0,English,,,,"978-1-59749-040-5,1-931836-03-5,1-931836-20-5,1-931836-40-X",,,,,,,,,,,0,,,,,,,1,42960234,pdf,e229dfaf67b92b5172ee019d124658ab,,,A:\\sciencedirect_books\\9781597490405 (13).pdf,0,2000-01-01 01:00:00,2016-04-03 02:51:08,1112000/e229dfaf67b92b5172ee019d124658ab-d.jpg,,
22401312,Practical Vo: IP Security,,,,"Thomas Porter, Jan Kanclirz, Andy Zmolek, Antonio Rosela, Michael Cross, Larry Chaffin, Brian Baskin and Choon Shim (Eds.)",2006,1,Syngress,,561,0,English,,,,"978-1-59749-060-3,1-931836-56-6,1-932266-91-7",,,,,,,,,,,0,,,,,,,1,48817496,pdf,643e0138930a77668703d62ee47ef6c2,,,A:\\sciencedirect_books\\9781597490603 (21).pdf,0,2000-01-01 01:00:00,2016-04-03 02:51:08,1112000/643e0138930a77668703d62ee47ef6c2-d.jpg,,
22401313,Building a Vo: IP Network with Nortel's Multimedia Communication Server 5100,,,,Larry Chaffin (Auth.),2006,1,Syngress,,477,0,English,,,,"978-1-59749-078-8,1-93183-656-6,1-59749-032-6,1-59749-060-1",,,,,,,,,,,0,,,,,,,1,49655033,pdf,5f12d4ff5826628655001db6b8292921,,,A:\\sciencedirect_books\\9781597490788 (14).pdf,0,2000-01-01 01:00:00,2016-04-03 02:51:08,1112000/5f12d4ff5826628655001db6b8292921-d.jpg,,
22401314,War: Driving and Wireless Penetration Testing,,,,"Chris Hurley, Russ Rogers, Frank Thornton, Daniel Connelly and Brian Baker (Auth.)",2006,1,Syngress,,410,0,English,,,,978-1-59749-111-2,,,,,,,,,,,0,,,,,,,1,53041017,pdf,aa6c09ebcc2701b63ddcca52f15aa8b2,,,A:\\sciencedirect_books\\9781597491112 (21).pdf,0,2000-01-01 01:00:00,2016-04-03 02:51:08,1112000/aa6c09ebcc2701b63ddcca52f15aa8b2-d.jpg,,
22401315,Big: Num Math. Implementing Cryptographic Multiple Precision Arithmetic,,,,"Tom St Denis, Greg Rose and Greg Rose (Auth.)",2006,1,Syngress,,303,0,English,,,,978-1-59749-112-9,,,,,,,,,,,0,,,,,,,1,3082645,pdf,6ad7fb0ce260e1a2adc6f2e2f2d01964,,,A:\\sciencedirect_books\\9781597491129 (13).pdf,0,2000-01-01 01:00:00,2016-04-03 02:51:08,1112000/6ad7fb0ce260e1a2adc6f2e2f2d01964-d.jpg,,
22401316,"Essential Computer Security. Everyone's Guide to E-mail, Internet, and Wireless Security",,,,"Tony Bradley, CISSP-ISSAP (Eds.)",2006,1,Syngress,,282,0,English,,,,978-1-59749-114-3,,,,,,,,,,,0,,,,,,,1,20598933,pdf,ef249ad05b1f7a789f7ccf68d96d4d09,,,A:\\sciencedirect_books\\9781597491143 (24).pdf,0,2000-01-01 01:00:00,2016-04-03 02:51:08,1112000/ef249ad05b1f7a789f7ccf68d96d4d09-d.jpg,,
22401317,Configuring Juniper Networks Net: Screen & SSG Firewalls,,,,"Rob Cameroon, Brad Woodberg, Mohan Krishnamurthy Madwachar, Mike Swarm, Neil R. Wyler, Matthew Albers and Ralph Bonnell (Eds.)",2006,1,Syngress,,754,0,English,,,,"978-1-59749-118-1,1-931836-20-5",,,,,,,,,,,0,,,,,,,1,12532659,pdf,2ee7d337e1d49516c91c768d5f09fabf,,,A:\\sciencedirect_books\\9781597491181 (18).pdf,0,2000-01-01 01:00:00,2016-04-03 02:51:08,1112000/2ee7d337e1d49516c91c768d5f09fabf-d.jpg,,
22401318,RFID+ Study Guide and Practice Exams,,,,Paul Sanghera (Auth.),2007,1,Syngress,,333,0,English,,,,978-1-59749-134-1,,,,,,,,,,,0,,,,,,,1,8664503,pdf,718a918b0f1dc8d24d75ec746e622fc0,,,A:\\sciencedirect_books\\9781597491341 (20).pdf,0,2000-01-01 01:00:00,2016-04-03 02:51:08,1112000/718a918b0f1dc8d24d75ec746e622fc0-d.jpg,,
22401319,How to Cheat at Vo: IP Security,,,,Thomas Porter and Michael Gough (Auth.),2007,1,Syngress,,416,0,English,,,,"978-1-59749-169-3,1-931836-63-9,1-411621-77-8",,,,,,,,,,,0,,,,,,,1,28436514,pdf,c45efece24bfbfca8be768fba195d8a4,,,A:\\sciencedirect_books\\9781597491693 (17).pdf,0,2000-01-01 01:00:00,2016-04-03 02:51:08,1112000/c45efece24bfbfca8be768fba195d8a4-d.jpg,,
22401320,Sonic: WALL Secure Wireless Network Integrated Solutions Guide,,,,"Joe Levy, Khai Tran, Patrick Lydon, Jeremy Pollock, Dave Parry, Susan Weigand, Zhong Chen, Hung Ha, John Gmuender and Mike Massing (Auth.)",2007,1,Syngress,,477,0,English,,,,978-1-59749-193-8,,,,,,,,,,,0,,,,,,,1,13921740,pdf,3a64d3906cea9a28c70a1a5d85a9cc44,,,A:\\sciencedirect_books\\9781597491938 (25).pdf,0,2000-01-01 01:00:00,2016-04-03 02:51:08,1112000/3a64d3906cea9a28c70a1a5d85a9cc44-d.jpg,,
22401321,How to Cheat at Configuring Vm: Ware ESX Server,,,,"David Rule, Jr. (Auth.)",2007,1,Syngress,,369,0,English,,,,978-1-59749-194-5,,,,,,,,,,,0,,,,,,,1,7152964,pdf,87e7399e212a9d80f2660c9ab6b1a4af,,,A:\\sciencedirect_books\\9781597491945 (14).pdf,0,2000-01-01 01:00:00,2016-04-03 02:51:08,1112000/87e7399e212a9d80f2660c9ab6b1a4af-d.jpg,,
22401322,Microsoft Windows Server 2008 R2. The Administrator's Essential Reference,,,,"Dustin Hannifin, Naomi J. Alpern and Joey Alpern (Auth.)",2010,1,Syngress,,691,0,English,,,,978-1-59749-578-3,,,,,,,10.1016/B978-1-59749-578-3.00001-3,,,,0,,,,,,,1,70567794,pdf,50f3979d4114c62334a24513ab964c64,,,A:\\sciencedirect_books\\9781597495783 (20).pdf,0,2000-01-01 01:00:00,2016-04-03 02:51:08,1112000/50f3979d4114c62334a24513ab964c64-d.jpg,,
22401323,Citrix Xen: Desktop Implementation. A Practical Guide for IT Professionals,,,,Gareth R. James (Auth.),2010,1,Syngress,,464,0,English,,,,978-1-59749-582-0,,,,,,,10.1016/B978-1-59749-582-0.00001-4,,,,0,,,,,,,1,36210914,pdf,269b665930033f338a24dba90486dd65,,,A:\\sciencedirect_books\\9781597495820 (18).pdf,0,2000-01-01 01:00:00,2016-04-03 02:51:08,1112000/269b665930033f338a24dba90486dd65-d.jpg,,
22401324,"i: Phone and i: OS Forensics. Investigation, Analysis and Mobile Security for Apple i: Phone, i: Pad and i: OS Devices",,,,Andrew Hoog And Katie Strzempka (Auth.),2011,1,Syngress,,309,0,English,,,,978-1-59749-659-9,,,,,,,,,,,0,,,,,,,1,17112834,pdf,f75231a3fc0ea2e4c069c9136bd52527,,,A:\\sciencedirect_books\\9781597496599 (17).pdf,0,2000-01-01 01:00:00,2016-04-03 02:51:08,1112000/f75231a3fc0ea2e4c069c9136bd52527-d.jpg,,
22401325,Digital Forensics Processing and Procedures,,,,,2012,1,Syngress,,887,0,English,,,,978-1-59749-742-8,,,,,,,,,,,0,,,,,,,1,14979336,pdf,17e89680e110443a222566b68d3fc404,,,A:\\sciencedirect_books\\9781597497428 (30).pdf,0,2000-01-01 01:00:00,2016-04-03 02:51:08,1112000/17e89680e110443a222566b68d3fc404-d.jpg,,
22401326,UTM Security with Fortinet. Mastering Forti: OS,,,,"Kenneth Tam, Martín H. Hoz Salvador, Ken McAlpine, Rick Basile, Bruce Matsugu and Josh More (Eds.)",2013,1,Syngress,,458,0,English,,,,978-1-59749-747-3,,,,,,,,,,,0,,,,,,,1,10616385,pdf,2fde6929e293bad6e0016fbeaabd6183,,,A:\\sciencedirect_books\\9781597497473 (24).pdf,0,2000-01-01 01:00:00,2016-04-03 02:51:08,1112000/2fde6929e293bad6e0016fbeaabd6183-d.jpg,,
22401327,Network Intrusion Analysis,,,,,2012,1,Syngress,,239,0,English,,,,978-1-59749-962-0,,,,,,,10.1016/B978-1-59-749962-0.00001-8,,,,0,,,,,,,1,30080849,pdf,d85d658a5b33b95aff9acff43e29f37f,,,A:\\sciencedirect_books\\9781597499620 (13).pdf,0,2000-01-01 01:00:00,2016-04-03 02:51:08,1112000/d85d658a5b33b95aff9acff43e29f37f-d.jpg,,
22401328,Social Media Security,,,,,2012,1,Syngress,,329,0,English,,,,978-1-59749-986-6,,,,,,,10.1016/B978-1-59749-986-6.00001-1,,,,0,,,,,,,1,11090025,pdf,f49bc02ebabbeb84375229b8407fe3a0,,,A:\\sciencedirect_books\\9781597499866 (17).pdf,0,2000-01-01 01:00:00,2016-04-03 02:51:08,1112000/f49bc02ebabbeb84375229b8407fe3a0-d.jpg,,
22401329,Unified Communications Forensics. Anatomy of Common UC Attacks,,,,Nicholas Grant and Joseph Shaw (Auth.),2013,1,Syngress,,152,0,English,,,,978-1-59749-992-7,,,,,,,,,,,0,,,,,,,1,33963692,pdf,dc1647c2354a17e744722d541593d3dc,,,A:\\sciencedirect_books\\9781597499927 (17).pdf,0,2000-01-01 01:00:00,2016-04-03 02:51:08,1112000/dc1647c2354a17e744722d541593d3dc-d.jpg,,
22401330,Computer Incident Response and Forensics Team Management. Conducting a Successful Incident Response,,,,Leighton Johnson (Auth.),2013,1,Syngress,,323,0,English,,,,978-1-59749-996-5,,,,,,,10.1016/B978-1-59749-996-5.00001-7,,,,0,,,,,,,1,45518158,pdf,0d669ad085b92d3ff656ff97a562698e,,,A:\\sciencedirect_books\\9781597499965 (31).pdf,0,2000-01-01 01:00:00,2016-04-03 02:51:08,1112000/0d669ad085b92d3ff656ff97a562698e-d.jpg,,
22401331,Thematic Mapping from Satellite Imagery. An International Report,,,,J. Denègre (Eds.),1988,,Elsevier Applied Science,,197,0,English,,,,"978-1-85166-217-3,1-85166-217-0",,,,,,,,,,,0,,,,,,,1,25355223,pdf,c34c8fd1014a079206a9a1a5a02fa8ef,,,A:\\sciencedirect_books\\9781851662173 (20).pdf,0,2000-01-01 01:00:00,2016-04-03 02:51:08,1112000/c34c8fd1014a079206a9a1a5a02fa8ef-d.gif,,
22401332,"Cartography Past, Present and Future. A Festschrift for F.J. Ormeling",,,,D.W. Rhind and D.R.F. Taylor (Eds.),1989,0,Elsevier Applied Science,,198,0,English,,,,"978-1-85166-336-1,1-85166-336-3",,,,,,,,,,,0,,,,,,,1,5641871,pdf,0469f307f497f2825f2e332c08a7791c,,,A:\\sciencedirect_books\\9781851663361 (20).pdf,0,2000-01-01 01:00:00,2016-04-03 02:51:08,1112000/0469f307f497f2825f2e332c08a7791c-d.gif,,
22401333,"Western Europe, North America and Australasia. Western Europe, North America and Australasia",,,,Rolf Bohme (Auth.),1989,,Pergamon,,200,0,English,,,,"978-1-85166-357-6,1-85166-357-6",,,,,,,,,,,0,,,,,,,1,23765877,pdf,c1e8631fef034bb7a74af9776862cfad,,,A:\\sciencedirect_books\\9781851663576 (32).pdf,0,2000-01-01 01:00:00,2016-04-03 02:51:08,1112000/c1e8631fef034bb7a74af9776862cfad-d.jpg,,
22401334,Sulzer Centrifugal Pump Handbook,,,,Sulzer Pumps (Auth.),1989,,Elsevier Science,,331,0,English,,,,978-1-85166-442-9,,,,,,,,,,,0,,,,,,,1,5214492,pdf,8895f968471bcc8a7b346568a73c67af,,,A:\\sciencedirect_books\\9781851664429 (17).pdf,0,2000-01-01 01:00:00,2016-04-03 02:51:08,1112000/8895f968471bcc8a7b346568a73c67af-d.jpg,,
22401335,"Landfill Closures. Geosynthetics, Interface Friction and New Developments",,,,R.M. Koerner (Eds.),1991,,Elsevier Science Ltd,,252,0,English,,,,"978-1-85166-644-7,1-85166-644-3",,,,,,,,,,,0,,,,,,,1,6812762,pdf,0355d07c0109a0907b6120e77d37b5fa,,,A:\\sciencedirect_books\\9781851666447 (29).pdf,0,2000-01-01 01:00:00,2016-04-03 02:51:08,1112000/0355d07c0109a0907b6120e77d37b5fa-d.gif,,
22401336,"South America, Central America and Africa. South America, Central America and Africa",,,,Rolf Bohme (Eds.),1991,,Elsevier Science Ltd,,520,0,English,,,,"978-1-85166-661-4,1-85166-661-3,1-85166-357-6",,,,,,,,,,,0,,,,,,,1,55707999,pdf,e5d1ffd282587805ab40d20cf01f3905,,,A:\\sciencedirect_books\\9781851666614 (108).pdf,0,2000-01-01 01:00:00,2016-04-03 02:51:08,1112000/e5d1ffd282587805ab40d20cf01f3905-d.jpg,,
22401337,Spatial Database Transfer Standards. Current International Status,,,,H. Moellering (Eds.),1991,,Elsevier Applied Science,,250,0,English,,,,"978-1-85166-677-5,1-85166-677-X",,,,,,,,,,,0,,,,,,,1,3294261,pdf,6c333275e319d3b602bb96c3b2931676,,,A:\\sciencedirect_books\\9781851666775 (26).pdf,0,2000-01-01 01:00:00,2016-04-03 02:51:08,1112000/6c333275e319d3b602bb96c3b2931676-d.jpg,,
22401338,"Geosynthetics in Filtration, Drainage and Erosion Control",,,,R.M. Koerner (Eds.),1992,,Elsevier Science Ltd,,308,0,English,,,,"978-1-85166-796-3,1-85166-796-2",,,,,,,,,,,0,,,,,,,1,5710923,pdf,ce2a7faa0e133b1d8834b57258e30104,,,A:\\sciencedirect_books\\9781851667963 (26).pdf,0,2000-01-01 01:00:00,2016-04-03 02:51:08,1112000/ce2a7faa0e133b1d8834b57258e30104-d.gif,,
22401339,"High Temperature Aluminides and Intermetallics. Proceedings of the Second International ASM Conference on High Temperature Aluminides and Intermetallics, September 16–19, 1991, San Diego, CA, USA",,,,"S.H. Whang, D.P. Pope and C.T. Liu (Eds.)",1992,,Elsevier Science Ltd,,750,0,English,,,,"978-1-85166-822-9,1-85166-822-5",,,,,,,,,,,0,,,,,,,1,49033836,pdf,00a4f850d0fcb12f999478a011cf0d9a,,,A:\\sciencedirect_books\\9781851668229 (117).pdf,0,2000-01-01 01:00:00,2016-04-03 02:51:08,1112000/00a4f850d0fcb12f999478a011cf0d9a-d.jpg,,
22401340,Rheology of Foods,,,,R.P. Borwankar and C.F. Shoemaker (Eds.),1992,,Elsevier Science Ltd,,168,0,English,,,,"978-1-85166-877-9,1-85166-877-2",,,,,,,,,,,0,,,,,,,1,6122852,pdf,e88ebeb67be734015c327ef5e3c03cc2,,,A:\\sciencedirect_books\\9781851668779 (15).pdf,0,2000-01-01 01:00:00,2016-04-03 02:51:08,1112000/e88ebeb67be734015c327ef5e3c03cc2-d.gif,,
22401341,"Laser Processing of Materials in Japan. Research, Development and Applications",,,,Japan Technical Information (Auth.),1990,,Elsevier Science,,110,0,English,,,,"978-1-85617-036-9,1-85617-036-5",,,,,,,,,,,0,,,,,,,1,1342425,pdf,9121df5ffc3796617ac4f20b8176ab8a,,,A:\\sciencedirect_books\\9781856170369 (10).pdf,0,2000-01-01 01:00:00,2016-04-03 02:51:08,1112000/9121df5ffc3796617ac4f20b8176ab8a-d.jpg,,
22401342,Distributed Process Control Report,,,,Architecture Technology Corp. (Auth.),1990,,Elsevier Advanced Technology,,177,0,English,,,,978-1-85617-045-1,,,,,,,,,,,0,,,,,,,1,3499327,pdf,23074b5c12a01329f63b122ae2571724,,,A:\\sciencedirect_books\\9781856170451 (13).pdf,0,2000-01-01 01:00:00,2016-04-03 02:51:08,1112000/23074b5c12a01329f63b122ae2571724-d.gif,,
22401343,Motion Control Report,,,,Architecture Technology Corp. (Auth.),1990,,Elsevier Advanced Technology,,90,0,English,,,,978-1-85617-048-2,,,,,,,,,,,0,,,,,,,1,2293729,pdf,76398c29bfd9e5e8ef9359559bf350e6,,,A:\\sciencedirect_books\\9781856170482 (13).pdf,0,2000-01-01 01:00:00,2016-04-03 02:51:08,1112000/76398c29bfd9e5e8ef9359559bf350e6-d.gif,,
22401344,PCs in the Factory,,,,Architecture Technology Corp. (Auth.),1990,,Elsevier Advanced Technology,,93,0,English,,,,978-1-85617-049-9,,,,,,,,,,,0,,,,,,,1,1638866,pdf,b89f7b4e68aaf4fd26e26858af619f2b,,,A:\\sciencedirect_books\\9781856170499 (12).pdf,0,2000-01-01 01:00:00,2016-04-03 02:51:08,1112000/b89f7b4e68aaf4fd26e26858af619f2b-d.gif,,
22401345,"Magnetic Materials in Japan. Research, Applications and Potential",,,,Japan Technical Information (Eds.),1991,,,,336,0,English,,,,978-1-85617-077-2,,,,,,,,,,,0,,,,,,,1,5334243,pdf,05c2fbb08137c14a3e70cfd85b5df2d5,,,A:\\sciencedirect_books\\9781856170772 (8).pdf,0,2000-01-01 01:00:00,2016-04-03 02:51:08,1112000/05c2fbb08137c14a3e70cfd85b5df2d5-d.gif,,
22401346,Advanced Materials 1991–1992. I. Source Book,,,,J. Binner (Eds.),1991,,Elsevier Science,,417,0,English,,,,"978-1-85617-081-9,1-85617-081-0",,,,,,,,,,,0,,,,,,,1,6162402,pdf,0bf31a27888762dd80cae324607b2e2c,,,A:\\sciencedirect_books\\9781856170819 (8).pdf,0,2000-01-01 01:00:00,2016-04-03 02:51:08,1112000/0bf31a27888762dd80cae324607b2e2c-d.jpg,,
22401347,Advanced Materials 1991–1992. II. Directory,,,,A. Fletcher (Auth.),1991,,Elsevier Advanced Technology,,357,0,English,,,,978-1-85617-082-6,,,,,,,,,,,0,,,,,,,1,3879171,pdf,73fcca55877afa9b63563ce19e8d9d6e,,,A:\\sciencedirect_books\\9781856170826 (7).pdf,0,2000-01-01 01:00:00,2016-04-03 02:51:08,1112000/73fcca55877afa9b63563ce19e8d9d6e-d.jpg,,
22401348,Bridge Technology Report,,,,Architecture Technology Corp. (Auth.),1991,,Elsevier Advanced Technology,,151,0,English,,,,978-1-85617-085-7,,,,,,,,,,,0,,,,,,,1,9644362,pdf,34661941b6f03c8b3f5613e3c0ec7953,,,A:\\sciencedirect_books\\9781856170857 (33).pdf,0,2000-01-01 01:00:00,2016-04-03 02:51:08,1112000/34661941b6f03c8b3f5613e3c0ec7953-d.gif,,
22401349,Fiber Distributed Data Interface [FDDI] Technology Report,,,,Architecture Technology Corp. (Auth.),1991,,Elsevier Advanced Technology,,198,0,English,,,,978-1-85617-087-1,,,,,,,,,,,0,,,,,,,1,6120404,pdf,5840d10423d57c56a05ca9c6de4b8c2f,,,A:\\sciencedirect_books\\9781856170871 (59).pdf,0,2000-01-01 01:00:00,2016-04-03 02:51:08,1112000/5840d10423d57c56a05ca9c6de4b8c2f-d.gif,,
22401350,Token Ring Technology Report,,,,Architecture Technology Corp. (Auth.),1991,,Elsevier Advanced Technology,,142,0,English,,,,978-1-85617-094-9,,,,,,,,,,,0,,,,,,,1,3553097,pdf,3ffdb07bff7e0d60e061fb44b998ec79,,,A:\\sciencedirect_books\\9781856170949 (31).pdf,0,2000-01-01 01:00:00,2016-04-03 02:51:08,1112000/3ffdb07bff7e0d60e061fb44b998ec79-d.gif,,
22401351,Star: LAN Technology Report,,,,Architecture Technology Corp. (Auth.),1991,,Elsevier Advanced Technology,,105,0,English,,,,978-1-85617-099-4,,,,,,,,,,,0,,,,,,,1,4046276,pdf,333b4c58350c32e07bd74a492ba37848,,,A:\\sciencedirect_books\\9781856170994 (16).pdf,0,2000-01-01 01:00:00,2016-04-03 02:51:08,1112000/333b4c58350c32e07bd74a492ba37848-d.gif,,
22401352,Computer Architecture Technology Trends,,,,Architecture Technology Corp. (Auth.),1991,,Pergamon Press,,53,0,English,,,,978-1-85617-119-9,,,,,,,,,,,0,,,,,,,1,10210775,pdf,c9b68ceb55df20f348d5bdab4fe46146,,,A:\\sciencedirect_books\\9781856171199 (11).pdf,0,2000-01-01 01:00:00,2016-04-03 02:51:08,1112000/c9b68ceb55df20f348d5bdab4fe46146-d.gif,,
22401353,The Cell Control Report,,,,Architecture Technology Corp. (Auth.),1991,,Elsevier Advanced Technology,,120,0,English,,,,978-1-85617-131-1,,,,,,,,,,,0,,,,,,,1,3563598,pdf,dd2d0baea911c12062d9be8eaea7fe8f,,,A:\\sciencedirect_books\\9781856171311 (13).pdf,0,2000-01-01 01:00:00,2016-04-03 02:51:08,1112000/dd2d0baea911c12062d9be8eaea7fe8f-d.gif,,
22401354,Computer Aided Process Planning (CAPP),,,,Architecture Technology Corp. (Auth.),1991,,Elsevier Advanced Technology,,78,0,English,,,,978-1-85617-134-2,,,,,,,,,,,0,,,,,,,1,1301326,pdf,1c779ee4a0d8840c4329e2c3fe1aa183,,,A:\\sciencedirect_books\\9781856171342 (11).pdf,0,2000-01-01 01:00:00,2016-04-03 02:51:08,1112000/1c779ee4a0d8840c4329e2c3fe1aa183-d.gif,,
22401355,Municipal Solid Waste Recycling in Western Europe to 1996,,,,R. Reidy (Auth.),1992,1st,Elsevier Science,,243,0,English,,,,978-1-85617-138-0,,,,,,,,,,,0,,,,,,,1,2704251,pdf,6a15ce97a3756be487bba2be98398541,,,A:\\sciencedirect_books\\9781856171380 (13).pdf,0,2000-01-01 01:00:00,2016-04-03 02:51:08,1112000/6a15ce97a3756be487bba2be98398541-d.jpg,,
22401356,Advanced Materials in Japan. Source Book 1992,,,,COMLINE International Corp. (Auth.),1992,,Elsevier Science,,461,0,English,,,,978-1-85617-158-8,,,,,,,,,,,0,,,,,,,1,6650226,pdf,d69889f6dd84a3d2f448e4e6115bbdb9,,,A:\\sciencedirect_books\\9781856171588 (14).pdf,0,2000-01-01 01:00:00,2016-04-03 02:51:08,1112000/d69889f6dd84a3d2f448e4e6115bbdb9-d.jpg,,
22401357,Proactive Maintenance for Mechanical Systems,,,,E.C. Fitch (Auth.),1992,,Elsevier Science Ltd,,337,0,English,,,,978-1-85617-166-3,,,,,,,,,,,0,,,,,,,1,12749558,pdf,56d588540e6c1e3a39f0571f286bd8c3,,,A:\\sciencedirect_books\\9781856171663 (15).pdf,0,2000-01-01 01:00:00,2016-04-03 02:51:08,1112000/56d588540e6c1e3a39f0571f286bd8c3-d.jpg,,
22401358,"Metal Powders. A Global Survey of Production, Applications and Markets",,,,J. Capus (Auth.),1993,,Elsevier Science,,170,0,English,,,,978-1-85617-174-8,,,,,,,,,,,0,,,,,,,1,3219625,pdf,e763be1aca4e195d05a28add1920ba9d,,,A:\\sciencedirect_books\\9781856171748 (11).pdf,0,2000-01-01 01:00:00,2016-04-03 02:51:08,1112000/e763be1aca4e195d05a28add1920ba9d-d.gif,,
22401359,"Components and Sub-Assemblies. The Guide to Manufacturers, Distributors and Agents",,,,C.G. Wedgwood (Eds.),1993,,Elsevier Advanced Technology,,566,0,English,,,,978-1-85617-175-5,,,,,,,,,,,0,,,,,,,1,92860761,pdf,a240995f4cb24e1e694f59242b8749ac,,,A:\\sciencedirect_books\\9781856171755 (12).pdf,0,2000-01-01 01:00:00,2016-04-03 02:51:08,1112000/a240995f4cb24e1e694f59242b8749ac-d.gif,,
22401360,European Contract Electronics Assembly Industry–1993–97. A Strategic Study of the European CEM Industry,,,,EriC. Harkness (Auth.),1993,1st,Reed Electronic Research,,188,0,English,,,,978-1-85617-177-9,,,,,,,,,,,0,,,,,,,1,2982971,pdf,fd369d7d9c73251dbf39620f4097ad90,,,A:\\sciencedirect_books\\9781856171779 (12).pdf,0,2000-01-01 01:00:00,2016-04-03 02:51:08,1112000/fd369d7d9c73251dbf39620f4097ad90-d.gif,,
22401361,Profile of the Worldwide Semiconductor Industry–Market Prospects to 1997. Market Prospects to 1997,,,,A. Fletcher (Auth.),1995,6th edition,Elsevier Science,,532,0,English,,,,978-1-85617-185-4,,,,,,,,,,,0,,,,,,,1,29500632,pdf,c7c866e829b092f886bc7b7c3736f25c,,,A:\\sciencedirect_books\\9781856171854 (10).pdf,0,2000-01-01 01:00:00,2016-04-03 02:51:08,1112000/c7c866e829b092f886bc7b7c3736f25c-d.jpg,,
22401362,Data Book of Thermoset Resins for Composites,,,,T.F. Starr (Auth.),1993,,Elsevier Science,,127,0,English,,,,978-1-85617-196-0,,,,,,,,,,,0,,,,,,,1,5168230,pdf,75be5131d7013b8a4238c247ec960740,,,A:\\sciencedirect_books\\9781856171960 (9).pdf,0,2000-01-01 01:00:00,2016-04-03 02:51:08,1112000/75be5131d7013b8a4238c247ec960740-d.gif,,
22401363,Geotextiles and Geomembranes Handbook,,,,T.S. Ingold (Eds.),1994,0,Elsevier Science,,612,0,English,,,,978-1-85617-198-4,,,,,,,,,,,0,,,,,,,1,13884671,pdf,7272c6055845ab8a285a86bf0063de1f,,,A:\\sciencedirect_books\\9781856171984 (13).pdf,0,2000-01-01 01:00:00,2016-04-03 02:51:08,1112000/7272c6055845ab8a285a86bf0063de1f-d.gif,,
22401364,"America, Japan & Asia Pacific. America, Japan & Asia Pacific",,,,Kenneth F. Wilson (Auth.),1994,,Elsevier Science,,256,0,English,,,,978-1-85617-200-4,,,,,,,,,,,0,,,,,,,1,5075482,pdf,8cd5950ef63138fd1b249d7e318c34c0,,,A:\\sciencedirect_books\\9781856172004 (11).pdf,0,2000-01-01 01:00:00,2016-04-03 02:51:08,1112000/8cd5950ef63138fd1b249d7e318c34c0-d.jpg,,
22401365,Emerging Countries & World Summary,,,,Kenneth F. Wilson (Auth.),1994,,Elsevier Science,,188,0,English,,,,978-1-85617-202-8,,,,,,,,,,,0,,,,,,,1,5004212,pdf,e83686334b294ed28b82509328905dee,,,A:\\sciencedirect_books\\9781856172028 (12).pdf,0,2000-01-01 01:00:00,2016-04-03 02:51:08,1112000/e83686334b294ed28b82509328905dee-d.jpg,,
22401366,The Reinforced Plastics Handbook,,,,J. Murphy (Auth.),1994,1st,Elsevier Science,,544,0,English,,,,978-1-85617-217-2,,,,,,,,,,,0,,,,,,,1,23483659,pdf,72656d22157218f156451842b9146933,,,A:\\sciencedirect_books\\9781856172172 (30).pdf,0,2000-01-01 01:00:00,2016-04-03 02:51:08,1112000/72656d22157218f156451842b9146933-d.gif,,
22401367,European Electronics Directory 1994. Systems and Applications,,,,C.G. Wedgwood (Eds.),1994,,Elsevier,,622,0,English,,,,978-1-85617-229-5,,,,,,,,,,,0,,,,,,,1,84701090,pdf,cfbf7ef9e19798f2608ed7657e365f37,,,A:\\sciencedirect_books\\9781856172295 (12).pdf,0,2000-01-01 01:00:00,2016-04-03 02:51:08,1112000/cfbf7ef9e19798f2608ed7657e365f37-d.gif,,
22401368,Pneumatic Handbook,,,,"Antony Barber, C.Eng., M.Sc.,F.I.Mech.E., M.R.Ae.S. (Auth.)",1997,8,Elsevier Science,,647,0,English,,,,978-1-85617-249-3,,,,,,,,,,,0,,,,,,,1,23916657,pdf,95981c77957114646c90c6c2bbc5b43d,,,A:\\sciencedirect_books\\9781856172493 (17).pdf,0,2000-01-01 01:00:00,2016-04-03 02:51:08,1112000/95981c77957114646c90c6c2bbc5b43d-d.jpg,,
22401369,Connector Industry. A Profile of the European Connector Industry–Market Prospects to 1999,,,,Andrew Fletcher (Auth.),1995,6th,Reed Electronic Research,,193,0,English,,,,978-1-85617-254-7,,,,,,,,,,,0,,,,,,,1,2451019,pdf,5d0ed717a63f2d5ea9c0d032338547d9,,,A:\\sciencedirect_books\\9781856172547 (8).pdf,0,2000-01-01 01:00:00,2016-04-03 02:51:08,1112000/5d0ed717a63f2d5ea9c0d032338547d9-d.gif,,
22401370,Handbook of Infra-red Detection Technologies,,,,Mohamed Henini and Manijeh Razeghi (Eds.),2002,1,Elsevier Science,,514,0,English,,,,978-1-85617-388-9,,,,,,,,,,,0,,,,,,,1,25470294,pdf,b9cca1ba582dc88b32d89ede7f256474,,,A:\\sciencedirect_books\\9781856173889 (15).pdf,0,2000-01-01 01:00:00,2016-04-03 02:51:08,1112000/b9cca1ba582dc88b32d89ede7f256474-d.jpg,,
22401371,Stan Shiels on Centrifugal Pumps. Collected articles from “World Pumps” magazine,,,,Stan Shiels (Auth.),2004,1,Elsevier Science,,263,0,English,,,,978-1-85617-445-9,,,,,,,,,,,0,,,,,,,1,7987503,pdf,43005e19b025e8c5c81c57ab3d8fa149,,,A:\\sciencedirect_books\\9781856174459 (30).pdf,0,2000-01-01 01:00:00,2016-04-03 02:51:08,1112000/43005e19b025e8c5c81c57ab3d8fa149-d.jpg,,
22401372,"Metal Powders. A Global Survey of Production, Applications and Markets to 2010",,,,Joseph M Capus (Auth.),2005,4,Elsevier Science,,226,0,English,,,,978-1-85617-479-4,,,,,,,,,,,0,,,,,,,1,6098755,pdf,5a434884623f8887d1ca372c9590eff8,,,A:\\sciencedirect_books\\9781856174794 (13).pdf,0,2000-01-01 01:00:00,2016-04-03 02:51:08,1112000/5a434884623f8887d1ca372c9590eff8-d.jpg,,
22401373,Earthquake-Resistant Structures,,,,,2009,1,Butterworth-Heinemann,,409,0,English,,,,978-1-85617-501-2,,,,,,,,,,,0,,,,,,,1,8229491,pdf,e3c394b7d802ed3f95e91d23eb0db821,,,A:\\sciencedirect_books\\9781856175012 (24).pdf,0,2000-01-01 01:00:00,2016-04-03 02:51:08,1112000/e3c394b7d802ed3f95e91d23eb0db821-d.jpg,,
22401374,Scalable Vo: IP Mobility. Integration and Deployment,,,,Joseph Epstein (Auth.),2009,1,Newnes,,384,0,English,,,,978-1-85617-508-1,,,,,,,10.1016/B978-1-85617-508-1.00001-3,,,,0,,,,,,,1,6740095,pdf,284ef9bdf137c32be3cc49deeff344fd,,,A:\\sciencedirect_books\\9781856175081 (13).pdf,0,2000-01-01 01:00:00,2016-04-03 02:51:08,1112000/284ef9bdf137c32be3cc49deeff344fd-d.jpg,,
22401375,Atomic Force Microscopy in Process Engineering. Introduction to AFM for Improved Processes and Products,,,,W. Richard Bowen and Nidal Hilal (Auth.),2009,1,Butterworth-Heinemann,,289,0,English,,,,978-1-85617-517-3,,,,,,,,,,,0,,,,,,,1,9108027,pdf,6ab345214e9fdb495cc1a8c9f92d57e8,,,A:\\sciencedirect_books\\9781856175173 (15).pdf,0,2000-01-01 01:00:00,2016-04-03 02:51:08,1112000/6ab345214e9fdb495cc1a8c9f92d57e8-d.jpg,,
22401376,The Benefits of e-Business Performance Measurement Systems. A report for CIMA – the Chartered Institute of Management Accountants,,,,David Barnes and Matthew Hinton (Auth.),2008,1,CIMA Publishing,,69,0,English,,,,978-1-85617-525-8,,,,,,,,,,,0,,,,,,,1,1045095,pdf,89c1594af984df1c1d51ce2f6b9fd6d6,,,A:\\sciencedirect_books\\9781856175258 (11).pdf,0,2000-01-01 01:00:00,2016-04-03 02:51:08,1112000/89c1594af984df1c1d51ce2f6b9fd6d6-d.jpg,,
22401377,High-Rise Security and Fire Life Safety,,,,Craighead (Auth.),2009,3,Butterworth-Heinemann,,894,0,English,,,,978-1-85617-555-5,,,,,,,,,,,0,,,,,,,1,23482496,pdf,59aae8706358bfbdfc51d9af0e3beb1a,,,A:\\sciencedirect_books\\9781856175555 (39).pdf,0,2000-01-01 01:00:00,2016-04-03 02:51:08,1112000/59aae8706358bfbdfc51d9af0e3beb1a-d.jpg,,
22401378,Real-Time Embedded Multithreading Using Thread: X,,,,Edward L. Lamie (Auth.),2009,2,CRC Press,,542,0,English,,,,978-1-85617-601-9,,,,,,,,,,,0,,,,,,,1,8979065,pdf,d5c4eb9afa5c7275852de30ebf994bd3,,,A:\\sciencedirect_books\\9781856176019 (32).pdf,0,2000-01-01 01:00:00,2016-04-03 02:51:08,1112000/d5c4eb9afa5c7275852de30ebf994bd3-d.jpg,,
22401379,Water Regulations in Brief,,,,Ray Tricker (Auth.),2009,,taylor & francis,,256,0,English,,,,978-1-85617-628-6,,,,,,,,,,,0,,,,,,,1,9125423,pdf,dc809ed293b03e823329ec47737a4fad,,,A:\\sciencedirect_books\\9781856176286 (22).pdf,0,2000-01-01 01:00:00,2016-04-03 02:51:08,1112000/dc809ed293b03e823329ec47737a4fad-d.jpg,,
22401380,Real-Time Embedded Multithreading Using Thread: X and MIPS,,,,Edward L. Lamie (Auth.),2009,Pap/Cdr,CRC Press,,456,0,English,,,,978-1-85617-631-6,,,,,,,,,,,0,,,,,,,1,4008847,pdf,34c8ae00923841f0a0d2e427a22824ec,,,A:\\sciencedirect_books\\9781856176316 (29).pdf,0,2000-01-01 01:00:00,2016-04-03 02:51:08,1112000/34c8ae00923841f0a0d2e427a22824ec-d.jpg,,
22401381,"Smart Buildings Systems for Architects, Owners and Builders",,,,James Sinopoli (Auth.),2010,1,Butterworth-Heinemann,,225,0,English,,,,978-1-85617-653-8,,,,,,,10.1016/B978-1-85617-653-8.00001-6,,,,0,,,,,,,1,3593200,pdf,cf296d3bfa112ae46162db3c0fea4939,,,A:\\sciencedirect_books\\9781856176538 (22).pdf,0,2000-01-01 01:00:00,2016-04-03 02:51:08,1112000/cf296d3bfa112ae46162db3c0fea4939-d.jpg,,
22401382,"Lees' Process Safety Essentials. Hazard Identification, Assessment and Control",,,,Sam Mannan (Auth.),2014,1,Butterworth-Heinemann,,538,0,English,,,,978-1-85617-776-4,,,,,,,,,,,0,,,,,,,1,12855867,pdf,845d34c20d5e9582cb48cfcb7aedcf20,,,A:\\sciencedirect_books\\9781856177764 (34).pdf,0,2000-01-01 01:00:00,2016-04-03 02:51:08,1112000/845d34c20d5e9582cb48cfcb7aedcf20-d.jpg,,
22401383,Working Guide to Vapor-liquid Phase Equilibria Calculations,,,,Tarek Ahmed (Auth.),2010,1,Gulf Professional Publishing,,136,0,English,,,,978-1-85617-826-6,,,,,,,,,,,0,,,,,,,1,3499461,pdf,899d03cd137f87272471ef8108f4b823,,,A:\\sciencedirect_books\\9781856178266 (13).pdf,0,2000-01-01 01:00:00,2016-04-03 02:51:08,1112000/899d03cd137f87272471ef8108f4b823-d.jpg,,
22401384,Reservoir Exploration and Appraisal,,,,,2011,1,Gulf Professional Publishing,,163,0,English,,,,978-1-85617-853-2,,,,,,,,,,,0,,,,,,,1,15593962,pdf,af4a64820ffc3b05a9d69d08a26ae442,,,A:\\sciencedirect_books\\9781856178532 (18).pdf,0,2000-01-01 01:00:00,2016-04-03 02:51:08,1112000/af4a64820ffc3b05a9d69d08a26ae442-d.jpg,,
22401385,Introduction to Auto: CAD 2010. 2D and 3D Design,,,,Alf Yarwood (Auth.),2009,,taylor & francis,,428,0,English,,,,978-1-85617-868-6,,,,,,,,,,,0,,,,,,,1,14744431,pdf,a0c3947809a805dc434d28e21e39a8d6,,,A:\\sciencedirect_books\\9781856178686 (26).pdf,0,2000-01-01 01:00:00,2016-04-03 02:51:08,1112000/a0c3947809a805dc434d28e21e39a8d6-d.jpg,,
22401386,Managing Cultural Differences,,,,,2011,8,Routledge,,579,0,English,,,,978-1-85617-923-2,,,,,,,,,,,0,,,,,,,1,3987357,pdf,be32f658d031639a3f70cfc5a2f8a73a,,,A:\\sciencedirect_books\\9781856179232 (24).pdf,0,2000-01-01 01:00:00,2016-04-03 02:51:08,1112000/be32f658d031639a3f70cfc5a2f8a73a-d.jpg,,
22401387,"Eastern Europe, Asia, Oceania and Antarctica. Eastern Europe, Asia, Oceania and Antarctica",,,,R. Böhme and R W Anson (Auth.),1993,,Pergamon,,453,0,English,,,,"978-1-85861-034-4,1-85861-034-6",,,,,,,,,,,0,,,,,,,1,29915966,pdf,2f066401b33b6dfa7c6966ff28a9772c,,,A:\\sciencedirect_books\\9781858610344 (104).pdf,0,2000-01-01 01:00:00,2016-04-03 02:51:08,1112000/2f066401b33b6dfa7c6966ff28a9772c-d.gif,,
22401388,Water in Foods. Fundamental Aspects and Their Significance in Relation to Processing of Foods,,,,"Fito, Mulet and McKenna (Eds.)",1994,0,Pergamon,,535,0,English,,,,"978-1-85861-037-5,1-85861-037-0",,,,,,,,,,,0,,,,,,,1,10830412,pdf,3e94d55b6ace5b9a2adee16319005ffc,,,A:\\sciencedirect_books\\9781858610375 (37).pdf,0,2000-01-01 01:00:00,2016-04-03 02:51:08,1112000/3e94d55b6ace5b9a2adee16319005ffc-d.gif,,
22401389,Colloids in the Aquatic Environment,,,,T. F. Tadros and J. Gregory (Eds.),1993,,Elsevier Science Pub Ltd,,296,0,English,,,,978-1-85861-038-2,,,,,,,,,,,0,,,,,,,1,7401839,pdf,f33a012d5194403d6f8276a75fa79934,,,A:\\sciencedirect_books\\9781858610382 (25).pdf,0,2000-01-01 01:00:00,2016-04-03 02:51:08,1112000/f33a012d5194403d6f8276a75fa79934-d.gif,,
22401390,Fatigue and Tribological Properties of Plastics and Elastomers,,,,PDL Staff (Auth.),1995,1,CRC Press,,458,0,English,,,,"978-1-884207-15-0,1-884207-15-4",,,,,,,,,,,0,,,,,,,1,78164087,pdf,11fc4c788d596436b83c2b1eb384e59e,,,A:\\sciencedirect_books\\9781884207150 (113).pdf,0,2000-01-01 01:00:00,2016-04-03 02:51:08,1112000/11fc4c788d596436b83c2b1eb384e59e-d.jpg,,
22401391,Handbook of Polymers,,,,George Wypych (Auth.),2013,1,ChemTec,,686,0,English,,,,978-1-895198-47-8,,,,,,,,,,,0,,,,,,,1,8676133,pdf,6d701cde4a2ba0cae39ffd9ba82f878b,,,A:\\sciencedirect_books\\9781895198478 (202).pdf,0,2000-01-01 01:00:00,2016-04-03 02:51:08,1112000/6d701cde4a2ba0cae39ffd9ba82f878b-d.jpg,,
22401392,Antistatics Databook,,,,George Wypych (Auth.),2014,1,ChemTec,,483,0,English,,,,"978-1-895198-61-4,978-1-895198-77-5",,,,,,,,,,,0,,,,,,,1,1580211,pdf,cf8b4fcbb0d7601e9470d0cfd8d8000a,,,A:\\sciencedirect_books\\9781895198614 (5).pdf,0,2000-01-01 01:00:00,2016-04-03 02:51:08,1112000/cf8b4fcbb0d7601e9470d0cfd8d8000a-d.jpg,,
22401393,Handbook of Material Weathering,,,,George Wypych (Auth.),2013,5,ChemTec,,820,0,English,,,,978-1-895198-62-1,,,,,,,,,,,0,,,,,,,1,103964112,pdf,3585f995308c19a8f0f81e0f438deb47,,,A:\\sciencedirect_books\\9781895198621 (24).pdf,0,2000-01-01 01:00:00,2016-04-03 02:51:08,1112000/3585f995308c19a8f0f81e0f438deb47-d.jpg,,
22401394,"Databook of Antiblocking, Release, and Slip Additives",,,,Anna Wypych (Auth.),2014,1,ChemTec,,430,0,English,,,,"978-1-895198-63-8,978-1-895198-76-8",,,,,,,,,,,0,,,,,,,1,1706364,pdf,f5407428a590dc6084ba1f7e332bbd53,,,A:\\sciencedirect_books\\9781895198638 (7).pdf,0,2000-01-01 01:00:00,2016-04-03 02:51:08,1112000/f5407428a590dc6084ba1f7e332bbd53-d.jpg,,
22401395,"Sulfur. History, Technology, Applications & Industry",,,,Gerald Kutney (Auth.),2013,2,ChemTec,,242,0,English,,,,978-1-895-19867-6,,,,,,,,,,,0,,,,,,,1,13901234,pdf,ae09cb05ef6ccd85d6980361333a6036,,,A:\\sciencedirect_books\\9781895198676 (15).pdf,0,2000-01-01 01:00:00,2016-04-03 02:51:08,1112000/ae09cb05ef6ccd85d6980361333a6036-d.jpg,,
22401396,Tensegrity. Structural Systems for the Future,,,,René Motro (Auth.),2003,1,Butterworth-Heinemann,,243,0,English,,,,978-1-903996-37-9,,,,,,,,,,,0,,,,,,,1,10625938,pdf,b339f6410b1855e0d651147fbee4d787,,,A:\\sciencedirect_books\\9781903996379 (14).pdf,0,2000-01-01 01:00:00,2016-04-03 02:51:08,1112000/b339f6410b1855e0d651147fbee4d787-d.jpg,,
22401397,Analysis of Composite Structures,,,,Christian Decolon (Auth.),2002,,Butterworth-Heinemann,,323,0,English,,,,978-1-903996-62-1,,,,,,,,,,,0,,,,,,,1,4648276,pdf,b2495f215ce5c7b277668b8070c10112,,,A:\\sciencedirect_books\\9781903996621 (21).pdf,0,2000-01-01 01:00:00,2016-04-03 02:51:08,1112000/b2495f215ce5c7b277668b8070c10112-d.jpg,,
22401398,DBAs Guide to Databases Under Linux,,,,"David Egan, Paul Zikopoulos and Chris Rogers (Eds.)",2000,1,Syngress,,491,0,English,,,,978-1-928994-04-6,,,,,,,,,,,0,,,,,,,1,27186912,pdf,04588b7af673035f115ad661a115bee4,,,A:\\sciencedirect_books\\9781928994046 (17).pdf,0,2000-01-01 01:00:00,2016-04-03 02:51:08,1112000/04588b7af673035f115ad661a115bee4-d.jpg,,
22401399,Configuring Citrix Meta: Frame for Windows 2000 Terminal Services,,,,Craft (Auth.),2000,1,Syngress,,544,0,English,,,,978-1-928994-18-3,,,,,,,,,,,0,,,,,,,1,27128561,pdf,c4af14a07c7eb4986c9a229270732b3f,,,A:\\sciencedirect_books\\9781928994183 (19).pdf,0,2000-01-01 01:00:00,2016-04-03 02:51:08,1112000/c4af14a07c7eb4986c9a229270732b3f-d.jpg,,
22401400,Biz: Talk Server 2000 Developer's Guide,,,,"Robert Shimonski, Chris Farmer, Henk-Evert Sonder and Milton Todd (Eds.)",2002,1,Syngress,,523,0,English,,,,"978-1-928994-40-4,1-928994-80-6,1-931836-57-4,1-928994-23-7,1-928994-19-9,1-928994-48-2",,,,,,,,,,,0,,,,,,,1,104527384,pdf,3f87774d138c97cdf8ca75bdd0f3b3b7,,,A:\\sciencedirect_books\\9781928994404 (15).pdf,0,2000-01-01 01:00:00,2016-04-03 02:51:08,1112000/3f87774d138c97cdf8ca75bdd0f3b3b7-d.jpg,,
22401401,Bluetooth Application Developer's Guide. The Short Range Interconnect Solution,,,,"David Kammer, Gordon McNutt, Brian Senese and Jennifer Bray * (Eds.)",2002,1,Syngress,,530,0,English,,,,978-1-928994-42-8,,,,,,,,,,,0,,,,,,,1,56568958,pdf,bdac0848f986d56c3f18e90bd55910ef,,,A:\\sciencedirect_books\\9781928994428 (17).pdf,0,2000-01-01 01:00:00,2016-04-03 02:51:08,1112000/bdac0848f986d56c3f18e90bd55910ef-d.jpg,,
22401402,Hack Proofing Cold: Fusion,,,,"Greg Meyer, David An, Rob Rusher, Sarge, Daryl Banttari and Steven Casco (Eds.)",2002,1,Syngress,,517,0,English,,,,978-1-928994-77-0,,,,,,,,,,,0,,,,,,,1,12552871,pdf,fd5330a8f2e797ac806b0eeaeaab445a,,,A:\\sciencedirect_books\\9781928994770 (18).pdf,0,2000-01-01 01:00:00,2016-04-03 02:51:08,1112000/fd5330a8f2e797ac806b0eeaeaab445a-d.jpg,,
22401403,"War: Driving. Drive, Detect, Defend",,,,"Chris Hurley, Frank Thornton, Michael Puchol and Russ Rogers (Eds.)",2004,1st,Syngress,,495,0,English,,,,978-1-931836-03-6,,,,,,,,,,,0,,,,,,,1,72584213,pdf,60747f4c2c57a2093312a5c5737e049f,,,A:\\sciencedirect_books\\9781931836036 (17).pdf,0,2000-01-01 01:00:00,2016-04-03 02:51:08,1112000/60747f4c2c57a2093312a5c5737e049f-d.jpg,,
22401404,Configuring Citrix Meta: Frame XP for Windows. Including Feature Release 1,,,,"Chris Broomes, Elias N. Khnaser, Ralph Crump and Melissa Craft (Eds.)",2002,1,Syngress,,663,0,English,,,,"978-1-931836-53-1,1-928994-23-7,1-928994-31-8,1-928994-60-1",,,,,,,,,,,0,,,,,,,1,58562190,pdf,dc1c248cbe87fb7f17659a63be7d3d5f,,,A:\\sciencedirect_books\\9781931836531 (21).pdf,0,2000-01-01 01:00:00,2016-04-03 02:51:08,1112000/dc1c248cbe87fb7f17659a63be7d3d5f-d.jpg,,
22401405,Configuring Symantec Anti: Virus Enterprise Edition,,,,"Laura E. Hunter, Athar A. Khan, JayCee Taylor, James Stanger, Ph.D., and Robert J. Shimonski (Auth.)",2003,1,Syngress,,718,0,English,,,,978-1-931836-81-4,,,,,,,,,,,0,,,,,,,1,160499545,pdf,7a79a5ef5a10fff87721ab46c40600ea,,,A:\\sciencedirect_books\\9781931836814 (19).pdf,0,2000-01-01 01:00:00,2016-04-03 02:51:08,1112000/7a79a5ef5a10fff87721ab46c40600ea-d.jpg,,
22401406,Configuring Net: Screen Firewalls,,,,"Rob Cameron, Christopher Cantrell, Dave Killion, Kevin Russell and Kenneth Tam (Auth.)",2005,1,Syngress,,704,0,English,,,,978-1-932266-39-9,,,,,,,,,,,0,,,,,,,1,10763841,pdf,cf65a1897c9e68fe48f73aa9d3fcd714,,,A:\\sciencedirect_books\\9781932266399 (22).pdf,0,2000-01-01 01:00:00,2016-04-03 02:51:08,1112000/cf65a1897c9e68fe48f73aa9d3fcd714-d.jpg,,
22401407,"The ASHRAE Green: Guide. The Design, Construction, and Operation of Sustainable Buildings",,,,ASHRAE Press (Eds.),2006,2,Butterworth-Heinemann,,387,0,English,,,,978-1-933742-07-6,,,,,,,,,,,0,,,,,,,1,30769468,pdf,4135e12f597c81ea56784bf05f3e4d71,,,A:\\sciencedirect_books\\9781933742076 (26).pdf,0,2000-01-01 01:00:00,2016-04-03 02:51:08,1112000/4135e12f597c81ea56784bf05f3e4d71-d.jpg,,
22401408,La pratique chirurgicale en gynécologie obstétrique,,,,"Lansac, Jacques (Auth.)",2011,ELSEVIER-MASSON,Elsevier Masson,,525,0,French,,,,978-2-294-02095-7,,,,,,,,,,,0,,,,,,,1,136453703,pdf,6da07b8d2bc36355ccb3220bccaec318,,,A:\\sciencedirect_books\\9782294020957 (30).pdf,0,2000-01-01 01:00:00,2016-04-03 02:51:08,1112000/6da07b8d2bc36355ccb3220bccaec318-d.jpg,,
22401409,Chirurgie Oculomotrice. Chirurgie du strabisme et des nystagmus,,,,"André Roth, Claude Speeg-Schatz, Alain Péchereau and Georges Klainguti (Auth.)",2012,ELSEVIER-MASSON,ELSEVIER-MASSON,,462,0,French,,,,978-2-294-02142-8,,,,,,,,,,,0,,,,,,,1,133535084,pdf,982ff5b208514670a15cc4713b4c9a38,,,A:\\sciencedirect_books\\9782294021428 (33).pdf,0,2000-01-01 01:00:00,2016-04-03 02:51:08,1112000/982ff5b208514670a15cc4713b4c9a38-d.jpg,,
22401410,Botanique,,,,,2007,,,,295,0,French,,,,978-2-294-04792-3,,,,,,,,,,,0,,,,,,,1,18386845,pdf,c68f167372727d01dfafb965b9fb076d,,,A:\\sciencedirect_books\\9782294047923 (34).pdf,0,2000-01-01 01:00:00,2016-04-03 02:51:08,1112000/c68f167372727d01dfafb965b9fb076d-d.gif,,
22401411,Traité d'obstétrique,,,,"Marpeau, Loïc (Auth.)",2010,ELSEVIER-MASSON,ELSEVIER-MASSON,,655,0,French,,,,"978-2-294-07143-0,978-2-294-05048-0",,,,,,,,,,,0,,,,,,,1,54712845,pdf,fccdd9a50cc9ff344bc2e2db67fbcb46,,,A:\\sciencedirect_books\\9782294071430 (88).pdf,0,2000-01-01 01:00:00,2016-04-03 02:51:08,1112000/fccdd9a50cc9ff344bc2e2db67fbcb46-d.jpg,,
22401412,Traumatismes psychiques,,,,,2007,ELSEVIER-MASSON,ELSEVIER-MASSON,,298,0,French,,,,978-2-294-07144-7,,,,,,,,,,,0,,,,,,,1,5201306,pdf,b64ea851a8e6e3dacd11052afb9d9e1b,,,A:\\sciencedirect_books\\9782294071447 (37).pdf,0,2000-01-01 01:00:00,2016-04-03 02:51:08,1112000/b64ea851a8e6e3dacd11052afb9d9e1b-d.jpg,,
22401413,Les maladies de la thyroïde,,,,"Wémeau, Jean-Louis (Auth.)",2010,ELSEVIER-MASSON,ELSEVIER-MASSON,,184,0,French,,,,978-2-294-07464-6,,,,,,,,,,,0,,,,,,,1,36834201,pdf,d63a268491879c65523c4ca089b160ee,,,A:\\sciencedirect_books\\9782294074646 (27).pdf,0,2000-01-01 01:00:00,2016-04-03 02:51:08,1112000/d63a268491879c65523c4ca089b160ee-d.jpg,,
22401414,Gestion du stress et de l'anxiété,,,,,2007,,ELSEVIER-MASSON,,241,0,French,,,,978-2-294-07593-3,,,,,,,,,,,0,,,,,,,1,1602475,pdf,02ce7912f0303a90ce969fa01879ec5e,,,A:\\sciencedirect_books\\9782294075933 (12).pdf,0,2000-01-01 01:00:00,2016-04-03 02:51:08,1112000/02ce7912f0303a90ce969fa01879ec5e-d.jpg,,
22401415,Pédiatrie en maternité,,,,,2008,,ELSEVIER-MASSON,,426,0,French,,,,978-2-294-08476-8,,,,,,,,,,,0,,,,,,,1,8365117,pdf,fd43f5a75fc0569cdd592c6561741459,,,A:\\sciencedirect_books\\9782294084768 (19).pdf,0,2000-01-01 01:00:00,2016-04-03 02:51:08,1112000/fd43f5a75fc0569cdd592c6561741459-d.jpg,,
22401416,L'infirmier en Psychiatrie,,,,Morasz (Auth.),2012,ELSEVIER-MASSON,ELSEVIER-MASSON,,308,0,French,,,,978-2-294-08621-2,,,,,,,,,,,0,,,,,,,1,2730069,pdf,86e63b7b342b07329ecc83af3c511395,,,A:\\sciencedirect_books\\9782294086212 (22).pdf,0,2000-01-01 01:00:00,2016-04-03 02:51:08,1112000/86e63b7b342b07329ecc83af3c511395-d.jpg,,
22401417,120 diagnostics `ne pas manquer,,,,,2009,ELSEVIER-MASSON,ELSEVIER-MASSON,,439,0,French,,,,978-2-294-08782-0,,,,,,,,,,,0,,,,,,,1,16598044,pdf,5c954c63dc7f941f0c02f8e52cb1cf37,,,A:\\sciencedirect_books\\9782294087820 (126).pdf,0,2000-01-01 01:00:00,2016-04-03 02:51:08,1112000/5c954c63dc7f941f0c02f8e52cb1cf37-d.jpg,,
22401418,Pharmacologie,,,,,2008,ELSEVIER-MASSON,ELSEVIER-MASSON,,494,0,French,,,,978-2-294-08900-8,,,,,,,,,,,0,,,,,,,1,6608894,pdf,dbd97798fe05d1424cbb87ea5dedd572,,,A:\\sciencedirect_books\\9782294089008 (63).pdf,0,2000-01-01 01:00:00,2016-04-03 02:51:08,1112000/dbd97798fe05d1424cbb87ea5dedd572-d.jpg,,
22401419,80 certificats et formulaires administratifs médicaux,,,,,2007,ELSEVIER-MASSON,ELSEVIER-MASSON,,388,0,French,,,,978-2-294-08902-2,,,,,,,,,,,0,,,,,,,1,19800238,pdf,e2b7b5266ccb35f0c935e474a15f9f02,,,A:\\sciencedirect_books\\9782294089022 (85).pdf,0,2000-01-01 01:00:00,2016-04-03 02:51:08,1112000/e2b7b5266ccb35f0c935e474a15f9f02-d.jpg,,
22401420,Bactériologie Médicale,,,,François Denis (Auth.),2011,ELSEVIER-MASSON,ELSEVIER-MASSON,,615,0,French,,,,978-2-294-09668-6,,,,,,,,,,,0,,,,,,,1,110773528,pdf,1b6faa861774f3a95a2e8889f3aa6708,,,A:\\sciencedirect_books\\9782294096686 (53).pdf,0,2000-01-01 01:00:00,2016-04-03 02:51:08,1112000/1b6faa861774f3a95a2e8889f3aa6708-d.jpg,,
22401421,Chirurgie vaginale,,,,"Cosson, Michel (Auth.)",2011,ELSEVIER-MASSON,ELSEVIER-MASSON,,238,0,French,,,,978-2-294-09719-5,,,,,,,,,,,0,,,,,,,1,142478239,pdf,69385b8b202861a1e9fe917279c40783,,,A:\\sciencedirect_books\\9782294097195 (41).pdf,0,2000-01-01 01:00:00,2016-04-03 02:51:08,1112000/69385b8b202861a1e9fe917279c40783-d.jpg,,
22401422,Traitement du Trouble De la Personnalité Borderline. Therapie cognitive emotionnelle,,,,Firouzeh Mehran (Auth.),2011,ELSEVIER-MASSON,ELSEVIER-MASSON,,297,0,French,,,,978-2-294-09720-1,,,,,,,,,,,0,,,,,,,1,2956266,pdf,e8101f147eefde15d4b3de7260cd7559,,,A:\\sciencedirect_books\\9782294097201 (33).pdf,0,2000-01-01 01:00:00,2016-04-03 02:51:08,1112000/e8101f147eefde15d4b3de7260cd7559-d.jpg,,
22401423,50 Questions sur le Métier De Sage-femme. Legislation et exercice professionnel,,,,"Carène Ponte, Françoise Nguyen and Marie-Agnès Poulain (Auth.)",2011,ELSEVIER-MASSON,ELSEVIER-MASSON,,221,0,French,,,,978-2-294-10224-0,,,,,,,,,,,0,,,,,,,1,2093549,pdf,74999693bf76844c6eba2a73e1e083b9,,,A:\\sciencedirect_books\\9782294102240 (58).pdf,0,2000-01-01 01:00:00,2016-04-03 02:51:08,1112000/74999693bf76844c6eba2a73e1e083b9-d.jpg,,
22401424,Enfance et Psychopathologie,,,,Daniel Marcelli and David Cohen (Auth.),2012,ELSEVIER-MASSON,ELSEVIER-MASSON,,674,0,French,,,,978-2-294-10368-1,,,,,,,,,,,0,,,,,,,1,5934172,pdf,912d8a806597eb334f6643a0fcfe6584,,,A:\\sciencedirect_books\\9782294103681 (34).pdf,0,2000-01-01 01:00:00,2016-04-03 02:51:08,1112000/912d8a806597eb334f6643a0fcfe6584-d.jpg,,
22401425,Rétinopathie Diabétique,,,,Pascale Massin and Ali Erginay (Auth.),2010,ELSEVIER-MASSON,ELSEVIER-MASSON,,149,0,French,,,,978-2-294-61171-1,,,,,,,,,,,0,,,,,,,1,68619986,pdf,de11994f6878d989741ea9c2bd1644d5,,,A:\\sciencedirect_books\\9782294611711 (13).pdf,0,2000-01-01 01:00:00,2016-04-03 02:51:08,1112000/de11994f6878d989741ea9c2bd1644d5-d.jpg,,
22401426,140 ordonnances en homéopathie,,,,,2008,ELSEVIER-MASSON,ELSEVIER-MASSON,,290,0,French,,,,978-2-294-61192-6,,,,,,,,,,,0,,,,,,,1,9323724,pdf,8996c30df93ac4230226720b21a0a77f,,,A:\\sciencedirect_books\\9782294611926 (151).pdf,0,2000-01-01 01:00:00,2016-04-03 02:51:08,1112000/8996c30df93ac4230226720b21a0a77f-d.jpg,,
22401427,Pharmacologie,,,,,2007,ELSEVIER-MASSON,ELSEVIER-MASSON,,331,0,French,,,,978-2-294-70054-5,,,,,,,,,,,0,,,,,,,1,6646476,pdf,5d1193b6e576997feb2b196ea8c94146,,,A:\\sciencedirect_books\\9782294700545 (44).pdf,0,2000-01-01 01:00:00,2016-04-03 02:51:08,1112000/5d1193b6e576997feb2b196ea8c94146-d.jpg,,
22401428,Soigner par l'hypnose,,,,,2007,,ELSEVIER-MASSON,,317,0,French,,,,978-2-294-70114-6,,,,,,,,,,,0,,,,,,,1,1791257,pdf,961697e59c16864d410a7142d9b043ae,,,A:\\sciencedirect_books\\9782294701146 (24).pdf,0,2000-01-01 01:00:00,2016-04-03 02:51:08,1112000/961697e59c16864d410a7142d9b043ae-d.jpg,,
22401429,Psychomotricité,,,,,2007,,ELSEVIER-MASSON,,263,0,French,,,,978-2-294-70135-1,,,,,,,,,,,0,,,,,,,1,1349892,pdf,f4bdb8d892f794853839bfacbf1bea54,,,A:\\sciencedirect_books\\9782294701351 (12).pdf,0,2000-01-01 01:00:00,2016-04-03 02:51:08,1112000/f4bdb8d892f794853839bfacbf1bea54-d.jpg,,
22401430,Les brûlures,,,,"Echinard, Christian (Auth.)",2010,ELSEVIER-MASSON,ELSEVIER-MASSON,,427,0,French,,,,978-2-294-70151-1,,,,,,,,,,,0,,,,,,,1,115388855,pdf,117257d31ad44d624be08c0dffceadd9,,,A:\\sciencedirect_books\\9782294701511 (54).pdf,0,2000-01-01 01:00:00,2016-04-03 02:51:08,1112000/117257d31ad44d624be08c0dffceadd9-d.jpg,,
22401431,Le Dessin et L'écriture dans L'acte Clinique. De la trace au code,,,,Charlotte Marcilhacy (Auth.),2011,ELSEVIER-MASSON,Elsevier Masson,,235,0,French,,,,978-2-294-70425-3,,,,,,,,,,,0,,,,,,,1,10899711,pdf,3b37cc89a2f9b38b9aa80537b84a8fd6,,,A:\\sciencedirect_books\\9782294704253 (22).pdf,0,2000-01-01 01:00:00,2016-04-03 02:51:08,1112000/3b37cc89a2f9b38b9aa80537b84a8fd6-d.jpg,,
22401432,Alimentation De L'enfant De 0 `3 Ans,,,,Patrick Tounian and Françoise Sarrio (Auth.),2011,ELSEVIER-MASSON,ELSEVIER-MASSON,,170,0,French,,,,978-2-294-70435-2,,,,,,,,,,,0,,,,,,,1,1092901,pdf,11b65be562bc1425bf6d32b64a51ecc2,,,A:\\sciencedirect_books\\9782294704352 (10).pdf,0,2000-01-01 01:00:00,2016-04-03 02:51:08,1112000/11b65be562bc1425bf6d32b64a51ecc2-d.jpg,,
22401433,Vertiges : manuel de diagnostic et de réhabilitation,,,,,2010,ELSEVIER-MASSON,ELSEVIER-MASSON,,177,0,French,,,,978-2-294-70479-6,,,,,,,,,,,0,,,,,,,1,13486338,pdf,4383cc8419edc22ed1ec6eecd3df1745,,,A:\\sciencedirect_books\\9782294704796 (24).pdf,0,2000-01-01 01:00:00,2016-04-03 02:51:08,1112000/4383cc8419edc22ed1ec6eecd3df1745-d.jpg,,
22401434,Imagerie en ORL,,,,"Dubrulle, Frédérique (Auth.)",2010,ELSEVIER-MASSON,ELSEVIER-MASSON,,441,0,French,,,,978-2-294-70498-7,,,,,,,,,,,0,,,,,,,1,79069499,pdf,41eeb15f32a6c0d763928dffa9b3f4b8,,,A:\\sciencedirect_books\\9782294704987 (31).pdf,0,2000-01-01 01:00:00,2016-04-03 02:51:08,1112000/41eeb15f32a6c0d763928dffa9b3f4b8-d.jpg,,
22401435,Atlas D'anatomie Clinique et Chirurgicale des Tissus Superficiels De la Tête et du Cou,,,,Jean-François Gaudy and Christian Vacher (Auth.),2010,ELSEVIER-MASSON,ELSEVIER-MASSON,,194,0,French,,,,978-2-294-70527-4,,,,,,,,,,,0,,,,,,,1,103433557,pdf,df74e594452a6a83b19d066ec60dd182,,,A:\\sciencedirect_books\\9782294705274 (14).pdf,0,2000-01-01 01:00:00,2016-04-03 02:51:08,1112000/df74e594452a6a83b19d066ec60dd182-d.jpg,,
22401436,"Corps, Sensorialité et Pathologies De la Symbolisation. Clinique des phénomènes addictifs dans l'anorexie et dans l'hyperactivité",,,,André Calza and Maurice Contant (Auth.),2012,ELSEVIER-MASSON,ELSEVIER-MASSON,,205,0,French,,,,978-2-294-70528-1,,,,,,,,,,,0,,,,,,,1,2781899,pdf,65c68b0736591405f5a8620bab4660f3,,,A:\\sciencedirect_books\\9782294705281 (28).pdf,0,2000-01-01 01:00:00,2016-04-03 02:51:08,1112000/65c68b0736591405f5a8620bab4660f3-d.jpg,,
22401437,Manuel De Psychologie Clinique De la Périnatalité,,,,Sylvain Missonnier (Auth.),2012,ELSEVIER-MASSON,ELSEVIER-MASSON,,384,0,French,,,,978-2-294-70541-0,,,,,,,,,,,0,,,,,,,1,4711436,pdf,5eaa389bbad97e45349cfffa0dcef48d,,,A:\\sciencedirect_books\\9782294705410 (26).pdf,0,2000-01-01 01:00:00,2016-04-03 02:51:08,1112000/5eaa389bbad97e45349cfffa0dcef48d-d.jpg,,
22401438,Médicaments et Grossesse : Prescrire et évaluer le Risque,,,,Annie-Pierre Jonville-Béra and Thierry Vial (Auth.),2012,ELSEVIER-MASSON,ELSEVIER-MASSON,,268,0,French,,,,978-2-294-70624-0,,,,,,,,,,,0,,,,,,,1,4090025,pdf,000a94da1f2c5de9c7cb51d2fe98d302,,,A:\\sciencedirect_books\\9782294706240 (32).pdf,0,2000-01-01 01:00:00,2016-04-03 02:51:08,1112000/000a94da1f2c5de9c7cb51d2fe98d302-d.jpg,,
22401439,300 médicaments injectables,,,,,2009,ELSEVIER-MASSON,ELSEVIER-MASSON,,552,0,French,,,,978-2-294-70698-1,,,,,,,,,,,0,,,,,,,1,8565311,pdf,199d0cfbe23bff72b9f3fede70aee719,,,A:\\sciencedirect_books\\9782294706981 (233).pdf,0,2000-01-01 01:00:00,2016-04-03 02:51:08,1112000/199d0cfbe23bff72b9f3fede70aee719-d.jpg,,
22401440,Troubles du Comportement Alimentaire De L'enfant. Du nourrisson au pre-adolescent - Manuel diagnostic et therapeutique,,,,"Marie-Christine Mouren, Catherine Doyen, Marie-France Le Heuzey and Solange Cook-Darzens (Auth.)",2011,ELSEVIER-MASSON,Elsevier Masson,,200,0,French,,,,978-2-294-70731-5,,,,,,,,,,,0,,,,,,,1,3411920,pdf,f304433bdaaa2c0485e2a3634875e522,,,A:\\sciencedirect_books\\9782294707315 (20).pdf,0,2000-01-01 01:00:00,2016-04-03 02:51:08,1112000/f304433bdaaa2c0485e2a3634875e522-d.jpg,,
22401441,Entraînement Aux Habiletés Sociales Appliqué–L'autisme. Guide pour les intervenants,,,,Amaria Baghdadli and Judith Brisot-Dubois (Auth.),2011,ELSEVIER-MASSON,ELSEVIER-MASSON,,128,0,French,,,,978-2-294-70742-1,,,,,,,,,,,0,,,,,,,1,1276252,pdf,49cc9b47953c712e70f7f6e554e62681,,,A:\\sciencedirect_books\\9782294707421 (19).pdf,0,2000-01-01 01:00:00,2016-04-03 02:51:08,1112000/49cc9b47953c712e70f7f6e554e62681-d.jpg,,
22401442,Rééducation De la Boucle Audio-phonatoire. Chez les adultes sourds porteurs d'un implant cochleaire,,,,Malika Dupont and Brigitte Lejeune (Auth.),2010,ELSEVIER-MASSON,ELSEVIER-MASSON,,227,0,French,,,,978-2-294-70754-4,,,,,,,,,,,0,,,,,,,1,7206466,pdf,9d7f0b84f412f7fe4d1cddcc71ce3b99,,,A:\\sciencedirect_books\\9782294707544 (80).pdf,0,2000-01-01 01:00:00,2016-04-03 02:51:08,1112000/9d7f0b84f412f7fe4d1cddcc71ce3b99-d.jpg,,
22401443,Les Troubles du Langage Chez L'enfant. Description et evaluation,,,,Geneviève de Weck and Pascale Marro (Auth.),2010,ELSEVIER-MASSON,ELSEVIER-MASSON,,361,0,French,,,,978-2-294-70759-9,,,,,,,,,,,0,,,,,,,1,2030607,pdf,0c4d70adfbbdd5bc546727cb6709f168,,,A:\\sciencedirect_books\\9782294707599 (15).pdf,0,2000-01-01 01:00:00,2016-04-03 02:51:08,1112000/0c4d70adfbbdd5bc546727cb6709f168-d.jpg,,
22401444,HoméOopathie. Pratique et bases scientifiques,,,,Alain Sarembaud and Bernard Poitevin (Auth.),2011,ELSEVIER-MASSON,ELSEVIER-MASSON,,297,0,French,,,,978-2-294-70862-6,,,,,,,,,,,0,,,,,,,1,2148166,pdf,40f16ff15a1eb27a6f21f86f0fb5c0c8,,,A:\\sciencedirect_books\\9782294708626 (32).pdf,0,2000-01-01 01:00:00,2016-04-03 02:51:08,1112000/40f16ff15a1eb27a6f21f86f0fb5c0c8-d.jpg,,
22401445,Odontologie du Sujet âgé. Specificites et precautions,,,,Véronique Dupuis and Anneliese Léonard (Auth.),2010,ELSEVIER-MASSON,ELSEVIER-MASSON,,173,0,French,,,,978-2-294-70878-7,,,,,,,,,,,0,,,,,,,1,27904666,pdf,a4c88f31dc5d11941646e38c1176e7dc,,,A:\\sciencedirect_books\\9782294708787 (16).pdf,0,2000-01-01 01:00:00,2016-04-03 02:51:08,1112000/a4c88f31dc5d11941646e38c1176e7dc-d.jpg,,
22401446,160 questions en responsabilité médicale,,,,,2010,ELSEVIER-MASSON,ELSEVIER-MASSON,,408,0,French,,,,978-2-294-70887-9,,,,,,,,,,,0,,,,,,,1,6123488,pdf,39b2136bc563ac5af898158444a0d233,,,A:\\sciencedirect_books\\9782294708879 (183).pdf,0,2000-01-01 01:00:00,2016-04-03 02:51:08,1112000/39b2136bc563ac5af898158444a0d233-d.jpg,,
22401447,Guide De L'attachement en Familles D'accueil et Adoptives. La theorie en pratique,,,,"Gillian Schofield, Mary Beek and Antoine Guédeney (Auth.)",2011,ELSEVIER-MASSON,Elsevier Masson,,508,0,French,,,,978-2-294-70902-9,,,,,,,,,,,0,,,,,,,1,4009932,pdf,b684f8bd2a8998b770a84e11ae580c62,,,A:\\sciencedirect_books\\9782294709029 (26).pdf,0,2000-01-01 01:00:00,2016-04-03 02:51:08,1112000/b684f8bd2a8998b770a84e11ae580c62-d.jpg,,
22401448,Glaucome,,,,"American Academy of Ophthalmol, Société Française d'Ophtalmolo, Philippe Denis, Jean-Paul Renard and Eric Sellem (Auth.)",2010,ELSEVIER-MASSON,ELSEVIER-MASSON,,246,0,French,,,,978-2-294-70910-4,,,,,,,,,,,0,,,,,,,1,31476998,pdf,d2ca5048325f732e8a67e81d4e1c9b54,,,A:\\sciencedirect_books\\9782294709104 (19).pdf,0,2000-01-01 01:00:00,2016-04-03 02:51:08,1112000/d2ca5048325f732e8a67e81d4e1c9b54-d.jpg,,
22401449,Sauveteurs et éVénements Traumatiques. Prise en charge psychologique des victimes et gestion du stress professionnel,,,,Hélène Romano and Elodie Verdenal-Gauteur (Auth.),2011,ELSEVIER-MASSON,ELSEVIER-MASSON,,130,0,French,,,,978-2-294-70915-9,,,,,,,,,,,0,,,,,,,1,1618211,pdf,91f57a6a6502ba452bce468959601e46,,,A:\\sciencedirect_books\\9782294709159 (16).pdf,0,2000-01-01 01:00:00,2016-04-03 02:51:08,1112000/91f57a6a6502ba452bce468959601e46-d.jpg,,
22401450,Traité de médecine vasculaire.,,,,Société Française de Médecine (Auth.),2010,ELSEVIER-MASSON,ELSEVIER-MASSON,,729,0,French,,,,978-2-294-70917-3,,,,,,,,,,,0,,,,,,,1,69098215,pdf,1df8d9567c298b95f728e83b9aa533ea,,,A:\\sciencedirect_books\\9782294709173 (26).pdf,0,2000-01-01 01:00:00,2016-04-03 02:51:08,1112000/1df8d9567c298b95f728e83b9aa533ea-d.jpg,,
22401451,Orthodontie De L'enfant et du Jeune Adulte. Principes et moyens therapeutiques - Tome 1,,,,Marie-José Boileau (Auth.),2011,ELSEVIER-MASSON,ELSEVIER-MASSON,,264,0,French,,,,978-2-294-70923-4,,,,,,,,,,,0,,,,,,,1,105216261,pdf,b9c39b49566220956aba8c32d79a7b16,,,A:\\sciencedirect_books\\9782294709234 (17).pdf,0,2000-01-01 01:00:00,2016-04-03 02:51:08,1112000/b9c39b49566220956aba8c32d79a7b16-d.jpg,,
22401452,Imagerie du Pied et De la Cheville,,,,Jean-Luc Drapé and Henri Guerini (Auth.),2010,ELSEVIER-MASSON,ELSEVIER-MASSON,,312,0,French,,,,978-2-294-70937-1,,,,,,,,,,,0,,,,,,,1,77527663,pdf,3f917a1ceaaf6c65c82cf3903f568a81,,,A:\\sciencedirect_books\\9782294709371 (29).pdf,0,2000-01-01 01:00:00,2016-04-03 02:51:08,1112000/3f917a1ceaaf6c65c82cf3903f568a81-d.jpg,,
22401453,Atlas Pratique De Médecine Manuelle Ostéopathique,,,,François Le Corre and Emmanuel Rageot (Auth.),2010,ELSEVIER-MASSON,ELSEVIER-MASSON,,338,0,French,,,,978-2-294-70948-7,,,,,,,,,,,0,,,,,,,1,22512374,pdf,b30e04293ebcd4df717dfb7ec27215cf,,,A:\\sciencedirect_books\\9782294709487 (27).pdf,0,2000-01-01 01:00:00,2016-04-03 02:51:08,1112000/b30e04293ebcd4df717dfb7ec27215cf-d.jpg,,
22401454,Maladie d'Alzheimer et troubles de la communication,,,,,2011,ELSEVIER-MASSON,Elsevier Masson,,149,0,French,,,,978-2-294-70950-0,,,,,,,,,,,0,,,,,,,1,2781118,pdf,5d350d0f3aed113e22c54777383c0771,,,A:\\sciencedirect_books\\9782294709500 (15).pdf,0,2000-01-01 01:00:00,2016-04-03 02:51:08,1112000/5d350d0f3aed113e22c54777383c0771-d.jpg,,
22401455,Electrothérapie. Applications en Rééducation et Réadaptation,,,,Francis Crépon (Auth.),2011,ELSEVIER-MASSON,ELSEVIER-MASSON,,247,0,French,,,,978-2-294-70956-2,,,,,,,,,,,0,,,,,,,1,15002386,pdf,69491cb8a80fcb5c75fbfff1db2914d8,,,A:\\sciencedirect_books\\9782294709562 (21).pdf,0,2000-01-01 01:00:00,2016-04-03 02:51:08,1112000/69491cb8a80fcb5c75fbfff1db2914d8-d.jpg,,
22401456,Le diagnostic prénatal en pratique,,,,"Descamps, Philippe (Auth.)",2011,ELSEVIER-MASSON,ELSEVIER-MASSON,,480,0,French,,,,978-2-294-70962-3,,,,,,,,,,,0,,,,,,,1,30629042,pdf,6fbb023e78d1cb5ff2b258186e0f1db4,,,A:\\sciencedirect_books\\9782294709623 (53).pdf,0,2000-01-01 01:00:00,2016-04-03 02:51:08,1112000/6fbb023e78d1cb5ff2b258186e0f1db4-d.jpg,,
22401457,Dysmorphies Maxillo-mandibulaires. Traitement orthodontico-chirurgical,,,,Pierre Canal and Patrick Goudot (Auth.),2011,ELSEVIER-MASSON,ELSEVIER-MASSON,,166,0,French,,,,978-2-294-71007-0,,,,,,,,,,,0,,,,,,,1,70920092,pdf,c134cef30bbde51d3f8ac85a6bed9011,,,A:\\sciencedirect_books\\9782294710070 (11).pdf,0,2000-01-01 01:00:00,2016-04-03 02:51:08,1112000/c134cef30bbde51d3f8ac85a6bed9011-d.jpg,,
22401458,Pratique Clinique des Greffes Osseuses et Implants. Modalites therapeutiques et prise en charge des complications,,,,Alfred Seban and Patrick Bonnaud (Auth.),2012,ELSEVIER-MASSON,ELSEVIER-MASSON,,443,0,French,,,,978-2-294-71013-1,,,,,,,,,,,0,,,,,,,1,358803993,pdf,e239f99771603085cde39b3cd100bb16,,,A:\\sciencedirect_books\\9782294710131 (12).pdf,0,2000-01-01 01:00:00,2016-04-03 02:51:08,1112000/e239f99771603085cde39b3cd100bb16-d.jpg,,
22401459,Psychologie Positive et Bien-être Au Travail,,,,Jean Cottraux (Auth.),2012,ELSEVIER-MASSON,ELSEVIER-MASSON,,209,0,French,,,,978-2-294-71023-0,,,,,,,,,,,0,,,,,,,1,3828230,pdf,43fca7550a397f4a712cd5f486afa055,,,A:\\sciencedirect_books\\9782294710230 (17).pdf,0,2000-01-01 01:00:00,2016-04-03 02:51:08,1112000/43fca7550a397f4a712cd5f486afa055-d.jpg,,
22401460,Les troubles du sommeil,,,,"Billiard, Michel (Auth.)",2011,ELSEVIER-MASSON,ELSEVIER-MASSON,,502,0,French,,,,978-2-294-71025-4,,,,,,,,,,,0,,,,,,,1,42690818,pdf,3e6075ee411de1e8403149986f62bb14,,,A:\\sciencedirect_books\\9782294710254 (47).pdf,0,2000-01-01 01:00:00,2016-04-03 02:51:08,1112000/3e6075ee411de1e8403149986f62bb14-d.jpg,,
22401461,Coloscopie Virtuelle,,,,Mickaël Suissa (Auth.),2011,ELSEVIER-MASSON,ELSEVIER-MASSON,,79,0,French,,,,978-2-294-71027-8,,,,,,,,,,,0,,,,,,,1,13329286,pdf,603233ee7dca0225d820b40d8b0daa41,,,A:\\sciencedirect_books\\9782294710278 (11).pdf,0,2000-01-01 01:00:00,2016-04-03 02:51:08,1112000/603233ee7dca0225d820b40d8b0daa41-d.jpg,,
22401462,250 examens de laboratoire,,,,,2010,ELSEVIER-MASSON,ELSEVIER-MASSON,,404,0,French,,,,978-2-294-71033-9,,,,,,,,,,,0,,,,,,,1,13803378,pdf,7d1ca7e36d103e3470656ecd78010ee2,,,A:\\sciencedirect_books\\9782294710339 (217).pdf,0,2000-01-01 01:00:00,2016-04-03 02:51:08,1112000/7d1ca7e36d103e3470656ecd78010ee2-d.jpg,,
22401463,Comprendre L'IRM. Manuel d'auto-apprentissage,,,,Bruno Kastler and Daniel Vetter (Auth.),2011,ELSEVIER-MASSON,ELSEVIER-MASSON,,390,0,French,,,,978-2-294-71044-5,,,,,,,,,,,0,,,,,,,1,20283052,pdf,f4d84beec09fda4ce647aa4a60c01c95,,,A:\\sciencedirect_books\\9782294710445 (26).pdf,0,2000-01-01 01:00:00,2016-04-03 02:51:08,1112000/f4d84beec09fda4ce647aa4a60c01c95-d.jpg,,
22401464,La Voix : T2. Pathologies vocales d'origine fonctionnelle,,,,François Le Huche and André Allali (Auth.),2010,ELSEVIER-MASSON,ELSEVIER-MASSON,,155,0,French,,,,978-2-294-71050-6,,,,,,,,,,,0,,,,,,,1,3996000,pdf,7f9157bd5d1f8571fa27deee03c68061,,,A:\\sciencedirect_books\\9782294710506 (14).pdf,0,2000-01-01 01:00:00,2016-04-03 02:51:08,1112000/7f9157bd5d1f8571fa27deee03c68061-d.jpg,,
22401465,Protocoles en anesthésie et analgésie obstétricales,,,,"Chassard, Dominique (Auth.)",2010,ELSEVIER-MASSON,ELSEVIER-MASSON,,133,0,French,,,,978-2-294-71053-7,,,,,,,,,,,0,,,,,,,1,3988458,pdf,b8ba856eb31df9c09b1680429c987fc7,,,A:\\sciencedirect_books\\9782294710537 (60).pdf,0,2000-01-01 01:00:00,2016-04-03 02:51:08,1112000/b8ba856eb31df9c09b1680429c987fc7-d.jpg,,
22401466,Précis D'acupuncture Médicale Occidentale,,,,"Adrian White, Mike Cummings and Jacqueline Filshie (Auth.)",2011,ELSEVIER-MASSON,Elsevier Masson,,270,0,French,,,,"978-2-294-71055-1,978-0-443-07177-5",,,,,,,,,,,0,,,,,,,1,10828193,pdf,66e07931c893ba3b9a0cef23d1385e4c,,,A:\\sciencedirect_books\\9782294710551 (26).pdf,0,2000-01-01 01:00:00,2016-04-03 02:51:08,1112000/66e07931c893ba3b9a0cef23d1385e4c-d.jpg,,
22401467,Le Psychologue en Service De Médecine,,,,Caroline Doucet (Auth.),2011,ELSEVIER-MASSON,Elsevier Masson,,189,0,French,,,,978-2-294-71074-2,,,,,,,,,,,0,,,,,,,1,1399270,pdf,08f7811ff232c4f36d6886f7dbb55680,,,A:\\sciencedirect_books\\9782294710742 (18).pdf,0,2000-01-01 01:00:00,2016-04-03 02:51:08,1112000/08f7811ff232c4f36d6886f7dbb55680-d.jpg,,
22401468,La Thérapie D'acceptation et D'engagement. ACT,,,,Jean-Louis Monestès and Matthieu Villatte (Auth.),2011,ELSEVIER-MASSON,Elsevier Masson,,210,0,French,,,,978-2-294-71087-2,,,,,,,,,,,0,,,,,,,1,1866521,pdf,359a003d06a40f6ada95a0ac70c965c6,,,A:\\sciencedirect_books\\9782294710872 (26).pdf,0,2000-01-01 01:00:00,2016-04-03 02:51:08,1112000/359a003d06a40f6ada95a0ac70c965c6-d.jpg,,
22401469,La Voix : T3. Pathologies vocales d'origine organique,,,,François Le Huche and André Allali (Auth.),2010,ELSEVIER-MASSON,ELSEVIER-MASSON,,180,0,French,,,,978-2-294-71090-2,,,,,,,,,,,0,,,,,,,1,7197070,pdf,7cef1ddf799d3c53aea436e046236d6c,,,A:\\sciencedirect_books\\9782294710902 (14).pdf,0,2000-01-01 01:00:00,2016-04-03 02:51:08,1112000/7cef1ddf799d3c53aea436e046236d6c-d.jpg,,
22401470,La Radiographie Thoracique Facile,,,,"Jonathan Corne, Kate Pointon and Lionel Arrivé (Auth.)",2010,ELSEVIER-MASSON,ELSEVIER-MASSON,,164,0,French,,,,"978-2-294-71101-5,978-0-443-06922-2,978-0-443-06735-8",,,,,,,,,,,0,,,,,,,1,6590596,pdf,aa1b768e229b3aba56eb0841709f9614,,,A:\\sciencedirect_books\\9782294711015 (18).pdf,0,2000-01-01 01:00:00,2016-04-03 02:51:08,1112000/aa1b768e229b3aba56eb0841709f9614-d.jpg,,
22401471,L'observation Aide-soignante. Une collaboration–la demarche de soins et au diagnostic infirmier,,,,Marie-Odile Rioufol (Auth.),2010,ELSEVIER-MASSON,ELSEVIER-MASSON,,153,0,French,,,,978-2-294-71106-0,,,,,,,,,,,0,,,,,,,1,1867072,pdf,5a09e3e05699238f6de5b92743d52d2e,,,A:\\sciencedirect_books\\9782294711060 (26).pdf,0,2000-01-01 01:00:00,2016-04-03 02:51:08,1112000/5a09e3e05699238f6de5b92743d52d2e-d.jpg,,
22401472,Les Uvéites. Rapport SFO 2010,,,,Antoine Brézin and Société Française d'Ophtalmolo (Auth.),2010,ELSEVIER-MASSON,ELSEVIER-MASSON,,691,0,French,,,,978-2-294-71107-7,,,,,,,,,,,0,,,,,,,1,165379757,pdf,a82076bd2fff595596df7dd94d082915,,,A:\\sciencedirect_books\\9782294711077 (69).pdf,0,2000-01-01 01:00:00,2016-04-03 02:51:08,1112000/a82076bd2fff595596df7dd94d082915-d.jpg,,
22401473,Cervicoscapulalgies Professionnelles,,,,"Bernard Fouquet, Yves Roquelaure, Christian Hérisson and Association Entretiens de rééd (Auth.)",2010,ELSEVIER-MASSON,ELSEVIER-MASSON,,129,0,French,,,,978-2-294-71114-5,,,,,,,,,,,0,,,,,,,1,5502107,pdf,425f697d56626ad1be8ec280a76325bf,,,A:\\sciencedirect_books\\9782294711145 (8).pdf,0,2000-01-01 01:00:00,2016-04-03 02:51:08,1112000/425f697d56626ad1be8ec280a76325bf-d.jpg,,
22401474,Trouble Déficit De L'attention Avec Ou Sans Hyperactivité. De la theorie–la pratique,,,,"Olivier Revol, Vincent Brun and Association Entretiens de rééd (Auth.)",2010,ELSEVIER-MASSON,ELSEVIER-MASSON,,88,0,French,,,,978-2-294-71115-2,,,,,,,,,,,0,,,,,,,1,1642091,pdf,87bd019e1b3981634c50c355ef1dc2ac,,,A:\\sciencedirect_books\\9782294711152 (13).pdf,0,2000-01-01 01:00:00,2016-04-03 02:51:08,1112000/87bd019e1b3981634c50c355ef1dc2ac-d.jpg,,
22401475,Atlas D'anatomie Générale et Radiologique,,,,Jean-Philippe Dillenseger (Auth.),2011,ELSEVIER-MASSON,ELSEVIER-MASSON,,290,0,French,,,,978-2-294-71133-6,,,,,,,,,,,0,,,,,,,1,158815413,pdf,e5ce6b3c3c8c2c3cd7fc8a2719de640f,,,A:\\sciencedirect_books\\9782294711336 (12).pdf,0,2000-01-01 01:00:00,2016-04-03 02:51:08,1112000/e5ce6b3c3c8c2c3cd7fc8a2719de640f-d.jpg,,
22401476,Prévenir et Traiter les Addictions Sans Drogue : un Défi Social,,,,Jean-Luc Venisse (Auth.),2012,ELSEVIER-MASSON,ELSEVIER-MASSON,,356,0,French,,,,978-2-294-71136-7,,,,,,,,,,,0,,,,,,,1,4183868,pdf,fb44f6a035968b6821d0f9f8c54e9f75,,,A:\\sciencedirect_books\\9782294711367 (46).pdf,0,2000-01-01 01:00:00,2016-04-03 02:51:08,1112000/fb44f6a035968b6821d0f9f8c54e9f75-d.jpg,,
22401477,Le Syndrome Neurogène Douloureux. du Diagnostic Au Traitement Manuel. Tome 1 - Membre superieur,,,,Jan De Laere and Serge Tixa (Auth.),2011,ELSEVIER-MASSON,ELSEVIER-MASSON,,314,0,French,,,,978-2-294-71140-4,,,,,,,,,,,0,,,,,,,1,44199479,pdf,d4f6705a014438f087bb38d8f826380e,,,A:\\sciencedirect_books\\9782294711404 (23).pdf,0,2000-01-01 01:00:00,2016-04-03 02:51:08,1112000/d4f6705a014438f087bb38d8f826380e-d.jpg,,
22401478,Le psychologue en service de psychiatrie,,,,,2011,ELSEVIER-MASSON,Elsevier Masson,,216,0,French,,,,978-2-294-71142-8,,,,,,,,,,,0,,,,,,,1,1539341,pdf,f4f8aa7f3612c150fd0596b42a570afd,,,A:\\sciencedirect_books\\9782294711428 (17).pdf,0,2000-01-01 01:00:00,2016-04-03 02:51:08,1112000/f4f8aa7f3612c150fd0596b42a570afd-d.jpg,,
22401479,La maladie de Parkinson,,,,,2011,ELSEVIER-MASSON,Elsevier Masson,,228,0,French,,,,978-2-294-71153-4,,,,,,,,,,,0,,,,,,,1,5421384,pdf,98663644c86acf1fffbfd40d4c2b1c48,,,A:\\sciencedirect_books\\9782294711534 (22).pdf,0,2000-01-01 01:00:00,2016-04-03 02:51:08,1112000/98663644c86acf1fffbfd40d4c2b1c48-d.jpg,,
22401480,Vademecum De la Prescription en Homéopathie. Fiches pratiques par maladies et par medicament classees de A–Z,,,,Alain Horvilleur (Auth.),2011,ELSEVIER-MASSON,Elsevier Masson,,555,0,French,,,,978-2-294-71155-8,,,,,,,,,,,0,,,,,,,1,4292855,pdf,1320f1ccc918d7364cea7af6e0cd0cd3,,,A:\\sciencedirect_books\\9782294711558 (50).pdf,0,2000-01-01 01:00:00,2016-04-03 02:51:08,1112000/1320f1ccc918d7364cea7af6e0cd0cd3-d.jpg,,
22401481,Manuel de psychiatrie,,,,"Guelfi, Julien-Daniel (Auth.)",2012,ELSEVIER-MASSON,ELSEVIER-MASSON,,853,0,French,,,,978-2-294-71157-2,,,,,,,,,,,0,,,,,,,1,14745457,pdf,8d6dce8655b35980bc2887246766dca0,,,A:\\sciencedirect_books\\9782294711572 (36).pdf,0,2000-01-01 01:00:00,2016-04-03 02:51:08,1112000/8d6dce8655b35980bc2887246766dca0-d.jpg,,
22401482,Psychopathologie De la Scolarité,,,,Nicole Catheline (Auth.),2012,ELSEVIER-MASSON,ELSEVIER-MASSON,,420,0,French,,,,978-2-294-71159-6,,,,,,,,,,,0,,,,,,,1,3611428,pdf,32c8761de85c27aa4159cc6a2813276d,,,A:\\sciencedirect_books\\9782294711596 (50).pdf,0,2000-01-01 01:00:00,2016-04-03 02:51:08,1112000/32c8761de85c27aa4159cc6a2813276d-d.jpg,,
22401483,Maîtriser L'ECG. De la theorie–la clinique,,,,"Andrew R. Houghton, David Gray and François Jan (Auth.)",2011,ELSEVIER-MASSON,ELSEVIER-MASSON,,257,0,French,,,,978-2-294-71160-2,,,,,,,,,,,0,,,,,,,1,10331018,pdf,3c497465c7d3663e03ae656875b64801,,,A:\\sciencedirect_books\\9782294711602 (28).pdf,0,2000-01-01 01:00:00,2016-04-03 02:51:08,1112000/3c497465c7d3663e03ae656875b64801-d.jpg,,
22401484,Orthèses De la Main et du Poignet. Protocoles De Rééducation,,,,Micheline Isel and Michel Merle (Auth.),2011,ELSEVIER-MASSON,ELSEVIER-MASSON,,307,0,French,,,,978-2-294-71185-5,,,,,,,,,,,0,,,,,,,1,190187137,pdf,0582efc026407ff407f696f7f78669ca,,,A:\\sciencedirect_books\\9782294711855 (26).pdf,0,2000-01-01 01:00:00,2016-04-03 02:51:08,1112000/0582efc026407ff407f696f7f78669ca-d.jpg,,
22401485,"Cone Beam : Imagerie Diagnostique en Odontostomatologie. Principes, resultats et perspectives",,,,Robert Cavézian and Gérard Pasquet (Auth.),2011,ELSEVIER-MASSON,ELSEVIER-MASSON,,261,0,French,,,,978-2-294-71188-6,,,,,,,,,,,0,,,,,,,1,55822890,pdf,c323268cbf8c283c9f00a54eb0256153,,,A:\\sciencedirect_books\\9782294711886 (18).pdf,0,2000-01-01 01:00:00,2016-04-03 02:51:08,1112000/c323268cbf8c283c9f00a54eb0256153-d.jpg,,
22401486,Chirurgie Plastique Réparatrice De la Face et du Cou - Volume 1,,,,Jean-Pierre Bessede (Auth.),2011,ELSEVIER-MASSON,ELSEVIER-MASSON,,413,0,French,,,,978-2-294-71189-3,,,,,,,,,,,0,,,,,,,1,366142963,pdf,26aa98147a563eb9dfd331d46c33c191,,,A:\\sciencedirect_books\\9782294711893 (42).pdf,0,2000-01-01 01:00:00,2016-04-03 02:51:08,1112000/26aa98147a563eb9dfd331d46c33c191-d.jpg,,
22401487,L'hypertension Artérielle : Pratique Clinique,,,,Abdelhamid Bentounès and Michel Safar (Auth.),2011,ELSEVIER-MASSON,ELSEVIER-MASSON,,131,0,French,,,,978-2-294-71210-4,,,,,,,,,,,0,,,,,,,1,1034824,pdf,e87782391f86be8f8c3e0afd83744210,,,A:\\sciencedirect_books\\9782294712104 (16).pdf,0,2000-01-01 01:00:00,2016-04-03 02:51:08,1112000/e87782391f86be8f8c3e0afd83744210-d.jpg,,
22401488,"Guide Pratique De Mésothérapie. Medecine generale, medecine du sport, medecine esthetique, rhumatologie, pharmacopee",,,,"Christian Bonnet, Denis Laurens and Jean-Jacques Perrin (Auth.)",2011,ELSEVIER-MASSON,ELSEVIER-MASSON,,472,0,French,,,,978-2-294-71220-3,,,,,,,,,,,0,,,,,,,1,68827403,pdf,c220e000a58c69a40d2f07e4f52a6dda,,,A:\\sciencedirect_books\\9782294712203 (227).pdf,0,2000-01-01 01:00:00,2016-04-03 02:51:08,1112000/c220e000a58c69a40d2f07e4f52a6dda-d.jpg,,
22401489,Imagerie Cardiaque : Scanner et IRM,,,,Olivier Vignaux (Auth.),2011,ELSEVIER-MASSON,ELSEVIER-MASSON,,314,0,French,,,,978-2-294-71225-8,,,,,,,,,,,0,,,,,,,1,77858195,pdf,b269af4c1996d3340c08e763b6eb8752,,,A:\\sciencedirect_books\\9782294712258 (39).pdf,0,2000-01-01 01:00:00,2016-04-03 02:51:08,1112000/b269af4c1996d3340c08e763b6eb8752-d.jpg,,
22401490,Imagerie du sport,,,,"Sans, Nicolas (Auth.)",2011,ELSEVIER-MASSON,ELSEVIER-MASSON,,487,0,French,,,,978-2-294-71229-6,,,,,,,,,,,0,,,,,,,1,167090190,pdf,ec9f6f60cfe46f526c087f613fb6efe8,,,A:\\sciencedirect_books\\9782294712296 (17).pdf,0,2000-01-01 01:00:00,2016-04-03 02:51:08,1112000/ec9f6f60cfe46f526c087f613fb6efe8-d.jpg,,
22401491,L'aide-soignant en Service De Gériatrie. Soins et besoins affectifs,,,,"Marie-Odile Rioufol, Marie-Bernadette Beaulieu and Lucette Holstensson (Auth.)",2010,ELSEVIER-MASSON,ELSEVIER-MASSON,,254,0,French,,,,978-2-294-71232-6,,,,,,,,,,,0,,,,,,,1,5048393,pdf,9efbfa5d2301812ab1d532d43e143a90,,,A:\\sciencedirect_books\\9782294712326 (26).pdf,0,2000-01-01 01:00:00,2016-04-03 02:51:08,1112000/9efbfa5d2301812ab1d532d43e143a90-d.jpg,,
22401492,Imagerie Médicale Pour le Clinicien,,,,Lionel Arrivé (Auth.),2012,ELSEVIER-MASSON,ELSEVIER-MASSON,,426,0,French,,,,978-2-294-71238-8,,,,,,,,,,,0,,,,,,,1,92885408,pdf,7fabc17249a6cd7dcbb2b1a5f4994706,,,A:\\sciencedirect_books\\9782294712388 (14).pdf,0,2000-01-01 01:00:00,2016-04-03 02:51:08,1112000/7fabc17249a6cd7dcbb2b1a5f4994706-d.jpg,,
22401493,Psychopathologie du Travail,,,,Christophe Dejours and Isabelle Gernet (Auth.),2012,ELSEVIER-MASSON,ELSEVIER-MASSON,,158,0,French,,,,978-2-294-71253-1,,,,,,,,,,,0,,,,,,,1,1217159,pdf,26e43573866866c46dc3d55c02dd1fc1,,,A:\\sciencedirect_books\\9782294712531 (21).pdf,0,2000-01-01 01:00:00,2016-04-03 02:51:08,1112000/26e43573866866c46dc3d55c02dd1fc1-d.jpg,,
22401494,Repères et Mesures en Imagerie Ostéoarticulaire,,,,Géraldine Serra-Tosio (Auth.),2011,ELSEVIER-MASSON,ELSEVIER-MASSON,,196,0,French,,,,978-2-294-71283-8,,,,,,,,,,,0,,,,,,,1,16527431,pdf,a233c76e6cf5174a158544a8a846256b,,,A:\\sciencedirect_books\\9782294712838 (21).pdf,0,2000-01-01 01:00:00,2016-04-03 02:51:08,1112000/a233c76e6cf5174a158544a8a846256b-d.jpg,,
22401495,Urgences en médecine du sport. Scénarios de prise en charge,,,,"O'Byrne, John (Auth.)",2011,ELSEVIER-MASSON,Elsevier Masson,,252,0,French,,,,"978-2-294-71286-9,978-0-443-06865-2",,,,,,,,,,,0,,,,,,,1,9197587,pdf,064bacd32d3a749ef4e8f6ab51313191,,,A:\\sciencedirect_books\\9782294712869 (36).pdf,0,2000-01-01 01:00:00,2016-04-03 02:51:08,1112000/064bacd32d3a749ef4e8f6ab51313191-d.jpg,,
22401496,Rééducation Posturale Globale. RPG - La methode,,,,Philippe Souchard (Auth.),2011,ELSEVIER-MASSON,ELSEVIER-MASSON,,177,0,French,,,,978-2-294-71296-8,,,,,,,,,,,0,,,,,,,1,15521315,pdf,24110459397026765a99a36f96f62991,,,A:\\sciencedirect_books\\9782294712968 (25).pdf,0,2000-01-01 01:00:00,2016-04-03 02:51:08,1112000/24110459397026765a99a36f96f62991-d.jpg,,
22401497,Atlas De Techniques Articulaires Ostéopathiques. Tome 1. les Membres,,,,Serge Tixa and Bernard Ebenegger (Auth.),2010,ELSEVIER-MASSON,ELSEVIER-MASSON,,269,0,French,,,,978-2-294-71305-7,,,,,,,,,,,0,,,,,,,1,24332529,pdf,365d4044bc39f7d0819ee5294c304648,,,A:\\sciencedirect_books\\9782294713057 (12).pdf,0,2000-01-01 01:00:00,2016-04-03 02:51:08,1112000/365d4044bc39f7d0819ee5294c304648-d.jpg,,
22401498,Ruptures De la Coiffe des Rotateurs,,,,"Jean-François Kempf, Daniel Molé and SOFCOT (Auth.)",2011,ELSEVIER-MASSON,ELSEVIER-MASSON,,301,0,French,,,,978-2-294-71318-7,,,,,,,,,,,0,,,,,,,1,57230600,pdf,9bbec21d5b4f7e9a755dc26ba0d758c3,,,A:\\sciencedirect_books\\9782294713187 (28).pdf,0,2000-01-01 01:00:00,2016-04-03 02:51:08,1112000/9bbec21d5b4f7e9a755dc26ba0d758c3-d.jpg,,
22401499,Imagerie Thoracique. Enfant et adulte,,,,Antoine Khalil (Auth.),2012,ELSEVIER-MASSON,ELSEVIER-MASSON,,1033,0,French,,,,978-2-294-71321-7,,,,,,,,,,,0,,,,,,,1,92836858,pdf,261133ba1534b1c5c2dd365216e529fc,,,A:\\sciencedirect_books\\9782294713217 (28).pdf,0,2000-01-01 01:00:00,2016-04-03 02:51:08,1112000/261133ba1534b1c5c2dd365216e529fc-d.jpg,,
22401500,Chirurgie Dermatologique,,,,Jean-Michel Amici (Auth.),2011,ELSEVIER-MASSON,ELSEVIER-MASSON,,370,0,French,,,,978-2-294-71333-0,,,,,,,,,,,0,,,,,,,1,281750272,pdf,f7897a51329dc45e1e5ca6d419c8c6e0,,,A:\\sciencedirect_books\\9782294713330 (43).pdf,0,2000-01-01 01:00:00,2016-04-03 02:51:08,1112000/f7897a51329dc45e1e5ca6d419c8c6e0-d.jpg,,
22401501,Radiologie De L'appareil Locomoteur,,,,Michel Runge (Auth.),2011,ELSEVIER-MASSON,ELSEVIER-MASSON,,404,0,French,,,,978-2-294-71335-4,,,,,,,,,,,0,,,,,,,1,33833326,pdf,30e8220739b789a963516f3b7244f56c,,,A:\\sciencedirect_books\\9782294713354 (15).pdf,0,2000-01-01 01:00:00,2016-04-03 02:51:08,1112000/30e8220739b789a963516f3b7244f56c-d.jpg,,
22401502,Bases Psychologiques du Coaching Professionnel,,,,Pascal Barreau (Auth.),2011,ELSEVIER-MASSON,Elsevier Masson,,119,0,French,,,,978-2-294-71339-2,,,,,,,,,,,0,,,,,,,1,1046894,pdf,d2000bd5397db40ace32c4204abd9620,,,A:\\sciencedirect_books\\9782294713392 (14).pdf,0,2000-01-01 01:00:00,2016-04-03 02:51:08,1112000/d2000bd5397db40ace32c4204abd9620-d.jpg,,
22401503,La Remédiation Cognitive,,,,Nicolas Franck (Auth.),2012,ELSEVIER-MASSON,ELSEVIER-MASSON,,323,0,French,,,,978-2-294-71342-2,,,,,,,,,,,0,,,,,,,1,4810461,pdf,51cbb230dae0bb56be6aae34b1f69ce9,,,A:\\sciencedirect_books\\9782294713422 (13).pdf,0,2000-01-01 01:00:00,2016-04-03 02:51:08,1112000/51cbb230dae0bb56be6aae34b1f69ce9-d.jpg,,
22401504,Positions et Incidences en Radiologie Conventionnelle. Guide pratique,,,,"Kenneth Bontrager, John P. Lampignano and Michel Bléry (Auth.)",2011,ELSEVIER-MASSON,ELSEVIER-MASSON,,330,0,French,,,,"978-2-294-71344-6,978-0-323-05630-4",,,,,,,,,,,0,,,,,,,1,29985187,pdf,667e5ea06321f437e443d018bafdf870,,,A:\\sciencedirect_books\\9782294713446 (24).pdf,0,2000-01-01 01:00:00,2016-04-03 02:51:08,1112000/667e5ea06321f437e443d018bafdf870-d.jpg,,
22401505,Traité de médecine vasculaire.,,,,Société Française de Médecine (Auth.),2011,ELSEVIER-MASSON,ELSEVIER-MASSON,,905,0,French,,,,978-2-294-71346-0,,,,,,,,,,,0,,,,,,,1,98949396,pdf,bad07e02b4e96f5b8993309310a287a5,,,A:\\sciencedirect_books\\9782294713460 (51).pdf,0,2000-01-01 01:00:00,2016-04-03 02:51:08,1112000/bad07e02b4e96f5b8993309310a287a5-d.jpg,,
22401506,Guide des Soins. Pour le manipulateur en radiologie,,,,Elisabeth Moerschel (Auth.),2012,ELSEVIER-MASSON,ELSEVIER-MASSON,,119,0,French,,,,978-2-294-71347-7,,,,,,,,,,,0,,,,,,,1,70010156,pdf,970a61f2469ed24ce3b14b7f59f61784,,,A:\\sciencedirect_books\\9782294713477 (17).pdf,0,2000-01-01 01:00:00,2016-04-03 02:51:08,1112000/970a61f2469ed24ce3b14b7f59f61784-d.jpg,,
22401507,La Voix : T1. Anatomie et physiologie des organes de la voix et de la parole,,,,François Le Huche and André Allali (Auth.),2010,ELSEVIER-MASSON,ELSEVIER-MASSON,,203,0,French,,,,978-2-294-71349-1,,,,,,,,,,,0,,,,,,,1,19352434,pdf,1668c01d785c641fea7dac2ca4c7a193,,,A:\\sciencedirect_books\\9782294713491 (13).pdf,0,2000-01-01 01:00:00,2016-04-03 02:51:08,1112000/1668c01d785c641fea7dac2ca4c7a193-d.jpg,,
22401508,"Les Violences Sexuelles–L'adolescence. Comprendre, accueillir, prevenir",,,,Pascal Roman (Auth.),2012,ELSEVIER-MASSON,ELSEVIER-MASSON,,198,0,French,,,,978-2-294-71358-3,,,,,,,,,,,0,,,,,,,1,1533184,pdf,b82354652ccaa9fa85af28722a5c1587,,,A:\\sciencedirect_books\\9782294713583 (21).pdf,0,2000-01-01 01:00:00,2016-04-03 02:51:08,1112000/b82354652ccaa9fa85af28722a5c1587-d.jpg,,
22401509,Anesthésie Locorégionale Aux Urgences - Facile,,,,Mike Wells and John Scott & Co (Auth.),2011,ELSEVIER-MASSON,ELSEVIER-MASSON,,191,0,French,,,,"978-2-294-71360-6,978-0-7020-3488-6",,,,,,,,,,,0,,,,,,,1,14293552,pdf,dc9bfee0f60771196e3cc33ab599952c,,,A:\\sciencedirect_books\\9782294713606 (17).pdf,0,2000-01-01 01:00:00,2016-04-03 02:51:08,1112000/dc9bfee0f60771196e3cc33ab599952c-d.jpg,,
22401510,Chirurgie Oncologique et Digestive 2011,,,,"Fran�ois Lacaine, Christophe Mariette, Stéphane Benoist, Philippe de Mestier, Bertrand Suc (Auth.)",2011,ELSEVIER-MASSON,Elsevier Masson,,195,0,French,,,,978-2-294-71363-7,,,,,,,,,,,0,,,,,,,1,1684228,pdf,5e3bfc09341e68e77cb19251cdc5e29d,,,A:\\sciencedirect_books\\9782294713637 (18).pdf,0,2000-01-01 01:00:00,2016-04-03 02:51:08,1112000/5e3bfc09341e68e77cb19251cdc5e29d-d.jpg,,
22401511,Neuro-ophtalmologie. AAO/SFO,,,,"American Academy of Ophthalmol, Société Française d'Ophtalmolo, Catherine Vignal and Miléa Dan (Auth.)",2011,ELSEVIER-MASSON,ELSEVIER-MASSON,,413,0,French,,,,978-2-294-71370-5,,,,,,,,,,,0,,,,,,,1,65976921,pdf,25efe9e726b0e4f92025750ac4ccfa55,,,A:\\sciencedirect_books\\9782294713705 (26).pdf,0,2000-01-01 01:00:00,2016-04-03 02:51:08,1112000/25efe9e726b0e4f92025750ac4ccfa55-d.jpg,,
22401512,IRM Pratique,,,,Lionel Arrivé (Auth.),2012,ELSEVIER-MASSON,ELSEVIER-MASSON,,409,0,French,,,,978-2-294-71371-2,,,,,,,,,,,0,,,,,,,1,8269942,pdf,379ef52b748a952b1edce123d32872a5,,,A:\\sciencedirect_books\\9782294713712 (45).pdf,0,2000-01-01 01:00:00,2016-04-03 02:51:08,1112000/379ef52b748a952b1edce123d32872a5-d.jpg,,
22401513,"Chirurgie Plastique et Reconstructive du Sein. Oncoplastie, reconstruction et esthetique",,,,Jean-Pierre Chavoin and SOFCPRE (Auth.),2011,ELSEVIER-MASSON,ELSEVIER-MASSON,,202,0,French,,,,978-2-294-71374-3,,,,,,,,,,,0,,,,,,,1,143898205,pdf,9d4a3498293d2cf062cd97c310e4e543,,,A:\\sciencedirect_books\\9782294713743 (27).pdf,0,2000-01-01 01:00:00,2016-04-03 02:51:08,1112000/9d4a3498293d2cf062cd97c310e4e543-d.jpg,,
22401514,Atlas D'anatomie Implantaire,,,,"Jean-François Gaudy, Bernard Cannas, Luc Gillot and Thierry Gorce (Auth.)",2011,ELSEVIER-MASSON,ELSEVIER-MASSON,,228,0,French,,,,978-2-294-71379-8,,,,,,,,,,,0,,,,,,,1,209307681,pdf,5b24691f5e43ef66467648838fb22207,,,A:\\sciencedirect_books\\9782294713798 (17).pdf,0,2000-01-01 01:00:00,2016-04-03 02:51:08,1112000/5b24691f5e43ef66467648838fb22207-d.jpg,,
22401515,Guide Clinique D'odontologie,,,,Rodolphe Zunzarren (Auth.),2011,ELSEVIER-MASSON,ELSEVIER-MASSON,,277,0,French,,,,978-2-294-71411-5,,,,,,,,,,,0,,,,,,,1,10655506,pdf,0092d7baa3808e07be7949e04c74f618,,,A:\\sciencedirect_books\\9782294714115 (20).pdf,0,2000-01-01 01:00:00,2016-04-03 02:51:08,1112000/0092d7baa3808e07be7949e04c74f618-d.jpg,,
22401516,Handicap et Famille. Approche neuro-systemique et lesions cerebrales,,,,"Jean Michel Mazaux, Jean-Marc Destaillats, Christian Belio and Jacques Pélissier (Auth.)",2011,ELSEVIER-MASSON,ELSEVIER-MASSON,,141,0,French,,,,978-2-294-71414-6,,,,,,,,,,,0,,,,,,,1,2088907,pdf,13097c59813cb1be945518577b5541df,,,A:\\sciencedirect_books\\9782294714146 (16).pdf,0,2000-01-01 01:00:00,2016-04-03 02:51:08,1112000/13097c59813cb1be945518577b5541df-d.jpg,,
22401517,Cadre De Santé De Proximité. Un metier au coeur du soin. Penser une ethique du quotidien des soins,,,,Walter Hesbeen (Auth.),2011,ELSEVIER-MASSON,Elsevier Masson,,160,0,French,,,,978-2-294-71419-1,,,,,,,,,,,0,,,,,,,1,1103593,pdf,c5563451333a3fe4808f62b324a7d410,,,A:\\sciencedirect_books\\9782294714191 (18).pdf,0,2000-01-01 01:00:00,2016-04-03 02:51:08,1112000/c5563451333a3fe4808f62b324a7d410-d.jpg,,
22401518,Mémento De la Sage Femme,,,,Richard Matis (Auth.),2011,ELSEVIER-MASSON,ELSEVIER-MASSON,,250,0,French,,,,978-2-294-71425-2,,,,,,,,,,,0,,,,,,,1,4187725,pdf,f42c90e32bbcafd68fd2b6f330e1a39d,,,A:\\sciencedirect_books\\9782294714252 (19).pdf,0,2000-01-01 01:00:00,2016-04-03 02:51:08,1112000/f42c90e32bbcafd68fd2b6f330e1a39d-d.jpg,,
22401519,Botanique. Les familles des plantes,,,,Frédéric Dupont and Jean-Louis Guignard (Auth.),2011,ELSEVIER-MASSON,ELSEVIER-MASSON,,309,0,French,,,,978-2-294-71426-9,,,,,,,,,,,0,,,,,,,1,83191505,pdf,9e889c406513d12512aa00119b73fe57,,,A:\\sciencedirect_books\\9782294714269 (18).pdf,0,2000-01-01 01:00:00,2016-04-03 02:51:08,1112000/9e889c406513d12512aa00119b73fe57-d.jpg,,
22401520,"Examen Clinique De L'appareil Locomoteur. Tests, evaluation et niveaux de preuve",,,,Joshua Cleland and Shane Koppenhaver (Auth.),2012,ELSEVIER-MASSON,ELSEVIER-MASSON,,517,0,French,,,,978-2-294-71427-6,,,,,,,,,,,0,,,,,,,1,187703085,pdf,e9f4eacaf3e42c6ddac519a50035dfcc,,,A:\\sciencedirect_books\\9782294714276 (20).pdf,0,2000-01-01 01:00:00,2016-04-03 02:51:08,1112000/e9f4eacaf3e42c6ddac519a50035dfcc-d.jpg,,
22401521,Pathologies Musculosquelettiques Douloureuses. Imagerie et diagnostic,,,,"Steven D. Waldman, Robert S. D. Campbell and Michel Bléry (Auth.)",2012,ELSEVIER-MASSON,ELSEVIER-MASSON,,419,0,French,,,,"978-2-294-71429-0,978-1-4377-0906-3",,,,,,,,,,,0,,,,,,,1,68175765,pdf,09663d05e4bf4e8c0670b5475e20a18c,,,A:\\sciencedirect_books\\9782294714290 (185).pdf,0,2000-01-01 01:00:00,2016-04-03 02:51:08,1112000/09663d05e4bf4e8c0670b5475e20a18c-d.jpg,,
22401522,"Diagnostics Infirmiers, Interventions et Résultats. Classifications infirmiéres et plans de soins",,,,Annie Pascal and Éliane Frécon Valentin (Auth.),2011,ELSEVIER-MASSON,Elsevier Masson,,1012,0,French,,,,978-2-294-71437-5,,,,,,,,,,,0,,,,,,,1,30843611,pdf,e340a52513ac1172bc06fe56bc74626c,,,A:\\sciencedirect_books\\9782294714375 (344).pdf,0,2000-01-01 01:00:00,2016-04-03 02:51:08,1112000/e340a52513ac1172bc06fe56bc74626c-d.jpg,,
22401523,Guide Pratique De Chirurgie Parodontale,,,,François Vigouroux (Auth.),2011,ELSEVIER-MASSON,ELSEVIER-MASSON,,183,0,French,,,,978-2-294-71446-7,,,,,,,,,,,0,,,,,,,1,51141726,pdf,57c15b399e6c8059f2625bf70c1fadee,,,A:\\sciencedirect_books\\9782294714467 (11).pdf,0,2000-01-01 01:00:00,2016-04-03 02:51:08,1112000/57c15b399e6c8059f2625bf70c1fadee-d.jpg,,
22401524,Lupus érythémateux,,,,Dan Lipsker and Jean Sibilia (Auth.),2013,,,,297,0,French,,,,978-2-294-71447-4,,,,,,,,,,,0,,,,,,,1,30943840,pdf,5209d0e8f1664930ecfaeef0532b062b,,,A:\\sciencedirect_books\\9782294714474 (42).pdf,0,2000-01-01 01:00:00,2016-04-03 02:51:08,1112000/5209d0e8f1664930ecfaeef0532b062b-d.jpg,,
22401525,Traitements du Langage Oral Chez L'enfant. Symptômes et interventions,,,,Marie-Anne Schelstraete (Auth.),2011,ELSEVIER-MASSON,ELSEVIER-MASSON,,290,0,French,,,,978-2-294-71450-4,,,,,,,,,,,0,,,,,,,1,2477562,pdf,9645ac5b33d34b1c52ffb0eb29ff4c56,,,A:\\sciencedirect_books\\9782294714504 (12).pdf,0,2000-01-01 01:00:00,2016-04-03 02:51:08,1112000/9645ac5b33d34b1c52ffb0eb29ff4c56-d.jpg,,
22401526,Guide Pratique De L'infirmière,,,,Gabriel Perlemuter and Léon Perlemuter (Auth.),2011,ELSEVIER-MASSON,ELSEVIER-MASSON,,1747,0,French,,,,978-2-294-71458-0,,,,,,,,,,,0,,,,,,,1,13717348,pdf,91e92795da61a6c30771510c6174b854,,,A:\\sciencedirect_books\\9782294714580 (29).pdf,0,2000-01-01 01:00:00,2016-04-03 02:51:08,1112000/91e92795da61a6c30771510c6174b854-d.jpg,,
22401527,Aide–L'examen du Système Nerveux Périphérique. Edition revisee,,,,Comité directeur de la revue d and Alain Guierre (Auth.),2011,ELSEVIER-MASSON,Elsevier Masson,,72,0,French,,,,978-2-294-71460-3,,,,,,,,,,,0,,,,,,,1,13164018,pdf,4dfe1006077ea9c5d2227e5adcf646be,,,A:\\sciencedirect_books\\9782294714603 (19).pdf,0,2000-01-01 01:00:00,2016-04-03 02:51:08,1112000/4dfe1006077ea9c5d2227e5adcf646be-d.jpg,,
22401528,400 Exercices De Lecture et Compréhension,,,,Marie-Christine Perret (Auth.),2011,ELSEVIER-MASSON,Elsevier Masson,,265,0,French,,,,978-2-294-71462-7,,,,,,,,,,,0,,,,,,,1,26480250,pdf,8d65846ed6ce4fc15f50847cc6e5570d,,,A:\\sciencedirect_books\\9782294714627 (21).pdf,0,2000-01-01 01:00:00,2016-04-03 02:51:08,1112000/8d65846ed6ce4fc15f50847cc6e5570d-d.jpg,,
22401529,Psychothérapie De Soutien,,,,Laurent Schmitt (Auth.),2012,ELSEVIER-MASSON,ELSEVIER-MASSON,,233,0,French,,,,978-2-294-71463-4,,,,,,,,,,,0,,,,,,,1,2359337,pdf,f12a8f6e629aa48a6212caab87d810bf,,,A:\\sciencedirect_books\\9782294714634 (29).pdf,0,2000-01-01 01:00:00,2016-04-03 02:51:08,1112000/f12a8f6e629aa48a6212caab87d810bf-d.jpg,,
22401530,Décollements De Rétine. Rapport SFO 2011,,,,"Georges Caputo, Florence Metge, Carl Arndt, John Conrath and Société Française d'Ophtalmolo (Auth.)",2011,ELSEVIER-MASSON,ELSEVIER-MASSON,,520,0,French,,,,978-2-294-71471-9,,,,,,,,,,,0,,,,,,,1,229539218,pdf,9dde6aa94db778e4d40cbf56379991bb,,,A:\\sciencedirect_books\\9782294714719 (81).pdf,0,2000-01-01 01:00:00,2016-04-03 02:51:08,1112000/9dde6aa94db778e4d40cbf56379991bb-d.jpg,,
22401531,Psychologie Pathologique. Theorique et clinique,,,,"Jean Bergeret, Ary Bécache, Jules-Jean Boulanger, Jean-Paul Chartier and Pierre Dubor (Auth.)",2012,ELSEVIER-MASSON,ELSEVIER-MASSON,,349,0,French,,,,978-2-294-71483-2,,,,,,,,,,,0,,,,,,,1,2394541,pdf,93bf9ec5488a840bae34c6113547d70a,,,A:\\sciencedirect_books\\9782294714832 (21).pdf,0,2000-01-01 01:00:00,2016-04-03 02:51:08,1112000/93bf9ec5488a840bae34c6113547d70a-d.jpg,,
22401532,TDM des tumeurs abdominales,,,,"Eric Delabrousse, Séverine Valmary-Degano, Sébastien Aubry, Emmanuel Dietsch and Nicolas Badet (Auth.)",2012,ELSEVIER-MASSON,ELSEVIER-MASSON,,333,0,French,,,,978-2-294-71486-3,,,,,,,,,,,0,,,,,,,1,9967078,pdf,d992aab464f986eb9e3ef081da536cd6,,,A:\\sciencedirect_books\\9782294714863 (24).pdf,0,2000-01-01 01:00:00,2016-04-03 02:51:08,1112000/d992aab464f986eb9e3ef081da536cd6-d.jpg,,
22401533,Analyses De Laboratoire en Odontostomatologie,,,,René Caquet (Auth.),2012,ELSEVIER-MASSON,ELSEVIER-MASSON,,227,0,French,,,,978-2-294-71487-0,,,,,,,,,,,0,,,,,,,1,2145881,pdf,9afffcd69de6499a1df486ff75a20261,,,A:\\sciencedirect_books\\9782294714870 (18).pdf,0,2000-01-01 01:00:00,2016-04-03 02:51:08,1112000/9afffcd69de6499a1df486ff75a20261-d.jpg,,
22401534,Le Retard De Croissance Intra-utérin,,,,Vassilis Tsatsaris (Auth.),2012,ELSEVIER-MASSON,ELSEVIER-MASSON,,195,0,French,,,,978-2-294-71496-2,,,,,,,,,,,0,,,,,,,1,29712207,pdf,4c1d4dc37660169996abcf9f3a4560f3,,,A:\\sciencedirect_books\\9782294714962 (31).pdf,0,2000-01-01 01:00:00,2016-04-03 02:51:08,1112000/4c1d4dc37660169996abcf9f3a4560f3-d.jpg,,
22401535,"Rééducation De L'appareil Locomoteur, T2. Tome 2 : membre superieur",,,,"Aude Quesnot, Jean-Claude Chanussot and Raymond-Gilbert Danowski (Auth.)",2011,ELSEVIER-MASSON,ELSEVIER-MASSON,,452,0,French,,,,978-2-294-71504-4,,,,,,,,,,,0,,,,,,,1,9348106,pdf,0c08adbd63625e1d24b85babc9fcf112,,,A:\\sciencedirect_books\\9782294715044 (37).pdf,0,2000-01-01 01:00:00,2016-04-03 02:51:08,1112000/0c08adbd63625e1d24b85babc9fcf112-d.jpg,,
22401536,Traité De Chirurgie du Genou,,,,Philippe Neyret and Guillaume Demey (Auth.),2011,ELSEVIER-MASSON,ELSEVIER-MASSON,,360,0,French,,,,978-2-294-71510-5,,,,,,,,,,,0,,,,,,,1,242685620,pdf,211f128170fbee3a84171450ff11d4c1,,,A:\\sciencedirect_books\\9782294715105 (49).pdf,0,2000-01-01 01:00:00,2016-04-03 02:51:08,1112000/211f128170fbee3a84171450ff11d4c1-d.jpg,,
22401537,Les Personnalités Pathologiques,,,,Quentin Debray and Daniel Nollet (Auth.),2011,ELSEVIER-MASSON,ELSEVIER-MASSON,,188,0,French,,,,978-2-294-71514-3,,,,,,,,,,,0,,,,,,,1,1573503,pdf,cf0b33e65ae9c42b0feaac06c017e9af,,,A:\\sciencedirect_books\\9782294715143 (25).pdf,0,2000-01-01 01:00:00,2016-04-03 02:51:08,1112000/cf0b33e65ae9c42b0feaac06c017e9af-d.jpg,,
22401538,Cas Cliniques en Thérapies Comportementales et Cognitives,,,,Jérôme Palazzolo (Auth.),2012,ELSEVIER-MASSON,ELSEVIER-MASSON,,267,0,French,,,,978-2-294-71516-7,,,,,,,,,,,0,,,,,,,1,6094470,pdf,bc8816bcce215ff4af2dc6167c4aed0a,,,A:\\sciencedirect_books\\9782294715167 (20).pdf,0,2000-01-01 01:00:00,2016-04-03 02:51:08,1112000/bc8816bcce215ff4af2dc6167c4aed0a-d.jpg,,
22401539,Hystéroscopie et Fertiloscopie,,,,"Herve Fernandez, Olivier Garbin and Amélie Gervaise (Auth.)",2011,,,,227,0,French,,,,978-2-294-71521-1,,,,,,,,,,,0,,,,,,,1,103260360,pdf,493bc49462be8f5a98d96afe4dc95dfc,,,A:\\sciencedirect_books\\9782294715211 (52).pdf,0,2000-01-01 01:00:00,2016-04-03 02:51:08,1112000/493bc49462be8f5a98d96afe4dc95dfc-d.gif,,
22401540,"Sexualité, Couple et Tcc. Volume 2 : les Difficultés Conjugales",,,,"François-Xavier Poudat, Madeleine Beaudry, Jean-Marie Boisvert, Noëlla Jarrousse and Gilles Trudel (Auth.)",2011,ELSEVIER-MASSON,ELSEVIER-MASSON,,212,0,French,,,,978-2-294-71525-9,,,,,,,,,,,0,,,,,,,1,1448336,pdf,ad1122fa3d5c202cd4b5e5e90e311714,,,A:\\sciencedirect_books\\9782294715259 (15).pdf,0,2000-01-01 01:00:00,2016-04-03 02:51:08,1112000/ad1122fa3d5c202cd4b5e5e90e311714-d.jpg,,
22401541,Conférences d'enseignement de la SOFCOT 2012,,,,Denis Huten and Patricia Thoreux (Auth.),2012,ELSEVIER-MASSON,ELSEVIER-MASSON,,249,0,French,,,,978-2-294-71535-8,,,,,,,,,,,0,,,,,,,1,35607848,pdf,2a1d921678fc1cd45878faa5f7611bc9,,,A:\\sciencedirect_books\\9782294715358 (24).pdf,0,2000-01-01 01:00:00,2016-04-03 02:51:08,1112000/2a1d921678fc1cd45878faa5f7611bc9-d.jpg,,
22401542,Traité De Toxicologie Médico-judiciaire,,,,Pascal Kintz (Auth.),2012,ELSEVIER-MASSON,ELSEVIER-MASSON,,765,0,French,,,,978-2-294-71561-7,,,,,,,,,,,0,,,,,,,1,18959889,pdf,b10b2963eb14ae31d4fd479007fbfb9b,,,A:\\sciencedirect_books\\9782294715617 (30).pdf,0,2000-01-01 01:00:00,2016-04-03 02:51:08,1112000/b10b2963eb14ae31d4fd479007fbfb9b-d.jpg,,
22401543,Plans De Soins Types et Chemins Cliniques. 19 situations cliniques prevalentes,,,,Thérèse Psiuk and Christine Verhelst (Auth.),2011,ELSEVIER-MASSON,ELSEVIER-MASSON,,393,0,French,,,,978-2-294-71570-9,,,,,,,,,,,0,,,,,,,1,8085440,pdf,b363e0303a59e7551cfe040c195b4fb6,,,A:\\sciencedirect_books\\9782294715709 (27).pdf,0,2000-01-01 01:00:00,2016-04-03 02:51:08,1112000/b363e0303a59e7551cfe040c195b4fb6-d.jpg,,
22401544,Les Troubles du Comportement Alimentaire,,,,"Claire Lamas, Isabelle Nicolas, Rebecca Shankland and Julien-Daniel Guelfi (Auth.)",2011,ELSEVIER-MASSON,ELSEVIER-MASSON,,166,0,French,,,,978-2-294-71572-3,,,,,,,,,,,0,,,,,,,1,1700884,pdf,e81b85da4ee6b21a30041e6e7fbf86d0,,,A:\\sciencedirect_books\\9782294715723 (13).pdf,0,2000-01-01 01:00:00,2016-04-03 02:51:08,1112000/e81b85da4ee6b21a30041e6e7fbf86d0-d.jpg,,
22401545,L'aide-soignant en Service De Psychiatrie,,,,Marie-Odile Rioufol and Florent Vénuat (Auth.),2011,ELSEVIER-MASSON,ELSEVIER-MASSON,,197,0,French,,,,978-2-294-71582-2,,,,,,,,,,,0,,,,,,,1,2126149,pdf,ebe8fabafba45f8b3f20959180bfef5a,,,A:\\sciencedirect_books\\9782294715822 (30).pdf,0,2000-01-01 01:00:00,2016-04-03 02:51:08,1112000/ebe8fabafba45f8b3f20959180bfef5a-d.jpg,,
22401546,Infiltrations échoguidées,,,,Jean-Luc Drapé and Henri Guerini (Auth.),2012,ELSEVIER-MASSON,ELSEVIER-MASSON,,229,0,French,,,,978-2-294-71586-0,,,,,,,,,,,0,,,,,,,1,71169147,pdf,9c55fd4bcd30624eab4d6c6bc8462945,,,A:\\sciencedirect_books\\9782294715860 (20).pdf,0,2000-01-01 01:00:00,2016-04-03 02:51:08,1112000/9c55fd4bcd30624eab4d6c6bc8462945-d.jpg,,
22401547,Rachis et Sports. Quels risques ? Quels effets benefiques ?,,,,Jacques Rodineau and Sylvie Besch (Auth.),2011,ELSEVIER-MASSON,ELSEVIER-MASSON,,268,0,French,,,,978-2-294-71588-4,,,,,,,,,,,0,,,,,,,1,16573853,pdf,c39e4ae5f612d6ebe830a55e84c1f55a,,,A:\\sciencedirect_books\\9782294715884 (23).pdf,0,2000-01-01 01:00:00,2016-04-03 02:51:08,1112000/c39e4ae5f612d6ebe830a55e84c1f55a-d.jpg,,
22401548,L'enfant Schizophrène - L'Enfance du Schizophrène,,,,Daniel Bailly (Auth.),2012,ELSEVIER-MASSON,ELSEVIER-MASSON,,149,0,French,,,,978-2-294-71922-6,,,,,,,,,,,0,,,,,,,1,1376200,pdf,c3f4b9fe382cb421317213cfd5256b49,,,A:\\sciencedirect_books\\9782294719226 (14).pdf,0,2000-01-01 01:00:00,2016-04-03 02:51:08,1112000/c3f4b9fe382cb421317213cfd5256b49-d.jpg,,
22401549,Pratiquer L'orthophonie. Experiences et savoir-faire de 33 orthophonistes,,,,Françoise Estienne and Fabienne Vander Linden (Auth.),2012,ELSEVIER-MASSON,ELSEVIER-MASSON,,347,0,French,,,,978-2-294-72053-6,,,,,,,,,,,0,,,,,,,1,2613109,pdf,cada7691a6e93e7b1e7fb837cb462dc8,,,A:\\sciencedirect_books\\9782294720536 (35).pdf,0,2000-01-01 01:00:00,2016-04-03 02:51:08,1112000/cada7691a6e93e7b1e7fb837cb462dc8-d.jpg,,
22401550,Aide Au Diagnostic en Médecine Générale. Examens et algorithmes decisionnels (pastille FERRI),,,,Fred F Ferri and Jacques Wagner-Ballon (Auth.),2012,ELSEVIER-MASSON,ELSEVIER-MASSON,,231,0,French,,,,"978-2-294-72126-7,978-0-323-05759-2",,,,,,,,,,,0,,,,,,,1,29335027,pdf,2ef0f5a189317204abb5877f6c979201,,,A:\\sciencedirect_books\\9782294721267 (10).pdf,0,2000-01-01 01:00:00,2016-04-03 02:51:08,1112000/2ef0f5a189317204abb5877f6c979201-d.jpg,,
22401551,"Posturologie Clinique. Comprendre, évaluer, Soulager les Douleurs",,,,"API - Association de Posturologie Intern, Bernard Weber and Philippe Villeneuve (Auth.)",2012,ELSEVIER-MASSON,ELSEVIER-MASSON,,215,0,French,,,,978-2-294-72130-4,,,,,,,,,,,0,,,,,,,1,9578889,pdf,3e52b185b4f3c6b80ffb41b50c599379,,,A:\\sciencedirect_books\\9782294721304 (25).pdf,0,2000-01-01 01:00:00,2016-04-03 02:51:08,1112000/3e52b185b4f3c6b80ffb41b50c599379-d.jpg,,
22401552,Se Rétablir De la Schizophrénie. Guide pratique pour les professionnels,,,,Jérôme Favrod and Agnès Maire (Auth.),2012,ELSEVIER-MASSON,ELSEVIER-MASSON,,175,0,French,,,,978-2-294-72373-5,,,,,,,,,,,0,,,,,,,1,1725007,pdf,d29b53d2f4334801557b2e434fb4facf,,,A:\\sciencedirect_books\\9782294723735 (19).pdf,0,2000-01-01 01:00:00,2016-04-03 02:51:08,1112000/d29b53d2f4334801557b2e434fb4facf-d.jpg,,
22401553,Le Jeu Pathologique,,,,Marie Grall-Bronnec (Auth.),2012,ELSEVIER-MASSON,ELSEVIER-MASSON,,160,0,French,,,,978-2-294-72671-2,,,,,,,,,,,0,,,,,,,1,1933494,pdf,86f69b5589b0237e9fc2521140700b44,,,A:\\sciencedirect_books\\9782294726712 (35).pdf,0,2000-01-01 01:00:00,2016-04-03 02:51:08,1112000/86f69b5589b0237e9fc2521140700b44-d.jpg,,
22401554,Chirurgie coeloscopique en gynécologie,,,,"Gérard Mage, Nicolas Bourdel, Revaz Botchorishvili, Michel Canis, Kris Jardon, Jean-Luc Pouly, Benôit Rabischong and Arnaud Wattiez (Auth.)",2012,ELSEVIER-MASSON,ELSEVIER-MASSON,,287,0,French,,,,978-2-294-72681-1,,,,,,,,,,,0,,,,,,,1,229068270,pdf,1385e0db93eb81caa99118050999c457,,,A:\\sciencedirect_books\\9782294726811 (30).pdf,0,2000-01-01 01:00:00,2016-04-03 02:51:08,1112000/1385e0db93eb81caa99118050999c457-d.jpg,,
22401555,Guide Pratique De la Consultation en Pédiatrie,,,,Jérôme Valleteau De Moulliac (Auth.),2012,ELSEVIER-MASSON,ELSEVIER-MASSON,,479,0,French,,,,978-2-294-72704-7,,,,,,,,,,,0,,,,,,,1,6800394,pdf,833c638161fe232a24674ea4284c46a5,,,A:\\sciencedirect_books\\9782294727047 (36).pdf,0,2000-01-01 01:00:00,2016-04-03 02:51:08,1112000/833c638161fe232a24674ea4284c46a5-d.jpg,,
22401556,Echocardiographie Fœtale,,,,Philippe Pezard and Françoise Boussion (Auth.),2013,ELSEVIER-MASSON,ELSEVIER-MASSON,,451,0,French,,,,978-2-294-72878-5,,,,,,,,,,,0,,,,,,,1,270573768,pdf,fcb5cd0e1a2447688f18eb737b5b7b13,,,A:\\sciencedirect_books\\9782294728785 (30).pdf,0,2000-01-01 01:00:00,2016-04-03 02:51:08,1112000/fcb5cd0e1a2447688f18eb737b5b7b13-d.jpg,,
22401557,Le ligament croisé antérieur: de la rupture `l'arthrose,,,,"Sylvie Besch, Jacques Rodineau and Élisabeth Furgolle (Auth.)",2012,ELSEVIER-MASSON,ELSEVIER-MASSON,,231,0,French,,,,978-2-294-72966-9,,,,,,,,,,,0,,,,,,,1,10895992,pdf,d0825b7141acd342c37cb4d775875189,,,A:\\sciencedirect_books\\9782294729669 (23).pdf,0,2000-01-01 01:00:00,2016-04-03 02:51:08,1112000/d0825b7141acd342c37cb4d775875189-d.jpg,,
22401558,Infirmière en Milieu Scolaire,,,,Valérie Cottin (Auth.),2012,ELSEVIER-MASSON,ELSEVIER-MASSON,,120,0,French,,,,978-2-294-73097-9,,,,,,,,,,,0,,,,,,,1,848784,pdf,bb3d74dc6dc6550742a9b7270033ab56,,,A:\\sciencedirect_books\\9782294730979 (10).pdf,0,2000-01-01 01:00:00,2016-04-03 02:51:08,1112000/bb3d74dc6dc6550742a9b7270033ab56-d.jpg,,
22401559,13 mises au point en chirurgie de la hanche,,,,Denis Huten (Auth.),2012,,,,240,0,French,,,,978-2-294-73416-8,,,,,,,,,,,0,,,,,,,1,21238585,pdf,053192d2144ea201cd21e1fecf034b23,,,A:\\sciencedirect_books\\9782294734168 (17).pdf,0,2000-01-01 01:00:00,2016-04-03 02:51:08,1112000/053192d2144ea201cd21e1fecf034b23-d.jpg,,
22401560,Traitement De L'image. de la numérisation `l'archivage et la communication,,,,"Olivier Hélénon Joël Chabriais, Bernard Gibaud and Denis Mariano-Goulard (Auth.)",2013,ELSEVIER-MASSON,ELSEVIER-MASSON,,213,0,French,,,,978-2-294-73685-8,,,,,,,,,,,0,,,,,,,1,11241274,pdf,d49f5c3a640f66aef643316a593c99ac,,,A:\\sciencedirect_books\\9782294736858 (12).pdf,0,2000-01-01 01:00:00,2016-04-03 02:51:08,1112000/d49f5c3a640f66aef643316a593c99ac-d.jpg,,
22401561,"Dépressions Difficiles, Dépressions Résistantes. Guide pratique des stratégies psychopharmacologiques de potentialisation et encadrement éthique et juridique de la prescription",,,,David Gourion and Alain Gérard (Auth.),2013,,,,102,0,French,,,,"978-2-294-73727-5,978-2-294-73728-2",,,,,,,10.1016/B978-2-294-73727-5.X0001-3,,,,0,,,,,,,1,2531418,pdf,1f623005c6a8df85aef582654d77141b,,,A:\\sciencedirect_books\\9782294737275 (18).pdf,0,2000-01-01 01:00:00,2016-04-03 02:51:08,1112000/1f623005c6a8df85aef582654d77141b-d.gif,,
22401562,Anesthésie clinique,,,,,2008,ELSEVIER-MASSON,ELSEVIER-MASSON,,198,0,French,,,,978-2-8101-0021-7,,,,,,,,,,,0,,,,,,,1,12089985,pdf,c3e1f652e0d1ea13914518cae99ea005,,,A:\\sciencedirect_books\\9782810100217 (70).pdf,0,2000-01-01 01:00:00,2016-04-03 02:51:08,1112000/c3e1f652e0d1ea13914518cae99ea005-d.jpg,,
22401563,Traumatologie d'urgence,,,,,2009,ELSEVIER-MASSON,ELSEVIER-MASSON,,338,0,French,,,,978-2-8101-0087-3,,,,,,,,,,,0,,,,,,,1,7645443,pdf,f6b7a158d967106cbbb4d5097dd96575,,,A:\\sciencedirect_books\\9782810100873 (14).pdf,0,2000-01-01 01:00:00,2016-04-03 02:51:08,1112000/f6b7a158d967106cbbb4d5097dd96575-d.jpg,,
22401564,Diagnostic Périopératoire et échographie Interventionnelle,,,,"Dominic Harmon, Henry P. Frizelle, Navparkash S. Sandhu, Frances Colreavy and Griffin Michael (Auth.)",2010,ELSEVIER-MASSON,ELSEVIER-MASSON,,206,0,French,,,,"978-2-8101-0088-0,978-1-4160-3356-1",,,,,,,,,,,0,,,,,,,1,74392734,pdf,17c3f330435c40c21643052c2220761e,,,A:\\sciencedirect_books\\9782810100880 (31).pdf,0,2000-01-01 01:00:00,2016-04-03 02:51:08,1112000/17c3f330435c40c21643052c2220761e-d.jpg,,
22401565,Atlas D'Acupuncture,,,,Claudia Focks (Auth.),2009,ELSEVIER-MASSON,ELSEVIER-MASSON,,722,0,French,,,,978-2-8101-0093-4,,,,,,,,,,,0,,,,,,,1,45317364,pdf,c06828de8e35250221f33f4e47ffdac9,,,A:\\sciencedirect_books\\9782810100934 (20).pdf,0,2000-01-01 01:00:00,2016-04-03 02:51:08,1112000/c06828de8e35250221f33f4e47ffdac9-d.jpg,,
22401566,Médecine Ostéopathique et Traitement des Algies du Rachis Dorsal,,,,François Ricard and Florence Almosni-Le-Sueur (Auth.),2011,ELSEVIER-MASSON,Elsevier Masson,,417,0,French,,,,978-2-8101-0097-2,,,,,,,,,,,0,,,,,,,1,20168358,pdf,0bd939c8da9b4ed48bced860ccf4670e,,,A:\\sciencedirect_books\\9782810100972 (18).pdf,0,2000-01-01 01:00:00,2016-04-03 02:51:08,1112000/0bd939c8da9b4ed48bced860ccf4670e-d.jpg,,
22401567,Urgences neurovasculaires,,,,,2009,ELSEVIER-MASSON,ELSEVIER-MASSON,,244,0,French,,,,978-2-8101-0122-1,,,,,,,,,,,0,,,,,,,1,3240549,pdf,6d79af5d333a62eef8c35e668e5f3f04,,,A:\\sciencedirect_books\\9782810101221 (31).pdf,0,2000-01-01 01:00:00,2016-04-03 02:51:08,1112000/6d79af5d333a62eef8c35e668e5f3f04-d.jpg,,
22401568,IRM Cardiovasculaire Facile,,,,"Anitha Varghese, Dudley J. Pennell and Lionel Arrivé (Auth.)",2009,ELSEVIER-MASSON,ELSEVIER-MASSON,,152,0,French,,,,"978-2-8101-0125-2,978-0-443-10301-8",,,,,,,,,,,0,,,,,,,1,24075120,pdf,b5e72ef2e99e8649f1e5787c4a7faa56,,,A:\\sciencedirect_books\\9782810101252 (18).pdf,0,2000-01-01 01:00:00,2016-04-03 02:51:08,1112000/b5e72ef2e99e8649f1e5787c4a7faa56-d.jpg,,
22401569,La Pratique De L'ECG,,,,John R. Hampton and François Jan (Auth.),2010,ELSEVIER-MASSON,ELSEVIER-MASSON,,343,0,French,,,,"978-2-8101-0148-1,978-0-443-06825-6",,,,,,,,,,,0,,,,,,,1,16474822,pdf,813a5e767e8a265d9fbba91076c250b0,,,A:\\sciencedirect_books\\9782810101481 (12).pdf,0,2000-01-01 01:00:00,2016-04-03 02:51:08,1112000/813a5e767e8a265d9fbba91076c250b0-d.jpg,,
22401570,Précis D'Ophtalmologie Clinique,,,,"Jack J. Kanski, Gilles Chaine, Cyrine Khammari and Valérie Sarda (Auth.)",2011,ELSEVIER-MASSON,ELSEVIER-MASSON,,535,0,French,,,,"978-2-8101-0154-2,978-0-7020-3135-9",,,,,,,,,,,0,,,,,,,1,178306136,pdf,a98a45c10758f220c7bde5184bbf2c89,,,A:\\sciencedirect_books\\9782810101542 (30).pdf,0,2000-01-01 01:00:00,2016-04-03 02:51:08,1112000/a98a45c10758f220c7bde5184bbf2c89-d.jpg,,
22401571,"Lecture Critique et Communication Médicale Scientifique. Comment lire, presenter, rediger et publier une etude clinique ou epidemiologique",,,,Louis Rachid Salmi (Auth.),2011,ELSEVIER-MASSON,ELSEVIER-MASSON,,458,0,French,,,,978-2-8101-0182-5,,,,,,,,,,,0,,,,,,,1,11898664,pdf,90239482dce3e1f3937cf404de15e7c5,,,A:\\sciencedirect_books\\9782810101825 (114).pdf,0,2000-01-01 01:00:00,2016-04-03 02:51:08,1112000/90239482dce3e1f3937cf404de15e7c5-d.jpg,,
22401572,Anatomie du Corps Humain - Atlas D'imagerie,,,,"Jamie Weir, Peter H. Abrahams, Jonathan D. Spratt, Lonie R. Salkowski and Fabrice Duparc (Auth.)",2010,4,Educa Books,,261,0,French,,,,"978-2-8101-0189-4,9780-7234-3457-3",,,,,,,,,,,0,,,,,,,1,197663053,pdf,4f43cdf654a58a568e3f14cc412f6c35,,,A:\\sciencedirect_books\\9782810101894 (16).pdf,0,2000-01-01 01:00:00,2016-04-03 02:51:08,1112000/4f43cdf654a58a568e3f14cc412f6c35-d.jpg,,
22401573,Nouvelle Approche Manipulative. Membre Supérieur,,,,Jean-Pierre Barral and Alain Croibier (Auth.),2011,ELSEVIER-MASSON,ELSEVIER-MASSON,,254,0,French,,,,978-2-8101-0479-6,,,,,,,,,,,0,,,,,,,1,49474225,pdf,235c68b645b6b14af84d3e36b34603cd,,,A:\\sciencedirect_books\\9782810104796 (33).pdf,0,2000-01-01 01:00:00,2016-04-03 02:51:08,1112000/235c68b645b6b14af84d3e36b34603cd-d.jpg,,
22401574,Praxisleitfaden Zahnärztliche Chirurgie,,,,Jochen Jackowski and Hajo Peters (Auth.),2007,,Urban & Fischer bei Elsev,,471,0,German,,,,978-3-437-05540-9,,,,,,,,,,,0,,,,,,,1,12715224,pdf,a7b1bd19e006f433c2c722264566ed72,,,A:\\sciencedirect_books\\9783437055409 (26).pdf,0,2000-01-01 01:00:00,2016-04-03 02:51:08,1112000/a7b1bd19e006f433c2c722264566ed72-d.jpg,,
22401575,Ärztliche Sofortmaßnahmen. Notfälle und akute Erkrankungen,,,,"Herausgegeben von, G. Rudofsky, A.A. Schmaltz and K. Taeger (Eds.)",2007,,,,645,0,German,,,,978-3-437-15230-6,,,,,,,,,,,0,,,,,,,1,5803802,pdf,d8f7b9de810326673299b024d09a9870,,,A:\\sciencedirect_books\\9783437152306 (34).pdf,0,2000-01-01 01:00:00,2016-04-03 02:51:08,1112000/d8f7b9de810326673299b024d09a9870-d.jpg,,
22401576,Immunhämatologie und Klinische Transfusionsmedizin. Theorie und Praxis kompakt,,,,Reinhold Eckstein and Robert Zimmermann (Auth.),2011,6. Auflage,Urban & Fischer bei Elsev,,263,0,German,,,,978-3-437-21034-1,,,,,,,,,,,0,,,,,,,1,1415896,pdf,17b76ccb00b65fbc5028aacb6f156dbd,,,A:\\sciencedirect_books\\9783437210341 (14).pdf,0,2000-01-01 01:00:00,2016-04-03 02:51:08,1112000/17b76ccb00b65fbc5028aacb6f156dbd-d.jpg,,
22401577,Praktische Psychopharmakotherapie,,,,G. Laux and O. Dietmaier (Auth.),2005,,Urban & Fischer bei Elsev,,607,0,German,,,,"978-3-437-21063-1,3-437-21063-7",,,,,,,,,,,0,,,,,,,1,14945668,pdf,d76a2f9a9266a553f300bc4a1f52ab6c,,,A:\\sciencedirect_books\\9783437210631 (51).pdf,0,2000-01-01 01:00:00,2016-04-03 02:51:08,1112000/d76a2f9a9266a553f300bc4a1f52ab6c-d.jpg,,
22401578,Praktische Psychopharmakotherapie,,,,Gerd Laux and Otto Dietmaier (Eds.),2012,6. Auflage,Urban & Fischer bei Elsev,,438,0,German,,,,"978-3-437-21064-8,978-3-437-59221-8",,,,,,,,,,,0,,,,,,,1,8816047,pdf,b109f3286598de838d8233e1349c61bd,,,A:\\sciencedirect_books\\9783437210648 (36).pdf,0,2000-01-01 01:00:00,2016-04-03 02:51:08,1112000/b109f3286598de838d8233e1349c61bd-d.jpg,,
22401579,Angeborene Fremdreflexe. Haltung und Verhalten früh regulieren,,,,Robby Sacher (Auth.),2012,,Urban & Fischer bei Elsev,,116,0,German,,,,"978-3-437-21121-8,978-3-437-59122-8",,,,,,,,,,,0,,,,,,,1,7022715,pdf,638a75ddf17dd7682351038d645e02a5,,,A:\\sciencedirect_books\\9783437211218 (18).pdf,0,2000-01-01 01:00:00,2016-04-03 02:51:08,1112000/638a75ddf17dd7682351038d645e02a5-d.jpg,,
22401580,"Neuropsychologie. Grundlagen, Klinik, Rehabilitation",,,,Prof. Dr Georg Goldenberg (Auth.),2007,"4., aktualisierte und erweiterte Auflage",Urban & Fischer bei Elsev,,344,0,German,,,,978-3-437-21173-7,,,,,,,,,,,0,,,,,,,1,7594988,pdf,5d344309bca7061fc853eecb1d85fde3,,,A:\\sciencedirect_books\\9783437211737 (16).pdf,0,2000-01-01 01:00:00,2016-04-03 02:51:08,1112000/5d344309bca7061fc853eecb1d85fde3-d.jpg,,
22401581,Arzneimittel in Schwangerschaft und Stillzeit,,,,Christof Schaefer and Horst Spielmann (Eds.),2011,8. Auflage,Urban & Fischer bei Elsev,,799,0,German,,,,"978-3-437-21203-1,978-3-437-59389-5",,,,,,,,,,,0,,,,,,,1,8058917,pdf,36c2d20ca87c17b7c521ae2a75b3e3ee,,,A:\\sciencedirect_books\\9783437212031 (13).pdf,0,2000-01-01 01:00:00,2016-04-03 02:51:08,1112000/36c2d20ca87c17b7c521ae2a75b3e3ee-d.jpg,,
22401582,Facharzt Hämatologie Onkologie,,,,Kurt Possinger and Anne Constance Regierer (Eds.),2012,,Urban & Fischer bei Elsev,,1100,0,German,,,,978-3-437-21212-3,,,,,,,,,,,0,,,,,,,1,22189607,pdf,354696e6928218c092f40f59e70ee6ff,,,A:\\sciencedirect_books\\9783437212123 (37).pdf,0,2000-01-01 01:00:00,2016-04-03 02:51:08,1112000/354696e6928218c092f40f59e70ee6ff-d.jpg,,
22401583,Pädiatrische Allergologie und Immunologie,,,,"U. Wahn, R. Seger, V. Wahn and G.A. Holländer (Eds.)",2005,,Urban + Fischer,,981,0,German,,,,"978-3-437-21311-3,3-437-21311-3",,,,,,,,,,,0,,,,,,,1,54433759,pdf,52ca18c372765b94bc1769f32144d473,,,A:\\sciencedirect_books\\9783437213113 (80).pdf,0,2000-01-01 01:00:00,2016-04-03 02:51:08,1112000/52ca18c372765b94bc1769f32144d473-d.jpg,,
22401584,Arzneiverordnung in Schwangerschaft und Stillzeit. unter Mitarbeit von Corinna Weber-Schöndorfer,,,,"Christof Schaefer, Horst Spielmann and Klaus Vetter (Eds.)",2006,,Urban & Fischer bei Elsev,,788,0,German,,,,"978-3-437-21332-8,3-437-21332-6",,,,,,,,,,,0,,,,,,,1,5628870,pdf,8300a08aa200e378d16c3cb61f5c5188,,,A:\\sciencedirect_books\\9783437213328 (11).pdf,0,2000-01-01 01:00:00,2016-04-03 02:51:08,1112000/8300a08aa200e378d16c3cb61f5c5188-d.jpg,,
22401585,Nahrungsmittelallergien und -intoleranzen,,,,"Herausgegeben von, L. Jäger, B. Wüthrich, B. Ballmer-Weber, S. Vieths, Unter Mitarbeit von, K. Beyer, U. Busch, B. Niggemann and U. Wahn (Eds.)",2008,3. A,Urban & Fischer bei Elsev,,313,0,German,,,,978-3-437-21362-5,,,,,,,,,,,0,,,,,,,1,7267754,pdf,35c2fd425b41e2cb54478e601cb5d8a3,,,A:\\sciencedirect_books\\9783437213625 (20).pdf,0,2000-01-01 01:00:00,2016-04-03 02:51:08,1112000/35c2fd425b41e2cb54478e601cb5d8a3-d.jpg,,
22401586,Impfungen,,,,Stephan Illing and Thomas Ledig (Auth.),2006,,Elsevier GmbH,,268,0,German,,,,"978-3-437-21392-2,3-437-21392-X",,,,,,,,,,,0,,,,,,,1,4430882,pdf,97038bd9685fc822d955da70d8ad44ba,,,A:\\sciencedirect_books\\9783437213922 (9).pdf,0,2000-01-01 01:00:00,2016-04-03 02:51:08,1112000/97038bd9685fc822d955da70d8ad44ba-d.jpg,,
22401587,Medikamente in der Pädiatrie,,,,Dietmar Wigger and Markus Stange (Auth.),2006,,,,297,0,German,,,,"978-3-437-21452-3,3-437-21452-7",,,,,,,,,,,0,,,,,,,1,4214870,pdf,5903fa5a32d528fab065854fd18b5e07,,,A:\\sciencedirect_books\\9783437214523 (26).pdf,0,2000-01-01 01:00:00,2016-04-03 02:51:08,1112000/5903fa5a32d528fab065854fd18b5e07-d.jpg,,
22401588,Reisemedizin. Beratung in der ärztlichen Praxis,,,,"H. Kretschmer, G. Kusch, H. Scherbaum (Eds.)",2005,,Urban + Fischer,,906,0,German,,,,"978-3-437-21511-7,3-437-21511-6",,,,,,,,,,,0,,,,,,,1,24501116,pdf,34053720eb6368412d17edffe32f6caa,,,A:\\sciencedirect_books\\9783437215117 (53).pdf,0,2000-01-01 01:00:00,2016-04-03 02:51:08,1112000/34053720eb6368412d17edffe32f6caa-d.jpg,,
22401589,Die Schmerztherapie. Interdisziplinäre Diagnose- und Behandlungsstrategien,,,,Hans Christoph Diener and Christoph Maier (Eds.),2008,,,,514,0,German,,,,978-3-437-21541-4,,,,,,,,,,,0,,,,,,,1,8220321,pdf,9f5738c80975049227e60ab3d93d3499,,,A:\\sciencedirect_books\\9783437215414 (31).pdf,0,2000-01-01 01:00:00,2016-04-03 02:51:08,1112000/9f5738c80975049227e60ab3d93d3499-d.gif,,
22401590,Die Schmerztherapie. InterdisziplinÄre Diagnose- und Behandlungsstrategien,,,,Hans-Christoph Diener and Christoph Maier (Eds.),2011,4. Auflage,Urban & Fischer bei Elsev,,513,0,German,,,,978-3-437-21542-1,,,,,,,,,,,0,,,,,,,1,11690351,pdf,e09146457b494d8b7b820aa3cc07ea30,,,A:\\sciencedirect_books\\9783437215421 (31).pdf,0,2000-01-01 01:00:00,2016-04-03 02:51:08,1112000/e09146457b494d8b7b820aa3cc07ea30-d.jpg,,
22401591,Klinische Infektiologie. Infektionskrankheiten erkennen und behandeln,,,,"R. Marre, T. Mertens, M. Trautmann and W. Zimmerli (Eds.)",2007,,Urban & Fischer bei Elsev,,1214,0,German,,,,978-3-437-21741-8,,,,,,,,,,,0,,,,,,,1,46511632,pdf,28064d5e4bbce08c6441cef5d1bbb1b5,,,A:\\sciencedirect_books\\9783437217418 (59).pdf,0,2000-01-01 01:00:00,2016-04-03 02:51:08,1112000/28064d5e4bbce08c6441cef5d1bbb1b5-d.jpg,,
22401592,Internistische Therapie,,,,H.P. Wolff and T.R. Weihrauch (Eds.),2008,,Urban & Fischer Verlag/Elsevier GmbH,,1282,0,German,,,,978-3-437-21804-0,,,,,,,,,,,0,,,,,,,1,18670929,pdf,f20ad6d0a3d788b4af84a169d2b52dc8,,,A:\\sciencedirect_books\\9783437218040 (37).pdf,0,2000-01-01 01:00:00,2016-04-03 02:51:08,1112000/f20ad6d0a3d788b4af84a169d2b52dc8-d.jpg,,
22401593,"Uexküll, Psychosomatische Medizin",,,,Rolf H. Adler and Wolfgang Herzog (Eds.),2011,"7., komplett überarbeitete Auflage",Urban & Fischer bei Elsev,,1346,0,German,,,,"978-3-437-21831-6,978-3-437-21832-3",,,,,,,,,,,0,,,,,,,1,33482279,pdf,66caa6ce5dc57e475b986da5c4d0d4fe,,,A:\\sciencedirect_books\\9783437218316 (116).pdf,0,2000-01-01 01:00:00,2016-04-03 02:51:08,1112000/66caa6ce5dc57e475b986da5c4d0d4fe-d.jpg,,
22401594,Frauenheilkunde. Fortpflanzungsmedizin • Geburtsmedizin Onkologie • Psychosomatik,,,,"A. Feige, A. Rempen, W. Würfel, J. Jawny and A. Rohde (Auth.)",2005,3. völlig überarb. A,Urban & Fischer bei Elsev,,985,0,German,,,,978-3-437-21871-2,,,,,,,,,,,0,,,,,,,1,23435102,pdf,f239cc05cb82dc21adbdcc67dce16906,,,A:\\sciencedirect_books\\9783437218712 (60).pdf,0,2000-01-01 01:00:00,2016-04-03 02:51:08,1112000/f239cc05cb82dc21adbdcc67dce16906-d.jpg,,
22401595,Kinder Notfall–Intensiv,,,,Franz-Josef Kretz and Thomas Beushausen (Eds.),2010,,,,459,0,German,,,,978-3-437-21981-8,,,,,,,,,,,0,,,,,,,1,28427569,pdf,7a1e64f132773bb0d4969d6022601dd6,,,A:\\sciencedirect_books\\9783437219818 (27).pdf,0,2000-01-01 01:00:00,2016-04-03 02:51:08,1112000/7a1e64f132773bb0d4969d6022601dd6-d.jpg,,
22401596,Laborwerte,,,,"A. Dormann, C. Luley and T. Wege (Eds.)",2005,,Urban & Fischer bei Elsev,,257,0,German,,,,"978-3-437-22022-7,3-437-22022-5",,,,,,,,,,,0,,,,,,,1,4626998,pdf,2e166a0a09d88adafde5324359326d3a,,,A:\\sciencedirect_books\\9783437220227 (11).pdf,0,2000-01-01 01:00:00,2016-04-03 02:51:08,1112000/2e166a0a09d88adafde5324359326d3a-d.jpg,,
22401597,Leitlinien Kinder- und Jugendmedizin,,,,"S. Wirth, H. Böhles, U. Creutzig, P. Höger, W. Kiess, R. Korinthenberg, R. Krauspe, C.F. Poets, U. Querfeld, A.A. Schmaltz, P. Schmittenbecher, M. Weiß, and K.-P. Zimmer (Eds.)",2007,,,,231,0,German,,,,978-3-437-22061-6,,,,,,,,,,,0,,,,,,,1,1938529,pdf,83266cc44576b14eeb8145eb921cd4c5,,,A:\\sciencedirect_books\\9783437220616 (26).pdf,0,2000-01-01 01:00:00,2016-04-03 02:51:08,1112000/83266cc44576b14eeb8145eb921cd4c5-d.gif,,
22401598,Therapie-Handbuch Grundwerk inkl 6. Lfg.,,,,"F. Krück, W. Kaufmann, H. Bünte, E. Gladtke, and R. Tölle (Eds.)",2007,,,,265,0,German,,,,"978-3-437-22107-1,978-3-437-22009-8",,,,,,,,,,,0,,,,,,,1,5614015,pdf,44bc47af0a08f8323055626af643000c,,,A:\\sciencedirect_books\\9783437221071 (29).pdf,0,2000-01-01 01:00:00,2016-04-03 02:51:08,1112000/44bc47af0a08f8323055626af643000c-d.gif,,
22401599,Grundkurs Sonografie der Bewegungsorgane. Standardschnitte und Richtlinien entsprechend der DEGUM,,,,Hartmut Gaulrapp and Christina Binder (Eds.),2011,,,,237,0,German,,,,978-3-437-22115-6,,,,,,,,,,,0,,,,,,,1,29181424,pdf,ae96b3025ab015ffb92c20a1b946d019,,,A:\\sciencedirect_books\\9783437221156 (23).pdf,0,2000-01-01 01:00:00,2016-04-03 02:51:08,1112000/ae96b3025ab015ffb92c20a1b946d019-d.jpg,,
22401600,Rationelle Diagnostik und Therapie in der Inneren Medizin. Deutsche Gesellschaft für Innere Medizin in Zusammenarbeit mit dem Berufsverband Deutscher Internisten,,,,"R. Dierkesmann, W.E. Fleig, H. Heidrich, H. Heimpel, W.V. Kern, J. Meyer, O.-A. Müller, Ch. Specker and C. Wanner (Eds.)",2007,,,,176,0,German,,,,978-3-437-22136-1,,,,,,,,,,,0,,,,,,,1,2061645,pdf,3ee10df669c765b593fd1d5156322f85,,,A:\\sciencedirect_books\\9783437221361 (26).pdf,0,2000-01-01 01:00:00,2016-04-03 02:51:08,1112000/3ee10df669c765b593fd1d5156322f85-d.gif,,
22401601,"Klinikleitfaden Gynäkologie, Geburtshilfe",,,,"Dr. K. Goerke, Dr. J. Steller, and Dr. A. Valet (Eds.)",2003,,Urban & Fischer,,900,0,German,,,,"978-3-437-22211-5,3-437-22211-2",,,,,,,,,,,0,,,,,,,1,37775000,pdf,f2d8b6f282c06e3c9bba0da44135d600,,,A:\\sciencedirect_books\\9783437222115 (35).pdf,0,2000-01-01 01:00:00,2016-04-03 02:51:08,1112000/f2d8b6f282c06e3c9bba0da44135d600-d.jpg,,
22401602,"Klinikleitfaden Gynäkologie, Geburtshilfe",,,,"Dr. Kay Goerke, Dr. Joachim Steller and Dr. Axel Valet (Eds.)",2008,,,,840,0,German,,,,978-3-437-22212-2,,,,,,,,,,,0,,,,,,,1,37861029,pdf,b63d0570941dfb11f1f5a5da11b3449b,,,A:\\sciencedirect_books\\9783437222122 (35).pdf,0,2000-01-01 01:00:00,2016-04-03 02:51:08,1112000/b63d0570941dfb11f1f5a5da11b3449b-d.jpg,,
22401603,Klinikleitfaden Gynäkologie Geburtshilfe,,,,Kay Goerke and Joachim Steller (Eds.),2013,8. Auflage,Urban & Fischer bei Elsev,,744,0,German,,,,"978-3-437-22214-6,978-3-437-16795-9",,,,,,,,,,,0,,,,,,,1,15460622,pdf,cb548174d40d863888c6ee847e3f5f32,,,A:\\sciencedirect_books\\9783437222146 (34).pdf,0,2000-01-01 01:00:00,2016-04-03 02:51:08,1112000/cb548174d40d863888c6ee847e3f5f32-d.jpg,,
22401604,Entwicklungsstörungen bei Kindern. Praxisleitfaden für die interdisziplinäre Betreuung,,,,"Hans-Michael Straßburg, Winfried Dacheneder and Wolfram Kreß (Auth.)",2008,,,,413,0,German,,,,978-3-437-22222-1,,,,,,,,,,,0,,,,,,,1,21874522,pdf,16703ba0872cac4c31453c1c917fb991,,,A:\\sciencedirect_books\\9783437222221 (26).pdf,0,2000-01-01 01:00:00,2016-04-03 02:51:08,1112000/16703ba0872cac4c31453c1c917fb991-d.jpg,,
22401605,Klinikleitfaden Labordiagnostik,,,,"Prof. Dr. med. Birgid Neumeister, Dr. med. Dr. rer. nat. Ingo Besenthal and Prof. Dr. med. Bernhard Otto Böhm (Eds.)",2008,,,,783,0,German,,,,978-3-437-22232-0,,,,,,,,,,,0,,,,,,,1,24019363,pdf,5263921f878c3fe7f3dc27ef426d274d,,,A:\\sciencedirect_books\\9783437222320 (38).pdf,0,2000-01-01 01:00:00,2016-04-03 02:51:08,1112000/5263921f878c3fe7f3dc27ef426d274d-d.jpg,,
22401606,Klinikleitfaden Pädiatrie,,,,Dr. med. Stephan Illing and Dr. med. Martin Claßen (Eds.),2006,,,,930,0,German,,,,978-3-437-22252-8,,,,,,,,,,,0,,,,,,,1,15721328,pdf,ade96d7717135e31e87bb8203158e0f7,,,A:\\sciencedirect_books\\9783437222528 (36).pdf,0,2000-01-01 01:00:00,2016-04-03 02:51:08,1112000/ade96d7717135e31e87bb8203158e0f7-d.jpg,,
22401607,Klinikleitfaden Pädiatrie,,,,Stephan Iling and Martin Claßen (Eds.),,,,,919,0,German,,,,978-3-437-22253-5,,,,,,,,,,,0,,,,,,,1,24988636,pdf,b5cb990d5e4b840da6455a23441fd5d7,,,A:\\sciencedirect_books\\9783437222535 (38).pdf,0,2000-01-01 01:00:00,2016-04-03 02:51:08,1112000/b5cb990d5e4b840da6455a23441fd5d7-d.jpg,,
22401608,Public Health. Gesundheit und Gesundheitswesen,,,,Friedrich Wilhelm Schwartz and Ulla Walter (Eds.),2012,3. Auflage,Urban & Fischer bei Elsev,,902,0,German,,,,"978-3-437-22261-0,978-3-437-59138-9",,,,,,,,,,,0,,,,,,,1,15689785,pdf,bd22b7d0d05a7166be7e5adf5e6f6688,,,A:\\sciencedirect_books\\9783437222610 (42).pdf,0,2000-01-01 01:00:00,2016-04-03 02:51:08,1112000/bd22b7d0d05a7166be7e5adf5e6f6688-d.jpg,,
22401609,Klinikleitfaden Nachtdienst,,,,Marieke Pilars de Pilar and Ute Jachmann-Jahn (Eds.),2012,4. Auflage,Urban & Fischer bei Elsev,,642,0,German,,,,"978-3-437-22271-9,978-3-437-59136-5",,,,,,,,,,,0,,,,,,,1,10197158,pdf,84da27f914954e01580cdd31181011c8,,,A:\\sciencedirect_books\\9783437222719 (33).pdf,0,2000-01-01 01:00:00,2016-04-03 02:51:08,1112000/84da27f914954e01580cdd31181011c8-d.jpg,,
22401610,Klinikleitfaden Kardiologie,,,,Prof. Dr. med. Ulrich Stierle and PD Dr. med. Franz Hartmann (Eds.),2008,4. Auflage,Urban & Fischer bei Elsev,,819,0,German,,,,978-3-437-22281-8,,,,,,,,,,,0,,,,,,,1,8469348,pdf,0484c1599594112606f9195f81ecedf5,,,A:\\sciencedirect_books\\9783437222818 (26).pdf,0,2000-01-01 01:00:00,2016-04-03 02:51:08,1112000/0484c1599594112606f9195f81ecedf5-d.jpg,,
22401611,Klinikleitfaden Innere Medizin,,,,"Prof. Dr. med. Jörg Braun, and PD Dr. med. Arno J. Dormann (Eds.)",2006,,Urban & Fischer bei Elsev,,937,0,German,,,,978-3-437-22292-4,,,,,,,,,,,0,,,,,,,1,16738119,pdf,fcefed7848ffec68975fdbea930d9a51,,,A:\\sciencedirect_books\\9783437222924 (30).pdf,0,2000-01-01 01:00:00,2016-04-03 02:51:08,1112000/fcefed7848ffec68975fdbea930d9a51-d.jpg,,
22401612,Klinikleitfaden Innere Medizin,,,,Jörg Braun and Arno J. Dormann (Eds.),,11. Auflage,Urban & Fischer bei Elsev,,966,0,German,,,,978-3-437-22293-1,,,,,,,,,,,0,,,,,,,1,27861656,pdf,719083d2b4a02a4d972839be40d44953,,,A:\\sciencedirect_books\\9783437222931 (32).pdf,0,2000-01-01 01:00:00,2016-04-03 02:51:08,1112000/719083d2b4a02a4d972839be40d44953-d.jpg,,
22401613,Klinikleitfaden Dermatologie,,,,,2009,3. Auflage,,,1035,0,German,,,,978-3-437-22301-3,,,,,,,,,,,0,,,,,,,1,27176056,pdf,5d1cb38566cf9fcaba755eb647dcf357,,,A:\\sciencedirect_books\\9783437223013 (35).pdf,0,2000-01-01 01:00:00,2016-04-03 02:51:08,1112000/5d1cb38566cf9fcaba755eb647dcf357-d.jpg,,
22401614,Krankenhaus- und Praxishygiene. Hygienemanagement und Infektionsprävention in medizinischen und sozialen Einrichtungen,,,,Axel Kramer and Ojan Assadian (Eds.),2012,2. Auflage,Urban & Fischer bei Elsev,,679,0,German,,,,"978-3-437-22311-2,978-3-437-59528-8",,,,,,,,,,,0,,,,,,,1,12399896,pdf,3aabfb5cc29e3dc94e166bfbfe978a94,,,A:\\sciencedirect_books\\9783437223112 (18).pdf,0,2000-01-01 01:00:00,2016-04-03 02:51:08,1112000/3aabfb5cc29e3dc94e166bfbfe978a94-d.jpg,,
22401615,Leitlinien zur Diagnostik und Therapie in der Pädiatrischen Kardiologie,,,,Achim A. Schmaltz (Eds.),2007,,Urban & Fischer bei Elsev,,150,0,German,,,,978-3-437-22398-3,,,,,,,,,,,0,,,,,,,1,1718499,pdf,19298fd6260d4cb55c30a0a998735db7,,,A:\\sciencedirect_books\\9783437223983 (35).pdf,0,2000-01-01 01:00:00,2016-04-03 02:51:08,1112000/19298fd6260d4cb55c30a0a998735db7-d.jpg,,
22401616,Klinikleitfaden Medizinische Rehabilitation,,,,Oliver Rick and Rainer Stachow (Eds.),2011,,"Elsevier, Urban & Fischer",,751,0,German,,,,978-3-437-22406-5,,,,,,,,,,,0,,,,,,,1,7646223,pdf,a182636f5dadfbc33f3a299fb74b0fd9,,,A:\\sciencedirect_books\\9783437224065 (21).pdf,0,2000-01-01 01:00:00,2016-04-03 02:51:08,1112000/a182636f5dadfbc33f3a299fb74b0fd9-d.jpg,,
22401617,Handbuch Psychosomatische Begutachtung. Ein praktisches Manual für Ärzte und Versicherer,,,,"Elisabeth Rauh, Michael Svitak and Helga Grundmann (Auth.)",2008,,Urban & Fischer bei Elsev,,113,0,German,,,,978-3-437-22416-4,,,,,,,,,,,0,,,,,,,1,2814661,pdf,d115356684ea88fb6537a09bc05714a1,,,A:\\sciencedirect_books\\9783437224164 (8).pdf,0,2000-01-01 01:00:00,2016-04-03 02:51:08,1112000/d115356684ea88fb6537a09bc05714a1-d.jpg,,
22401618,Praxisleitfaden Ärztlicher Bereitschaftsdienst,,,,Martin Hermann and Thomas Quellmann (Eds.),,3. Auflage,Urban & Fischer bei Elsev,,581,0,German,,,,978-3-437-22421-8,,,,,,,,,,,0,,,,,,,1,19764971,pdf,167c7d9fb6334a3d8bd4d68117c77598,,,A:\\sciencedirect_books\\9783437224218 (32).pdf,0,2000-01-01 01:00:00,2016-04-03 02:51:08,1112000/167c7d9fb6334a3d8bd4d68117c77598-d.jpg,,
22401619,Praxisleitfaden Allgemeinmedizin,,,,"Prof. Dr. med. Stefan Gesenhues, Dr. med. Rainer Ziesché (Eds.)",2006,,,,1750,0,German,,,,"978-3-437-22442-3,3-437-22442-5",,,,,,,,,,,0,,,,,,,1,23801303,pdf,f3c6ec824256060b5e6b67e840d545c8,,,A:\\sciencedirect_books\\9783437224423 (45).pdf,0,2000-01-01 01:00:00,2016-04-03 02:51:08,1112000/f3c6ec824256060b5e6b67e840d545c8-d.jpg,,
22401620,Praxisleitfaden Allgemeinmedizin,,,,Stefan Gesenhues and Rainer H. Ziesché (Eds.),,6. Auflage,Urban & Fischer bei Elsev,,1754,0,German,,,,978-3-437-22443-0,,,,,,,,,,,0,,,,,,,1,37170385,pdf,17ab6ca93c8fa1fc9b35ac6233c495d5,,,A:\\sciencedirect_books\\9783437224430 (46).pdf,0,2000-01-01 01:00:00,2016-04-03 02:51:08,1112000/17ab6ca93c8fa1fc9b35ac6233c495d5-d.jpg,,
22401621,Klinikleitfaden Chirurgie,,,,"Dr. med. Hartwig Nürnberger, Dr. med. Frank-Michael Hasse, and PD Dr. med. Axel Pommer (Eds.)",2006,,Urban & Fischer bei Elsev,,943,0,German,,,,978-3-437-22451-5,,,,,,,,,,,0,,,,,,,1,26389032,pdf,83a04476c3726e1745e66ec870760282,,,A:\\sciencedirect_books\\9783437224515 (42).pdf,0,2000-01-01 01:00:00,2016-04-03 02:51:08,1112000/83a04476c3726e1745e66ec870760282-d.jpg,,
22401622,Klinikleitfaden Chirurgie,,,,Frank-Michael Hasse (Eds.),,5. Auflage,Urban & Fischer bei Elsev,,831,0,German,,,,978-3-437-22452-2,,,,,,,,,,,0,,,,,,,1,26271101,pdf,8b708a863d5c917aded2adc293cd1971,,,A:\\sciencedirect_books\\9783437224522 (40).pdf,0,2000-01-01 01:00:00,2016-04-03 02:51:08,1112000/8b708a863d5c917aded2adc293cd1971-d.jpg,,
22401623,Notarzt-Leitfaden,,,,Ulrich v. Hintzenstern (Eds.),2007,,Urban & Fischer bei Elsev,,829,0,German,,,,978-3-437-22462-1,,,,,,,,,,,0,,,,,,,1,16850004,pdf,6933fb93722602c25d2b89b6c3f11e44,,,A:\\sciencedirect_books\\9783437224621 (31).pdf,0,2000-01-01 01:00:00,2016-04-03 02:51:08,1112000/6933fb93722602c25d2b89b6c3f11e44-d.jpg,,
22401624,Notarzt–Leitfaden,,,,Ulrich von Hintzenstern (Eds.),,6. Auflage,Urban & Fischer bei Elsev,,775,0,German,,,,978-3-437-22463-8,,,,,,,,,,,0,,,,,,,1,15365608,pdf,1fb3370885c1806c54fe5254a3f64347,,,A:\\sciencedirect_books\\9783437224638 (33).pdf,0,2000-01-01 01:00:00,2016-04-03 02:51:08,1112000/1fb3370885c1806c54fe5254a3f64347-d.jpg,,
22401625,Klinikleitfaden Orthopädie,,,,"Prof. Dr. med. Steffen Breusch, Dr. med. Hans Mau, and Prof. Dr. med. Desiderius Sabo (Eds.)",2006,,"Elsevier, Urban und Fischer",,912,0,German,,,,978-3-437-22471-3,,,,,,,,,,,0,,,,,,,1,23960065,pdf,98cf575274e7a91b7685ce8d8f8a28cd,,,A:\\sciencedirect_books\\9783437224713 (32).pdf,0,2000-01-01 01:00:00,2016-04-03 02:51:08,1112000/98cf575274e7a91b7685ce8d8f8a28cd-d.jpg,,
22401626,Klinikleitfaden Orthopädie Unfallchirurgie,,,,"Prof. Dr. med. Steffen Breusch, FRCS Ed, Dr. med. Michael Clarius, Dr. med. Hans Mau and Prof. Dr. med. Desiderius Sabo (Eds.)",2009,,,,962,0,German,,,,978-3-437-22472-0,,,,,,,,,,,0,,,,,,,1,25873113,pdf,2ad247323cb46f8d731a3899742cdbcd,,,A:\\sciencedirect_books\\9783437224720 (35).pdf,0,2000-01-01 01:00:00,2016-04-03 02:51:08,1112000/2ad247323cb46f8d731a3899742cdbcd-d.jpg,,
22401627,Psychische Erkrankungen. Klinik und Therapie,,,,Mathias Berger (Eds.),2009,,,,1192,0,German,,,,978-3-437-22481-2,,,,,,,,,,,0,,,,,,,1,20704865,pdf,cb84ac0a64b300c03a36a082b3324773,,,A:\\sciencedirect_books\\9783437224812 (40).pdf,0,2000-01-01 01:00:00,2016-04-03 02:51:08,1112000/cb84ac0a64b300c03a36a082b3324773-d.gif,,
22401628,Psychische Erkrankungen. Klinik und Therapie,,,,Mathias Berger (Eds.),2011,4. Auflage,Urban & Fischer bei Elsev,,1050,0,German,,,,"978-3-437-22483-6,978-3-437-59351-2",,,,,,,,,,,0,,,,,,,1,31097498,pdf,6994cd1b2ce87f5902d736e0d80126db,,,A:\\sciencedirect_books\\9783437224836 (40).pdf,0,2000-01-01 01:00:00,2016-04-03 02:51:08,1112000/6994cd1b2ce87f5902d736e0d80126db-d.jpg,,
22401629,Das NAW-Buch. Akutmedizin der ersten 24 Stunden,,,,"Christian Madler, Karl-Walter Jauch, Karl Werdan, Johannes Siegrist, Frank-Gerald Pajonk (Auth.)",2005,,Urban + Fischer,,1258,0,German,,,,"978-3-437-22510-9,3-437-22510-3",,,,,,,,,,,0,,,,,,,1,45551239,pdf,220e91f8c623c5e4ee24fc15ff83382a,,,A:\\sciencedirect_books\\9783437225109 (113).pdf,0,2000-01-01 01:00:00,2016-04-03 02:51:08,1112000/220e91f8c623c5e4ee24fc15ff83382a-d.jpg,,
22401630,Akutmedizin. Das NAW-Buch,,,,"C. Madler, K.-W. Jauch, K. Werdan, J. Siegrist and F.-G. Pajonk (Eds.)",2009,"4., überarbeitete Auflage",Urban & Fischer bei Elsev,,1188,0,German,,,,978-3-437-22511-6,,,,,,,,,,,0,,,,,,,1,42333916,pdf,3056819ab53298aeb6e43b3408b370be,,,A:\\sciencedirect_books\\9783437225116 (111).pdf,0,2000-01-01 01:00:00,2016-04-03 02:51:08,1112000/3056819ab53298aeb6e43b3408b370be-d.jpg,,
22401631,Differentialdiagnose Pädiatrie,,,,Dietrich Michalk and Eckhard Schönau (Eds.),2004,,,,898,0,German,,,,"978-3-437-22530-7,3-437-22530-8",,,,,,,,,,,0,,,,,,,1,27581388,pdf,57b8f4c7ac04f4f18dc2705cb9b53126,,,A:\\sciencedirect_books\\9783437225307 (131).pdf,0,2000-01-01 01:00:00,2016-04-03 02:51:08,1112000/57b8f4c7ac04f4f18dc2705cb9b53126-d.jpg,,
22401632,Therapie–Handbuch Innere Medizin Sonderedition 2011⁄2012,,,,Wolfram Domschke and Mathias Berger (Eds.),2011,,Urban & Fischer bei Elsev,,1173,0,German,,,,978-3-437-22702-8,,,,,,,,,,,0,,,,,,,1,17669489,pdf,e4cd870b6d3ab52f80169f16884c98ab,,,A:\\sciencedirect_books\\9783437227028 (18).pdf,0,2000-01-01 01:00:00,2016-04-03 02:51:08,1112000/e4cd870b6d3ab52f80169f16884c98ab-d.jpg,,
22401633,Interdisziplinäre Intensivmedizin,,,,Walied Abdulla (Eds.),2006,3. A,Urban & Fischer bei Elsev,,1102,0,German,,,,"978-3-437-22711-0,3-437-22711-4",,,,,,,,,,,0,,,,,,,1,17733262,pdf,a0cd7529e5ac6230c4fdca41af56a97e,,,A:\\sciencedirect_books\\9783437227110 (45).pdf,0,2000-01-01 01:00:00,2016-04-03 02:51:08,1112000/a0cd7529e5ac6230c4fdca41af56a97e-d.jpg,,
22401634,Dermatologische Therapie,,,,Claus Oster-Schmidt and Thomas Dirschka (Auth.),2007,,Urban & Fischer Verlag,,276,0,German,,,,978-3-437-22731-8,,,,,,,,,,,0,,,,,,,1,8612975,pdf,4271ac1c2f1ee398f604df61479de453,,,A:\\sciencedirect_books\\9783437227318 (27).pdf,0,2000-01-01 01:00:00,2016-04-03 02:51:08,1112000/4271ac1c2f1ee398f604df61479de453-d.jpg,,
22401635,Psychoedukation und Coaching ADHS im Erwachsenenalter. Manual zur Leitung von Patienten- und Angehörigengruppen,,,,"R. D'Amelio, W. Retz, A. Philipsen and M. Rösler (Auth.)",2008,,Urban & Fischer bei Elsev,,253,0,German,,,,978-3-437-22766-0,,,,,,,,,,,0,,,,,,,1,12133689,pdf,77461fb2dda1503b28378d5036dcacd9,,,A:\\sciencedirect_books\\9783437227660 (12).pdf,0,2000-01-01 01:00:00,2016-04-03 02:51:08,1112000/77461fb2dda1503b28378d5036dcacd9-d.jpg,,
22401636,Klinikleitfaden Urologie,,,,"Dr. R. Eichenauer, Dr. J. Sandmann and Dr. H. Vanherpe (Eds.)",2003,3. A,Urban & Fischer bei Elsev,,851,0,German,,,,"978-3-437-22790-5,3-437-22790-4",,,,,,,,,,,0,,,,,,,1,18007848,pdf,3ce987825d5cd0273692ea4271a3260d,,,A:\\sciencedirect_books\\9783437227905 (28).pdf,0,2000-01-01 01:00:00,2016-04-03 02:51:08,1112000/3ce987825d5cd0273692ea4271a3260d-d.jpg,,
22401637,Kommentar Psychotherapie-Richtlinien. Kommentar Psychotherapie-Richtlinien,,,,"Ulrich Rüger, Andreas Dahm and Dieter Kallinke (Eds.)",2005,,Urban & Fischer bei Elsev,,227,0,German,,,,"978-3-437-22861-2,3-437-22861-7",,,,,,,,,,,0,,,,,,,1,1726664,pdf,26cf03bdaa4e72ae947de018cece3df4,,,A:\\sciencedirect_books\\9783437228612 (16).pdf,0,2000-01-01 01:00:00,2016-04-03 02:51:08,1112000/26cf03bdaa4e72ae947de018cece3df4-d.jpg,,
22401638,Kommentar Psychotherapie-Richtlinien,,,,"Von Ulrich Rüger, Andreas Dahm and Dieter Kallinke (Auth.)",2008,,Urban & Fischer bei Elsev,,214,0,German,,,,978-3-437-22862-9,,,,,,,,,,,0,,,,,,,1,7668858,pdf,c99a86b6980e5038d8a4fc4df0243c8e,,,A:\\sciencedirect_books\\9783437228629 (17).pdf,0,2000-01-01 01:00:00,2016-04-03 02:51:08,1112000/c99a86b6980e5038d8a4fc4df0243c8e-d.jpg,,
22401639,Kommentar Psychotherapie–Richtlinien,,,,Ulrich Rüger and Andreas Dahm (Eds.),2011,9. Auflage,Urban & Fischer bei Elsev,,217,0,German,,,,"978-3-437-22863-6,978-3-437-59345-1",,,,,,,,,,,0,,,,,,,1,8717903,pdf,b42830b506e66dc0b7106e53e7569e6b,,,A:\\sciencedirect_books\\9783437228636 (20).pdf,0,2000-01-01 01:00:00,2016-04-03 02:51:08,1112000/b42830b506e66dc0b7106e53e7569e6b-d.jpg,,
22401640,Psychiatrische Begutachtung. Ein praktisches Handbuch für Ärzte und Juristen,,,,Klaus Foerster and Harald Dreßing (Eds.),2008,"5., neu bearbeitete und erweiterte Auflage",Urban & Fischer bei Elsev,,937,0,German,,,,978-3-437-22901-5,,,,,,,,,,,0,,,,,,,1,31026351,pdf,02c288da3b16c93b8d9cdb144928e2bd,,,A:\\sciencedirect_books\\9783437229015 (50).pdf,0,2000-01-01 01:00:00,2016-04-03 02:51:08,1112000/02c288da3b16c93b8d9cdb144928e2bd-d.jpg,,
22401641,Ernährungsmedizin. Prävention und Therapie,,,,P. Schauder and G. Ollenschläger (Eds.),2006,,Urban & Fischer bei Elsev,,1216,0,German,,,,"978-3-437-22921-3,3-437-22921-4",,,,,,,,,,,0,,,,,,,1,21474464,pdf,375e515c7ea8549cb382d6922bd4fc09,,,A:\\sciencedirect_books\\9783437229213 (117).pdf,0,2000-01-01 01:00:00,2016-04-03 02:51:08,1112000/375e515c7ea8549cb382d6922bd4fc09-d.jpg,,
22401642,Klinikleitfaden Chirurgische Ambulanz,,,,Dr. med. Stefan Nöldeke (Eds.),2009,3. Auflage,Urban & Fischer bei Elsev,,807,0,German,,,,978-3-437-22941-1,,,,,,,,,,,0,,,,,,,1,39226283,pdf,c33662ab1a61588537e5e480523c8ece,,,A:\\sciencedirect_books\\9783437229411 (32).pdf,0,2000-01-01 01:00:00,2016-04-03 02:51:08,1112000/c33662ab1a61588537e5e480523c8ece-d.jpg,,
22401643,Gastrointestinale Bildgebung. Gegenüberstellung: Radiologie – Endoskopie,,,,P.J. Pickhardt and G.M. Arluk (Eds.),2009,,,,493,0,German,,,,"978-3-437-23015-8,978-14160-3202-1",,,,,,,,,,,0,,,,,,,1,94427175,pdf,03cfafddaaef81acbf50a2cbe39ce0e1,,,A:\\sciencedirect_books\\9783437230158 (16).pdf,0,2000-01-01 01:00:00,2016-04-03 02:51:08,1112000/03cfafddaaef81acbf50a2cbe39ce0e1-d.jpg,,
22401644,"Facharztprüfung Gynäkologie und Geburtshilfe. in Fällen, Fragen und Antworten",,,,"R.E. Felberbaum, K. Diedrich, W. Jonat, O. Ortmann, C. Crohns, E.-M. Hußlein and H.-C. Kolberg (Auth.)",2009,,,,328,0,German,,,,978-3-437-23041-7,,,,,,,,,,,0,,,,,,,1,4889448,pdf,1dea22c22cface86005505247c0e2467,,,A:\\sciencedirect_books\\9783437230417 (9).pdf,0,2000-01-01 01:00:00,2016-04-03 02:51:08,1112000/1dea22c22cface86005505247c0e2467-d.jpg,,
22401645,Bildgebung in der Onkologie. Diagnostik und Bewertung – Das Wesentliche für das Konsil,,,,"H. Hricak, J. Husband, D.M. Panicek, Unter Mitarbeit von and D. Dinter (Auth.)",2009,,Urban & Fischer bei Elsev,,270,0,German,,,,"978-3-437-23045-5,1-4160-3251-7",,,,,,,,,,,0,,,,,,,1,39589743,pdf,1f8410b24968469c235548353e1955eb,,,A:\\sciencedirect_books\\9783437230455 (43).pdf,0,2000-01-01 01:00:00,2016-04-03 02:51:08,1112000/1f8410b24968469c235548353e1955eb-d.jpg,,
22401646,Neurologische Therapie im Kindesalter. Evidenzbasierte Therapie,,,,"Rudolf Korinthenberg, Christos P. Panteliadis and Christian Hagel (Eds.)",2009,,Urban & Fischer bei Elsev,,417,0,German,,,,978-3-437-23075-2,,,,,,,,,,,0,,,,,,,1,21528267,pdf,7d5341a1fb898e3fdf3ce9bff002e16c,,,A:\\sciencedirect_books\\9783437230752 (26).pdf,0,2000-01-01 01:00:00,2016-04-03 02:51:08,1112000/7d5341a1fb898e3fdf3ce9bff002e16c-d.jpg,,
22401647,Myofasziale Schmerzen und Triggerpunkte. Diagnostik und evidenzbasierte Therapiestrategien,,,,Peter Reilich and Christian Gröbli (Eds.),2011,,Urban & Fischer bei Elsev,,256,0,German,,,,978-3-437-23095-0,,,,,,,,,,,0,,,,,,,1,26076804,pdf,b720724e579511e023b957910faa6683,,,A:\\sciencedirect_books\\9783437230950 (14).pdf,0,2000-01-01 01:00:00,2016-04-03 02:51:08,1112000/b720724e579511e023b957910faa6683-d.jpg,,
22401648,Infektionsmanagement Auf Intensivstationen. Empfehlungen zur Diagnostik und Therapie nosokomialer Infektionen,,,,Gunter Weiß and Brigitte König (Eds.),2011,,Urban & Fischer bei Elsev,,343,0,German,,,,978-3-437-23135-3,,,,,,,,,,,0,,,,,,,1,7384224,pdf,995657f1af87fb7736104111928c59d5,,,A:\\sciencedirect_books\\9783437231353 (19).pdf,0,2000-01-01 01:00:00,2016-04-03 02:51:08,1112000/995657f1af87fb7736104111928c59d5-d.jpg,,
22401649,Klinikleitfaden Neurologie,,,,Prof. Dr. Jürgen Klingelhöfer and PD Dr. Achim Berthele (Eds.),2009,,,,1146,0,German,,,,978-3-437-23142-1,,,,,,,,,,,0,,,,,,,1,44507187,pdf,ccdcde6be92e428c947ee588a103fdc9,,,A:\\sciencedirect_books\\9783437231421 (38).pdf,0,2000-01-01 01:00:00,2016-04-03 02:51:08,1112000/ccdcde6be92e428c947ee588a103fdc9-d.jpg,,
22401650,Leitfaden Schmerztherapie,,,,Torsten Wieden and Hans-Bernd Sittig (Eds.),2005,,Urban & Fischer bei Elsev,,850,0,German,,,,"978-3-437-23170-4,3-437-23170-7",,,,,,,,,,,0,,,,,,,1,20257301,pdf,42bda4419bc60e10e5bb6265f462ef2f,,,A:\\sciencedirect_books\\9783437231704 (35).pdf,0,2000-01-01 01:00:00,2016-04-03 02:51:08,1112000/42bda4419bc60e10e5bb6265f462ef2f-d.jpg,,
22401651,Therapie in der Kinder- und Jugendmedizin. Strategien für Klinik und Praxis,,,,"Wieland Kiess, Andreas Merkenschlager, Roland Pfäffle, and Werner Siekmeyer (Eds.)",2007,,Urban + Fischer,,1296,0,German,,,,978-3-437-23200-8,,,,,,,,,,,0,,,,,,,1,16718058,pdf,f701fb1ba7c634c15dad2b8f0fc54b14,,,A:\\sciencedirect_books\\9783437232008 (45).pdf,0,2000-01-01 01:00:00,2016-04-03 02:51:08,1112000/f701fb1ba7c634c15dad2b8f0fc54b14-d.jpg,,
22401652,Klinische Notfallmedizin. Zentrale und interdisziplinäre Notaufnahmen,,,,Thomas Fleischmann (Eds.),2011,,Urban & Fischer bei Elsev,,786,0,German,,,,"978-3-437-23246-6,978-3-437-59526-4",,,,,,,,,,,0,,,,,,,1,20531914,pdf,e34c9bef3163ad812bf3c4f35a191287,,,A:\\sciencedirect_books\\9783437232466 (18).pdf,0,2000-01-01 01:00:00,2016-04-03 02:51:08,1112000/e34c9bef3163ad812bf3c4f35a191287-d.jpg,,
22401653,Rückenschmerz und Lendenwirbelsäule. Interdisziplinäres Praxisbuch - entsprechend den Nationalen Versorgungsleitlinien,,,,Jan Hildebrandt and Michel Pfingsten (Eds.),2012,2. Auflage,Urban & Fischer bei Elsev,,483,0,German,,,,978-3-437-23251-0,,,,,,,,,,,0,,,,,,,1,19000330,pdf,70e69095d892f07d9b76b2cbedb6acc9,,,A:\\sciencedirect_books\\9783437232510 (14).pdf,0,2000-01-01 01:00:00,2016-04-03 02:51:08,1112000/70e69095d892f07d9b76b2cbedb6acc9-d.jpg,,
22401654,Klinische Immunologie,,,,Hans-Hartmut Peter and Werner J. Pichler (Eds.),2012,3. Auflage,Urban & Fischer bei Elsev,,902,0,German,,,,"978-3-437-23256-5,978-3-437-59048-1",,,,,,,,,,,0,,,,,,,1,42186716,pdf,4d0ee376301712e665da484526789e5c,,,A:\\sciencedirect_books\\9783437232565 (27).pdf,0,2000-01-01 01:00:00,2016-04-03 02:51:08,1112000/4d0ee376301712e665da484526789e5c-d.jpg,,
22401655,Strahlentherapie kompakt,,,,Frank Lohr and Frederik Wenz (Eds.),2007,2. Auflage,Urban & Fischer bei Elsev,,370,0,German,,,,978-3-437-23291-6,,,,,,,,,,,0,,,,,,,1,6444903,pdf,e936eab5c12851b2a5278d122ec1edfd,,,A:\\sciencedirect_books\\9783437232916 (44).pdf,0,2000-01-01 01:00:00,2016-04-03 02:51:08,1112000/e936eab5c12851b2a5278d122ec1edfd-d.jpg,,
22401656,Facharzt Orthopädie Unfallchirurgie,,,,Karl-Heinrich Winker (Eds.),2011,,,,1119,0,German,,,,978-3-437-23300-5,,,,,,,,,,,0,,,,,,,1,40985130,pdf,4087968e0ec7207afdf82473935aaea4,,,A:\\sciencedirect_books\\9783437233005 (33).pdf,0,2000-01-01 01:00:00,2016-04-03 02:51:08,1112000/4087968e0ec7207afdf82473935aaea4-d.jpg,,
22401657,Leitfaden Palliative Care,,,,Claudia Bausewein and Susanne Roller (Eds.),2010,,,,679,0,German,,,,978-3-437-23312-8,,,,,,,,,,,0,,,,,,,1,12439504,pdf,4ba3383e088a613eb9ec74e70b6a1a38,,,A:\\sciencedirect_books\\9783437233128 (37).pdf,0,2000-01-01 01:00:00,2016-04-03 02:51:08,1112000/4ba3383e088a613eb9ec74e70b6a1a38-d.jpg,,
22401658,"Facharztprüfung Allgemeinmedizin. in Fällen, Fragen und Antworten",,,,Detmar Jobst (Eds.),2008,,Urban & Fischer bei Elsev,,729,0,German,,,,978-3-437-23321-0,,,,,,,,,,,0,,,,,,,1,12179292,pdf,1848c33f6c1894bef53dd7e09f5050ca,,,A:\\sciencedirect_books\\9783437233210 (35).pdf,0,2000-01-01 01:00:00,2016-04-03 02:51:08,1112000/1848c33f6c1894bef53dd7e09f5050ca-d.jpg,,
22401659,"Facharztprüfung Innere Medizin. in Fällen, Fragen und Antworten",,,,Stefan Endres (Eds.),2008,,,,604,0,German,,,,978-3-437-23332-6,,,,,,,,,,,0,,,,,,,1,24620183,pdf,85d6caf5f228c06342a1e87838202b4e,,,A:\\sciencedirect_books\\9783437233326 (117).pdf,0,2000-01-01 01:00:00,2016-04-03 02:51:08,1112000/85d6caf5f228c06342a1e87838202b4e-d.gif,,
22401660,"Facharztprüfung Innere Medizin. in Fällen, Fragen und Antworten",,,,Stefan Endres (Eds.),2011,,,,594,0,German,,,,978-3-437-23333-3,,,,,,,,,,,0,,,,,,,1,11178887,pdf,164218f70a6d6e545b59262d899124a3,,,A:\\sciencedirect_books\\9783437233333 (17).pdf,0,2000-01-01 01:00:00,2016-04-03 02:51:08,1112000/164218f70a6d6e545b59262d899124a3-d.jpg,,
22401661,Das Laborbuch. für Klinik und Praxis,,,,Walter G. Guder and Jürgen Nolte (Eds.),2005,,Urban + Fischer,,1003,0,German,,,,"978-3-437-23340-1,3-437-23340-8",,,,,,,,,,,0,,,,,,,1,20033707,pdf,6052e6e91de152de32027e1181fb8d47,,,A:\\sciencedirect_books\\9783437233401 (51).pdf,0,2000-01-01 01:00:00,2016-04-03 02:51:08,1112000/6052e6e91de152de32027e1181fb8d47-d.jpg,,
22401662,Das Laborbuch,,,,Walter G. Guder and Jürgen Nolte (Eds.),,,,,1100,0,German,,,,978-3-437-23341-8,,,,,,,,,,,0,,,,,,,1,26313452,pdf,eee0ae46bb8e96f4eaf4c19d3e7b4faa,,,A:\\sciencedirect_books\\9783437233418 (30).pdf,0,2000-01-01 01:00:00,2016-04-03 02:51:08,1112000/eee0ae46bb8e96f4eaf4c19d3e7b4faa-d.jpg,,
22401663,Praktische Gastroenterologie,,,,Peter Layer and Ulrich Rosien (Eds.),2011,,,,534,0,German,,,,978-3-437-23372-2,,,,,,,,,,,0,,,,,,,1,8078938,pdf,0fef3ac415c5408288a4517c96674900,,,A:\\sciencedirect_books\\9783437233722 (25).pdf,0,2000-01-01 01:00:00,2016-04-03 02:51:08,1112000/0fef3ac415c5408288a4517c96674900-d.jpg,,
22401664,Praxisbuch Beatmung,,,,Ulrich v. Hintzenstern and Thomas Bein (Eds.),2007,4. Auflage,Urban & Fischer bei Elsev,,306,0,German,,,,978-3-437-23411-8,,,,,,,,,,,0,,,,,,,1,7004695,pdf,97d34a6a31feb30a0b9660dcef70df72,,,A:\\sciencedirect_books\\9783437234118 (13).pdf,0,2000-01-01 01:00:00,2016-04-03 02:51:08,1112000/97d34a6a31feb30a0b9660dcef70df72-d.jpg,,
22401665,Praxisbuch Beatmung,,,,Ulrich von Hintzenstern and Thomas Bein (Eds.),2012,5. Auflage,Urban & Fischer bei Elsev,,225,0,German,,,,"978-3-437-23412-5,978-3-437-59049-8,978-3-437-22463-8",,,,,,,,,,,0,,,,,,,1,5906761,pdf,c907e82eedc40ebea8f3ccd0993cd912,,,A:\\sciencedirect_books\\9783437234125 (14).pdf,0,2000-01-01 01:00:00,2016-04-03 02:51:08,1112000/c907e82eedc40ebea8f3ccd0993cd912-d.jpg,,
22401666,Facharztprüfung Psychiatrie und Psychotherapie,,,,,2009,,Urban & Fischer bei Elsev,,398,0,German,,,,978-3-437-23420-0,,,,,,,,,,,0,,,,,,,1,5229932,pdf,1b960f826f305bcc49eb770a620bf6d5,,,A:\\sciencedirect_books\\9783437234200 (26).pdf,0,2000-01-01 01:00:00,2016-04-03 02:51:08,1112000/1b960f826f305bcc49eb770a620bf6d5-d.jpg,,
22401667,Klinische Ophthalmologie. Lehrbuch und Atlas,,,,Jack J. Kanski and Brad Bowling (Auth.),2012,7. Auflage,Urban & Fischer bei Elsev,,913,0,German,,,,"978-3-437-23473-6,978-0-702-04093-1,978-3-437-59196-9",,,,,,,,,,,0,,,,,,,1,286775919,pdf,2ed80030b8f8ec5fb66a123be6f66170,,,A:\\sciencedirect_books\\9783437234736 (28).pdf,0,2000-01-01 01:00:00,2016-04-03 02:51:08,1112000/2ed80030b8f8ec5fb66a123be6f66170-d.jpg,,
22401668,Interventionelle Endoskopie,,,,"Stefan Kahl, Georg Kähler and Arno Dormann (Eds.)",2006,,Urban & Fischer bei Elsev,,416,0,German,,,,978-3-437-23620-4,,,,,,,,,,,0,,,,,,,1,54612640,pdf,a293b2185130bb6626ba246c6dead180,,,A:\\sciencedirect_books\\9783437236204 (25).pdf,0,2000-01-01 01:00:00,2016-04-03 02:51:08,1112000/a293b2185130bb6626ba246c6dead180-d.jpg,,
22401669,Sonographie. Schritt für Schritt zur Diagnose,,,,Manfred Gross (Eds.),2006,,Urban & Fischer bei Elsev,,508,0,German,,,,"978-3-437-23630-3,3-437-23630-X",,,,,,,,,,,0,,,,,,,1,55293526,pdf,54d1cf4c93e38f2c21e5ba247b20d148,,,A:\\sciencedirect_books\\9783437236303 (29).pdf,0,2000-01-01 01:00:00,2016-04-03 02:51:08,1112000/54d1cf4c93e38f2c21e5ba247b20d148-d.jpg,,
22401670,Echokardiographie. Lehrbuch und Atlas,,,,"PD Dr. med. Thomas Bartel, Dr. med. Silvana Müller (Eds.)",2006,,Urban & Fischer bei Elsev,,477,0,German,,,,"978-3-437-23640-2,3-437-23640-7",,,,,,,,,,,0,,,,,,,1,20218499,pdf,927c1657823f17b0bdcc45f48831963a,,,A:\\sciencedirect_books\\9783437236402 (27).pdf,0,2000-01-01 01:00:00,2016-04-03 02:51:08,1112000/927c1657823f17b0bdcc45f48831963a-d.jpg,,
22401671,Störungsorientierte Psychotherapie,,,,"Sabine C. Herpertz, Franz Caspar and Christoph Mundt (Eds.)",2007,,Urban & Fischer bei Elsevier,,767,0,German,,,,978-3-437-23730-0,,,,,,,,,,,0,,,,,,,1,9234633,pdf,bdfa04a9018a5bc66883e3958cf90575,,,A:\\sciencedirect_books\\9783437237300 (42).pdf,0,2000-01-01 01:00:00,2016-04-03 02:51:08,1112000/bdfa04a9018a5bc66883e3958cf90575-d.jpg,,
22401672,Facharzt Geburtsmedizin,,,,Prof. Dr. Franz Kainer (Eds.),2005,,Urban & Fischer bei Elsev,,1137,0,German,,,,978-3-437-23750-8,,,,,,,,,,,0,,,,,,,1,45186861,pdf,4907f1a5522c0887c17c87f8a925dce5,,,A:\\sciencedirect_books\\9783437237508 (37).pdf,0,2000-01-01 01:00:00,2016-04-03 02:51:08,1112000/4907f1a5522c0887c17c87f8a925dce5-d.jpg,,
22401673,Klinikleitfaden Intensivmedizin,,,,Prof. Dr. Jörg Braun and Dr. Roland Preuss (Eds.),2005,,Urban & Fischer bei Elsev,,885,0,German,,,,"978-3-437-23760-7,3-437-23760-8",,,,,,,,,,,0,,,,,,,1,15312398,pdf,f6649407b41d737af7308835ee1e5bd1,,,A:\\sciencedirect_books\\9783437237607 (30).pdf,0,2000-01-01 01:00:00,2016-04-03 02:51:08,1112000/f6649407b41d737af7308835ee1e5bd1-d.jpg,,
22401674,Klinikleitfaden Intensivmedizin,,,,"Jörg Braun, Prof. Dr. med., and Dr. med. Roland Preuss (Eds.)",2008,,,,885,0,German,,,,978-3-437-23761-4,,,,,,,,,,,0,,,,,,,1,26885964,pdf,8867a48b9d05b20baa4cc9a3a92a079d,,,A:\\sciencedirect_books\\9783437237614 (30).pdf,0,2000-01-01 01:00:00,2016-04-03 02:51:08,1112000/8867a48b9d05b20baa4cc9a3a92a079d-d.jpg,,
22401675,Klinikleitfaden Intensivmedizin,,,,Jörg Braun and Roland Preuss (Eds.),2013,8. Auflage,Urban & Fischer bei Elsev,,805,0,German,,,,"978-3-437-23762-1,978-3-437-16970-0",,,,,,,,,,,0,,,,,,,1,11929666,pdf,f56d006c59798766a2c41f50443ab184,,,A:\\sciencedirect_books\\9783437237621 (30).pdf,0,2000-01-01 01:00:00,2016-04-03 02:51:08,1112000/f56d006c59798766a2c41f50443ab184-d.jpg,,
22401676,Facharzt Hämatologie Onkologie,,,,Prof. Dr. med. Kurt Possinger and Dr. med. Anne C. Regierer (Eds.),2006,,Urban & Fischer bei Elsev,,1058,0,German,,,,"978-3-437-23770-6,3-437-23770-5",,,,,,,,,,,0,,,,,,,1,15879762,pdf,3385e3f2f6f14baadb3dbb99ae18cc9c,,,A:\\sciencedirect_books\\9783437237706 (33).pdf,0,2000-01-01 01:00:00,2016-04-03 02:51:08,1112000/3385e3f2f6f14baadb3dbb99ae18cc9c-d.jpg,,
22401677,Kunsttherapie bei psychischen Störungen,,,,"Flora von Spreti, Philipp Martius and Hans Förstl (Eds.)",2005,,Urban & Fischer bei Elsev,,418,0,German,,,,978-3-437-23790-4,,,,,,,,,,,0,,,,,,,1,30355682,pdf,c1e2952120118fe7d78977771a5ecd7e,,,A:\\sciencedirect_books\\9783437237904 (14).pdf,0,2000-01-01 01:00:00,2016-04-03 02:51:08,1112000/c1e2952120118fe7d78977771a5ecd7e-d.jpg,,
22401678,Augennotfälle. Ein Leitfaden für Diagnose und Management,,,,Lennox A. Webb (Auth.),2005,,,,216,0,German,,,,"978-3-437-23840-6,3-437-23840-X",,,,,,,,,,,0,,,,,,,1,15205199,pdf,b5430abc295da5a273c5ea21a54e5377,,,A:\\sciencedirect_books\\9783437238406 (17).pdf,0,2000-01-01 01:00:00,2016-04-03 02:51:08,1112000/b5430abc295da5a273c5ea21a54e5377-d.jpg,,
22401679,Klinikleitfaden Anästhesie,,,,Dr. Reiner Schäfer and Dr. Matthias Eberhardt (Eds.),2005,,Urban & Fischer bei Elsev,,779,0,German,,,,"978-3-437-23890-1,3-437-23890-6",,,,,,,,,,,0,,,,,,,1,16015734,pdf,0323a89ba2fe886b025268149320d02c,,,A:\\sciencedirect_books\\9783437238901 (32).pdf,0,2000-01-01 01:00:00,2016-04-03 02:51:08,1112000/0323a89ba2fe886b025268149320d02c-d.jpg,,
22401680,Klinikleitfaden Anästhesie,,,,Reiner Schäfer and Peter Söding (Eds.),,6. Auflage,,,714,0,German,,,,978-3-437-23891-8,,,,,,,,,,,0,,,,,,,1,30640168,pdf,08ede06f9d177a6142a761a4ec240eef,,,A:\\sciencedirect_books\\9783437238918 (32).pdf,0,2000-01-01 01:00:00,2016-04-03 02:51:08,1112000/08ede06f9d177a6142a761a4ec240eef-d.jpg,,
22401681,Facharzt Nephrologie,,,,Teut Risler and Karl-Wilhelm (Eds.),2008,,Urban & Fischer bei Elsev,,976,0,German,,,,978-3-437-23900-7,,,,,,,,,,,0,,,,,,,1,12474405,pdf,53e065d4a85275c8d624a7c70d35bc88,,,A:\\sciencedirect_books\\9783437239007 (25).pdf,0,2000-01-01 01:00:00,2016-04-03 02:51:08,1112000/53e065d4a85275c8d624a7c70d35bc88-d.jpg,,
22401682,Facharzt Gynäkologie,,,,Wolfgang Janni and Brigitte Rack (Eds.),2008,,Urban & Fischer bei Elsev,,731,0,German,,,,978-3-437-23915-1,,,,,,,,,,,0,,,,,,,1,10250103,pdf,e3ee5b75f9536ba876cfdf0ca5dcf80c,,,A:\\sciencedirect_books\\9783437239151 (28).pdf,0,2000-01-01 01:00:00,2016-04-03 02:51:08,1112000/e3ee5b75f9536ba876cfdf0ca5dcf80c-d.jpg,,
22401683,Kompaktatlas Blickdiagnosen,,,,Gunter Gruber and Andreas Hansch (Eds.),2006,,Urban & Fischer bei Elsev,,357,0,German,,,,"978-3-437-24000-3,3-437-24000-5",,,,,,,,,,,0,,,,,,,1,27444002,pdf,d2fe7be923ccc19e9c49e330a387ea83,,,A:\\sciencedirect_books\\9783437240003 (17).pdf,0,2000-01-01 01:00:00,2016-04-03 02:51:08,1112000/d2fe7be923ccc19e9c49e330a387ea83-d.jpg,,
22401684,Kinderorthopädie,,,,Peter Matzen (Eds.),2007,,,,668,0,German,,,,978-3-437-24020-1,,,,,,,,,,,0,,,,,,,1,29456488,pdf,ca817772cf3073e8410b8be3912b7656,,,A:\\sciencedirect_books\\9783437240201 (34).pdf,0,2000-01-01 01:00:00,2016-04-03 02:51:08,1112000/ca817772cf3073e8410b8be3912b7656-d.gif,,
22401685,Verhaltenstherapie bei Zwangsstörungen. Fallbasierte Therapiekonzepte,,,,"Susanne Fricke, Michael Rufer and Iver Hand (Eds.)",2006,,Urban & Fischer bei Elsev,,237,0,German,,,,"978-3-437-24060-7,3-437-24060-9",,,,,,,,,,,0,,,,,,,1,2086744,pdf,92c424dbd508f23b7606012727c29634,,,A:\\sciencedirect_books\\9783437240607 (9).pdf,0,2000-01-01 01:00:00,2016-04-03 02:51:08,1112000/92c424dbd508f23b7606012727c29634-d.jpg,,
22401686,"Sportverletzungen. Diagnose, Management und Begleitmaßnahmen",,,,Martin Engelhardt (Eds.),2006,,Urban & Fischer bei Elsev,,795,0,German,,,,"978-3-437-24090-4,3-437-24090-0",,,,,,,,,,,0,,,,,,,1,28890868,pdf,ae68f1df8aa4fa76dda8159207a94195,,,A:\\sciencedirect_books\\9783437240904 (93).pdf,0,2000-01-01 01:00:00,2016-04-03 02:51:08,1112000/ae68f1df8aa4fa76dda8159207a94195-d.jpg,,
22401687,Klinische Radiologie. Basiswissen für alle Fachgebiete,,,,"Fred A. Mettler, Jr., M.D., M.P.H (Auth.)",2005,,Urban & Fischer bei Elsev,,398,0,German,,,,"978-3-437-24100-0,0-7216-0527-3,3-437-24100-1",,,,,,,,,,,0,,,,,,,1,37227247,pdf,f528a58a58c8cdff55ca2214fb461984,,,A:\\sciencedirect_books\\9783437241000 (14).pdf,0,2000-01-01 01:00:00,2016-04-03 02:51:08,1112000/f528a58a58c8cdff55ca2214fb461984-d.jpg,,
22401688,"Notfallradiologie, Unfallradiologie",,,,"Nigel Raby, FRCR, Laurence Berman, FRCR, and Gerald de Lacey, FRCR (Eds.)",2006,,Urban & Fischer bei Elsev,,342,0,German,,,,"978-3-437-24120-8,0-7020-2667-0,3-437-24120-6",,,,,,,,,,,0,,,,,,,1,19019574,pdf,08a2006032c903520e58bf1b272152dc,,,A:\\sciencedirect_books\\9783437241208 (25).pdf,0,2000-01-01 01:00:00,2016-04-03 02:51:08,1112000/08a2006032c903520e58bf1b272152dc-d.jpg,,
22401689,Therapie psychischer Erkrankungen. STATE OF THE ART,,,,Urich Voderholzer and Fritz Hohagen (Eds.),2005,,,,269,0,German,,,,"978-3-437-24130-7,3-437-24130-3",,,,,,,,,,,0,,,,,,,1,6369064,pdf,6dc6fec33bbd5559fa1bce299a128173,,,A:\\sciencedirect_books\\9783437241307 (21).pdf,0,2000-01-01 01:00:00,2016-04-03 02:51:08,1112000/6dc6fec33bbd5559fa1bce299a128173-d.gif,,
22401690,Therapie psychischer Erkrankungen 2006/ 2007. STATE OF THE ART,,,,Urich Voderholzer and Fritz Hohagen (Eds.),2006,,,,343,0,German,,,,"978-3-437-24131-4,3-437-24131-1",,,,,,,,,,,0,,,,,,,1,8435231,pdf,0cc2ef47a04d9f92e8c941f91698982d,,,A:\\sciencedirect_books\\9783437241314 (23).pdf,0,2000-01-01 01:00:00,2016-04-03 02:51:08,1112000/0cc2ef47a04d9f92e8c941f91698982d-d.gif,,
22401691,Ultraschalldiagnostik peripherer Gefäße,,,,Abigail Thrush and Timothy Hartshorne (Auth.),2006,,Urban & Fischer bei Elsev,,241,0,German,,,,"978-3-437-24140-6,3-437-24140-0",,,,,,,,,,,0,,,,,,,1,22950673,pdf,efa7a4dabf2e2a55b1ac7749b842b248,,,A:\\sciencedirect_books\\9783437241406 (21).pdf,0,2000-01-01 01:00:00,2016-04-03 02:51:08,1112000/efa7a4dabf2e2a55b1ac7749b842b248-d.jpg,,
22401692,Hepatologie für die Praxis,,,,Gerd R. Pape and Burkhard Göke (Eds.),2006,,Urban & Fischer bei Elsev,,316,0,German,,,,"978-3-437-24160-4,3-437-24160-5",,,,,,,,,,,0,,,,,,,1,4342833,pdf,f2e0bc95ac331d776f9b8b484a76aa24,,,A:\\sciencedirect_books\\9783437241604 (23).pdf,0,2000-01-01 01:00:00,2016-04-03 02:51:08,1112000/f2e0bc95ac331d776f9b8b484a76aa24-d.jpg,,
22401693,Neurologische Untersuchung,,,,Frank Schnorpfeil and Wilhard Reuter (Eds.),2010,"3., durchgesehene Auflage",Urban & Fischer bei Elsev,,190,0,German,,,,"978-3-437-24171-0,978-3-437-24170-3,3-437-24170-2",,,,,,,,,,,0,,,,,,,1,3418465,pdf,3a53995261c758dc868d9a267c191cfb,,,A:\\sciencedirect_books\\9783437241710 (7).pdf,0,2000-01-01 01:00:00,2016-04-03 02:51:08,1112000/3a53995261c758dc868d9a267c191cfb-d.jpg,,
22401694,Atlas Schulterarthroskopie,,,,"S. Lichtenberg, P. Habermeyer and P. Magosch (Auth.)",2008,,Urban & Fischer bei Elsev,,162,0,German,,,,978-3-437-24190-1,,,,,,,,,,,0,,,,,,,1,21204949,pdf,d30216f9c247afb8f82575d0a36c3b18,,,A:\\sciencedirect_books\\9783437241901 (19).pdf,0,2000-01-01 01:00:00,2016-04-03 02:51:08,1112000/d30216f9c247afb8f82575d0a36c3b18-d.jpg,,
22401695,Konservative Therapie und Rehabilitation von Schultererkrankungen,,,,Petra Magosch and Wolf Dietrich Scheiderer (Eds.),2011,,Urban & Fischer bei Elsev,,304,0,German,,,,"978-3-437-24195-6,978-3-437-59530-1",,,,,,,,,,,0,,,,,,,1,45294762,pdf,3320bb521b7e485a592d95bbe80256b0,,,A:\\sciencedirect_books\\9783437241956 (16).pdf,0,2000-01-01 01:00:00,2016-04-03 02:51:08,1112000/3320bb521b7e485a592d95bbe80256b0-d.jpg,,
22401696,Pädiatrische Dermatologie. Lehrbuch und Atlas,,,,Bernard A. Cohen (Eds.),2007,,,,298,0,German,,,,978-3-437-24250-2,,,,,,,,,,,0,,,,,,,1,71275573,pdf,7339dc36c7788491d108d6ab26ffad0e,,,A:\\sciencedirect_books\\9783437242502 (19).pdf,0,2000-01-01 01:00:00,2016-04-03 02:51:08,1112000/7339dc36c7788491d108d6ab26ffad0e-d.jpg,,
22401697,Brustkrebs. Diagnostik und Therapie,,,,Orlando E. Silva and Stefano Zurrida (Eds.),2007,,Urban & Fischer bei Elsev,,651,0,German,,,,"978-3-437-24260-1,0-7020-2744-8",,,,,,,,,,,0,,,,,,,1,6146010,pdf,4cb5b9509d038824c7226c7a9ac09c0b,,,A:\\sciencedirect_books\\9783437242601 (51).pdf,0,2000-01-01 01:00:00,2016-04-03 02:51:08,1112000/4cb5b9509d038824c7226c7a9ac09c0b-d.jpg,,
22401698,Vaginale Chirurgie,,,,"Michel Cosson, Denis Querleu and Daniel Dargent (Eds.)",2006,,Urban & Fischer bei Elsev,,174,0,German,,,,"978-3-437-24270-0,0-3230-3656-2,3-437-24270-9",,,,,,,,,,,0,,,,,,,1,45100263,pdf,2953e013ba5c5b352c5b6782ff43c817,,,A:\\sciencedirect_books\\9783437242700 (36).pdf,0,2000-01-01 01:00:00,2016-04-03 02:51:08,1112000/2953e013ba5c5b352c5b6782ff43c817-d.jpg,,
22401699,Das Polytrauma. Präklinisches und klinisches Managment,,,,Hans-Joerg Oestern (Eds.),2007,,Urban & Fischer bei Elsev,,381,0,German,,,,978-3-437-24280-9,,,,,,,,,,,0,,,,,,,1,37644376,pdf,ab9f094cc18329db4554bd43c8ecbfbf,,,A:\\sciencedirect_books\\9783437242809 (28).pdf,0,2000-01-01 01:00:00,2016-04-03 02:51:08,1112000/ab9f094cc18329db4554bd43c8ecbfbf-d.jpg,,
22401700,Ultraschalldiagnostik in der Geburtshilfe,,,,"Trish Chudleigh and Basky Thilaganathan, (Hrsg.) (Auth.)",2007,,Urban & Fischer bei Elsev,,254,0,German,,,,"978-3-437-24290-8,0-443-05471-1",,,,,,,,,,,0,,,,,,,1,11439886,pdf,4cca286e2cd07cd025326d36e62aabb5,,,A:\\sciencedirect_books\\9783437242908 (24).pdf,0,2000-01-01 01:00:00,2016-04-03 02:51:08,1112000/4cca286e2cd07cd025326d36e62aabb5-d.jpg,,
22401701,Chirurgie der Gallenwege,,,,Jean-François Gigot (Auth.),2007,,,,144,0,German,,,,"978-3-437-24300-4,2-294-02090-1",,,,,,,,,,,0,,,,,,,1,38594031,pdf,fc9a5606a7a3a581fdcd97a29722d230,,,A:\\sciencedirect_books\\9783437243004 (14).pdf,0,2000-01-01 01:00:00,2016-04-03 02:51:08,1112000/fc9a5606a7a3a581fdcd97a29722d230-d.jpg,,
22401702,Der Kaiserschnitt. Indikationen – Hintergründe – Operatives Management der Misgav-Ladach-Methode,,,,Michael Stark (Eds.),2008,,,,449,0,German,,,,978-3-437-24310-3,,,,,,,,,,,0,,,,,,,1,13618223,pdf,ea7cb1d55713df10ed7f5bf0fecb9a2c,,,A:\\sciencedirect_books\\9783437243103 (35).pdf,0,2000-01-01 01:00:00,2016-04-03 02:51:08,1112000/ea7cb1d55713df10ed7f5bf0fecb9a2c-d.jpg,,
22401703,Mehrlingsschwangerschaften. Prä- und perinatales Management,,,,Michael Krause (Eds.),2007,,Urban & Fischer bei Elsevier,,232,0,German,,,,978-3-437-24320-2,,,,,,,,,,,0,,,,,,,1,6982196,pdf,324e84e40a0184483f56d5f7feb98cd0,,,A:\\sciencedirect_books\\9783437243202 (22).pdf,0,2000-01-01 01:00:00,2016-04-03 02:51:08,1112000/324e84e40a0184483f56d5f7feb98cd0-d.jpg,,
22401704,Herzschrittmacher-Kontrolle,,,,"Stefan Volz, Philipp Halbfaß, Oliver Groll and Michael Wankerl (Auth.)",2008,,Urban & Fischer bei Elsev,,150,0,German,,,,978-3-437-24330-1,,,,,,,,,,,0,,,,,,,1,21731003,pdf,4a6fc0f59f4bd6576faa5575732ecba9,,,A:\\sciencedirect_books\\9783437243301 (15).pdf,0,2000-01-01 01:00:00,2016-04-03 02:51:08,1112000/4a6fc0f59f4bd6576faa5575732ecba9-d.jpg,,
22401705,Herzschrittmacherkontrolle,,,,Stefan Volz and Philipp Halbfaß (Auth.),2011,2. Auflage,Urban & Fischer bei Elsev,,114,0,German,,,,978-3-437-24331-8,,,,,,,,,,,0,,,,,,,1,3726500,pdf,ef6287da9c1d8ba5cbadb791a4616f93,,,A:\\sciencedirect_books\\9783437243318 (18).pdf,0,2000-01-01 01:00:00,2016-04-03 02:51:08,1112000/ef6287da9c1d8ba5cbadb791a4616f93-d.jpg,,
22401706,Dermatologische Differenzialdiagnose. Kompakter Farbatlas,,,,"Boni E. Elewski, Lauren C. Hughey and Margaret E. Parsons (Eds.)",2007,,,,670,0,German,,,,978-3-437-24340-0,,,,,,,,,,,0,,,,,,,1,107369180,pdf,e1639490c92b1aa2093e6f626bc8894c,,,A:\\sciencedirect_books\\9783437243400 (35).pdf,0,2000-01-01 01:00:00,2016-04-03 02:51:08,1112000/e1639490c92b1aa2093e6f626bc8894c-d.jpg,,
22401707,Therapie der Schizophrenie. Evidenzbasierte Behandlung,,,,Stefan Leucht (Auth.),2007,,Elsevier GmbH (POD),,225,0,German,,,,978-3-437-24350-9,,,,,,,,,,,0,,,,,,,1,1479114,pdf,a2b9bcc47ff6b88c85983e56f32738fd,,,A:\\sciencedirect_books\\9783437243509 (14).pdf,0,2000-01-01 01:00:00,2016-04-03 02:51:08,1112000/a2b9bcc47ff6b88c85983e56f32738fd-d.jpg,,
22401708,Diagnostik der Gelenke und Weichteile. Sonografie oder MRT,,,,Hartmut Gaulrapp and Ulrike Szeimies (Eds.),2008,,Urban & Fischer Bei Elsev,,261,0,German,,,,978-3-437-24370-7,,,,,,,,,,,0,,,,,,,1,20649959,pdf,9d3f2542c1e5c1b2011003edf0672a9f,,,A:\\sciencedirect_books\\9783437243707 (21).pdf,0,2000-01-01 01:00:00,2016-04-03 02:51:08,1112000/9d3f2542c1e5c1b2011003edf0672a9f-d.jpg,,
22401709,Atlas orthopädisch-chirurgischer Zugangswege,,,,Prof. Dr. med. Detlef von Torklus (Auth.),2007,,Urban & Fischer bei Elsev,,270,0,German,,,,978-3-437-24380-6,,,,,,,,,,,0,,,,,,,1,222990767,pdf,895e01bead777eb02c22c1d960bff879,,,A:\\sciencedirect_books\\9783437243806 (25).pdf,0,2000-01-01 01:00:00,2016-04-03 02:51:08,1112000/895e01bead777eb02c22c1d960bff879-d.jpg,,
22401710,"Alterstraumatologie. Prophylaxe, Therapie und Rehabilitation",,,,Michael J. Raschke and Richard Stange (Eds.),2008,,,,558,0,German,,,,978-3-437-24390-5,,,,,,,,,,,0,,,,,,,1,40791204,pdf,78462483c3c097e54ff2d7d7fede21a9,,,A:\\sciencedirect_books\\9783437243905 (23).pdf,0,2000-01-01 01:00:00,2016-04-03 02:51:08,1112000/78462483c3c097e54ff2d7d7fede21a9-d.jpg,,
22401711,Orthopädie und Unfallchirurgie. Facharztwissen nach der neuen Weiterbildungsordnung,,,,"Hanns-Peter Scharf, Axel Rüter, Tim Pohlemann, Ingo Marzi, Dieter Kohn and Klaus-Peter Günther (Eds.)",2008,,,,941,0,German,,,,978-3-437-24400-1,,,,,,,,,,,0,,,,,,,1,71604153,pdf,6cbe0691e45c86992a7d5dd846afd468,,,A:\\sciencedirect_books\\9783437244001 (42).pdf,0,2000-01-01 01:00:00,2016-04-03 02:51:08,1112000/6cbe0691e45c86992a7d5dd846afd468-d.jpg,,
22401712,Orthopädie und Unfallchirurgie. Facharztwissen nach der neuen Weiterbildungsordnung,,,,Hanns-Peter Scharf and Axel R&#x00fcter (Eds.),2011,2. Auflage,Urban & Fischer bei Elsev,,992,0,German,,,,978-3-437-24401-8,,,,,,,,,,,0,,,,,,,1,60743166,pdf,45953c10393e7d8fcd6826d3cabb14b8,,,A:\\sciencedirect_books\\9783437244018 (43).pdf,0,2000-01-01 01:00:00,2016-04-03 02:51:08,1112000/45953c10393e7d8fcd6826d3cabb14b8-d.jpg,,
22401713,Schwierige Gesprächssituationen in Psychiatrie und Psychotherapie,,,,Gitta Jacob and Klaus Lieb (Auth.),,,Urban & Fischer bei Elsev,,175,0,German,,,,978-3-437-24420-9,,,,,,,,,,,0,,,,,,,1,8065205,pdf,99a23996acb6314f48f6e6c4e02b66b4,,,A:\\sciencedirect_books\\9783437244209 (15).pdf,0,2000-01-01 01:00:00,2016-04-03 02:51:08,1112000/99a23996acb6314f48f6e6c4e02b66b4-d.jpg,,
22401714,Anästhesie in der Traumatologie und Orthopädie,,,,Thomas Frietsch and Arnulf Weiler-Lorentz (Auth.),2009,,Urban & Fischer bei Elsev,,389,0,German,,,,978-3-437-24450-6,,,,,,,,,,,0,,,,,,,1,22901291,pdf,06ead0dadd140d7aa6b2d0403d15fb7c,,,A:\\sciencedirect_books\\9783437244506 (13).pdf,0,2000-01-01 01:00:00,2016-04-03 02:51:08,1112000/06ead0dadd140d7aa6b2d0403d15fb7c-d.jpg,,
22401715,Leberchirurgie. und Chirurgie der portalen Hypertonie,,,,"Denis Castaing, Daniel Azoulay, René Adam, Zeichnungen von and Antoine Barnaud (Auth.)",2007,,Urban & Fischer bei Elsev,,210,0,German,,,,"978-3-437-24460-5,2-294-01497-9",,,,,,,,,,,0,,,,,,,1,34507410,pdf,36e36405a4561903047d63794382f3ba,,,A:\\sciencedirect_books\\9783437244605 (27).pdf,0,2000-01-01 01:00:00,2016-04-03 02:51:08,1112000/36e36405a4561903047d63794382f3ba-d.jpg,,
22401716,Totale Kniearthroplastik,,,,Richard D. Scott (Auth.),2007,,Urban & Fischer bei Elsev,,177,0,German,,,,"978-3-437-24470-4,0-7216-3948-8",,,,,,,,,,,0,,,,,,,1,25771631,pdf,dd570bfe8d8a15518787cc124c276fe6,,,A:\\sciencedirect_books\\9783437244704 (24).pdf,0,2000-01-01 01:00:00,2016-04-03 02:51:08,1112000/dd570bfe8d8a15518787cc124c276fe6-d.jpg,,
22401717,Psychoonkologie. Diagnostik – Methoden – Therapieverfahren,,,,Monika Dorfmüller and Hermann Dietzfelbinger (Eds.),2008,,Urban & Fischer bei Elsev,,383,0,German,,,,978-3-437-24490-2,,,,,,,,,,,0,,,,,,,1,9109239,pdf,1c7c889a4c14733bbdd98deefbf077f8,,,A:\\sciencedirect_books\\9783437244902 (76).pdf,0,2000-01-01 01:00:00,2016-04-03 02:51:08,1112000/1c7c889a4c14733bbdd98deefbf077f8-d.jpg,,
22401718,Hernienchirurgie,,,,"R. Obermaier, F. Pfeffer and U.T. Hopt (Eds.)",2009,,Urban & Fischer bei Elsev,,184,0,German,,,,978-3-437-24520-6,,,,,,,,,,,0,,,,,,,1,17521053,pdf,ad0c2be872dc497ebadd8478b381ff31,,,A:\\sciencedirect_books\\9783437245206 (13).pdf,0,2000-01-01 01:00:00,2016-04-03 02:51:08,1112000/ad0c2be872dc497ebadd8478b381ff31-d.jpg,,
22401719,"Influenza. Prävention, Diagnostik, Therapie und öffentliche Gesundheit",,,,Walter Haas (Eds.),2009,,,,241,0,German,,,,978-3-437-24530-5,,,,,,,,,,,0,,,,,,,1,11884846,pdf,e2a887a240aea3ac69cb62a35e2de2ca,,,A:\\sciencedirect_books\\9783437245305 (18).pdf,0,2000-01-01 01:00:00,2016-04-03 02:51:08,1112000/e2a887a240aea3ac69cb62a35e2de2ca-d.jpg,,
22401720,Patientenschulung arterielle Hypertonie,,,,,2009,,Urban & Fischer bei Elsev,,231,0,German,,,,978-3-437-24550-3,,,,,,,,,,,0,,,,,,,1,6950046,pdf,28f7e2c9f9c05feb49a9d19d3dd224f5,,,A:\\sciencedirect_books\\9783437245503 (14).pdf,0,2000-01-01 01:00:00,2016-04-03 02:51:08,1112000/28f7e2c9f9c05feb49a9d19d3dd224f5-d.jpg,,
22401721,Praxis der Interkulturellen Psychiatrie und Psychotherapie,,,,Wielant Machleidt and Andreas Heinz (Eds.),2011,,,,585,0,German,,,,978-3-437-24570-1,,,,,,,,,,,0,,,,,,,1,13856160,pdf,cca1184792c8c947797e4a654b7a1b73,,,A:\\sciencedirect_books\\9783437245701 (66).pdf,0,2000-01-01 01:00:00,2016-04-03 02:51:08,1112000/cca1184792c8c947797e4a654b7a1b73-d.jpg,,
22401722,Medizinische Gefahrenabwehr. Katastrophenmedizin und Krisenmanagement im Bevölkerungsschutz,,,,"Thomas Luiz, Christian Lackner, Hanno Peter and Jörg Schmidt (Eds.)",2009,,Urban & Fischer bei Elsev,,474,0,German,,,,978-3-437-24590-9,,,,,,,,,,,0,,,,,,,1,43434493,pdf,5708c36d655af542691a0d42ad3fa53d,,,A:\\sciencedirect_books\\9783437245909 (37).pdf,0,2000-01-01 01:00:00,2016-04-03 02:51:08,1112000/5708c36d655af542691a0d42ad3fa53d-d.jpg,,
22401723,Bewegungserhaltende Wirbelsäulenchirurgie,,,,Rudolf Bertagnoli (Eds.),2011,,,,375,0,German,,,,"978-3-437-24650-0,978-1-4160-3994-5",,,,,,,,,,,0,,,,,,,1,63815480,pdf,cb3a553331de93f11437147f1a042e75,,,A:\\sciencedirect_books\\9783437246500 (19).pdf,0,2000-01-01 01:00:00,2016-04-03 02:51:08,1112000/cb3a553331de93f11437147f1a042e75-d.jpg,,
22401724,Pädiatrische HNO-Heilkunde,,,,Karl Götte and Thomas Nicolai (Eds.),2010,,,,645,0,German,,,,978-3-437-24660-9,,,,,,,,,,,0,,,,,,,1,47843570,pdf,3decec6682451bda12ed6b3a7707e6aa,,,A:\\sciencedirect_books\\9783437246609 (68).pdf,0,2000-01-01 01:00:00,2016-04-03 02:51:08,1112000/3decec6682451bda12ed6b3a7707e6aa-d.jpg,,
22401725,Praktische Endokrinologie,,,,Bruno Allolio and Heinrich M. Schulte (Eds.),2010,,,,686,0,German,,,,978-3-437-24680-7,,,,,,,,,,,0,,,,,,,1,33011849,pdf,2bd28f32c6e481a0b9aa7df1c276b818,,,A:\\sciencedirect_books\\9783437246807 (87).pdf,0,2000-01-01 01:00:00,2016-04-03 02:51:08,1112000/2bd28f32c6e481a0b9aa7df1c276b818-d.jpg,,
22401726,Diagnosenübergreifende und multimodale Psychoedukation,,,,K. Rabovsky and G. Stoppe (Auth.),2008,,,,135,0,German,,,,978-3-437-24720-0,,,,,,,,,,,0,,,,,,,1,5423981,pdf,75ff8cfb4d1b64e3ab1aea4a70ae74ce,,,A:\\sciencedirect_books\\9783437247200 (11).pdf,0,2000-01-01 01:00:00,2016-04-03 02:51:08,1112000/75ff8cfb4d1b64e3ab1aea4a70ae74ce-d.jpg,,
22401727,Ultraschalldiagnostik in der Gynäkologie,,,,Ilan E. Timor-Tritsch and Steven R. Goldstein (Eds.),2008,,Urban & Fischer Bei Elsev,,390,0,German,,,,"978-3-437-24730-9,0-443-06630-2",,,,,,,,,,,0,,,,,,,1,137382618,pdf,a36c50c0e470aad67d0afc650aec964c,,,A:\\sciencedirect_books\\9783437247309 (34).pdf,0,2000-01-01 01:00:00,2016-04-03 02:51:08,1112000/a36c50c0e470aad67d0afc650aec964c-d.jpg,,
22401728,Anästhesie-Fibel. Kompendium für den klinischen Alltag,,,,Marc Wrobel and Marco Werth (Eds.),2008,,Urban & Fischer bei Elsev,,194,0,German,,,,978-3-437-24750-7,,,,,,,,,,,0,,,,,,,1,2105510,pdf,14b378c4ce25887480268d8aee36e215,,,A:\\sciencedirect_books\\9783437247507 (22).pdf,0,2000-01-01 01:00:00,2016-04-03 02:51:08,1112000/14b378c4ce25887480268d8aee36e215-d.jpg,,
22401729,Anästhesie-Fibel. Kompendium für den klinischen Alltag,,,,Marc Wrobel and Marco Werth (Auth.),2011,2. Auflage,"Elsevier, Urban & Fischer",,206,0,German,,,,978-3-437-24751-4,,,,,,,,,,,0,,,,,,,1,3690442,pdf,0ffadefee54d5f65b17fbe6aa8c9c7c0,,,A:\\sciencedirect_books\\9783437247514 (23).pdf,0,2000-01-01 01:00:00,2016-04-03 02:51:08,1112000/0ffadefee54d5f65b17fbe6aa8c9c7c0-d.jpg,,
22401730,Praxisbuch Anästhesie,,,,Reinhard Larsen (Auth.),2009,,Urban & Fischer bei Elsev,,964,0,German,,,,978-3-437-24760-6,,,,,,,,,,,0,,,,,,,1,28536341,pdf,b6dc5d2e042ad11261a82fec245ef701,,,A:\\sciencedirect_books\\9783437247606 (54).pdf,0,2000-01-01 01:00:00,2016-04-03 02:51:08,1112000/b6dc5d2e042ad11261a82fec245ef701-d.jpg,,
22401731,Praxis der anästhesiologischen Sonografie. Interventionelle Verfahren bei Erwachsenen und Kindern,,,,Ralf Hillmann and Jens Döffert (Auth.),2009,,Urban & Fischer bei Elsev,,187,0,German,,,,978-3-437-24770-5,,,,,,,,,,,0,,,,,,,1,31853115,pdf,e73d0939fdc42c6be21bf50a8a32341b,,,A:\\sciencedirect_books\\9783437247705 (15).pdf,0,2000-01-01 01:00:00,2016-04-03 02:51:08,1112000/e73d0939fdc42c6be21bf50a8a32341b-d.jpg,,
22401732,Therapie psychischer Erkrankungen. STATE OF THE ART,,,,Ulrich Voderholzer and Fritz Hohagen (Eds.),2007,,Urban & Fischer bei Elsevier,,372,0,German,,,,978-3-437-24780-4,,,,,,,,,,,0,,,,,,,1,9191604,pdf,ab30c5756fa669aa9c80ba8b4e4c11f1,,,A:\\sciencedirect_books\\9783437247804 (23).pdf,0,2000-01-01 01:00:00,2016-04-03 02:51:08,1112000/ab30c5756fa669aa9c80ba8b4e4c11f1-d.jpg,,
22401733,Infektionen in Gynäkologie und Geburtshilfe,,,,Ioannis Mylonas and Klaus Friese (Auth.),2009,,,,421,0,German,,,,978-3-437-24790-3,,,,,,,,,,,0,,,,,,,1,16198810,pdf,d3efa2b0935d4519df9e6e54ebd7787b,,,A:\\sciencedirect_books\\9783437247903 (14).pdf,0,2000-01-01 01:00:00,2016-04-03 02:51:08,1112000/d3efa2b0935d4519df9e6e54ebd7787b-d.jpg,,
22401734,Praxis der Frakturbehandlung,,,,Ronald McRae and Max Esser (Eds.),2009,"4., Auflage",Urban & Fischer bei Elsev,,449,0,German,,,,"978-3-437-24850-4,978-0-443-06876-8",,,,,,,,,,,0,,,,,,,1,40277741,pdf,a2a198fd386e0ff187fd8b3674134a17,,,A:\\sciencedirect_books\\9783437248504 (24).pdf,0,2000-01-01 01:00:00,2016-04-03 02:51:08,1112000/a2a198fd386e0ff187fd8b3674134a17-d.jpg,,
22401735,"Professionelles Erstellen Orthopädisch-unfallchirurgischer Gutachten. Mustergutachten, Referenzen, Formulierungshilfen",,,,Klaus-Dieter Thomann and Frank Schröter (Eds.),2011,,Urban & Fischer bei Elsev,,313,0,German,,,,978-3-437-24861-0,,,,,,,,,,,0,,,,,,,1,12847928,pdf,d16309d5c952fd4aa3a83d7bfda515a9,,,A:\\sciencedirect_books\\9783437248610 (26).pdf,0,2000-01-01 01:00:00,2016-04-03 02:51:08,1112000/d16309d5c952fd4aa3a83d7bfda515a9-d.jpg,,
22401736,"Klinikleitfaden Leitsymptome, Differenzialdiagnosen",,,,Dr. Ute Jachmann-Jahn (Eds.),2008,,,,443,0,German,,,,978-3-437-24890-0,,,,,,,,,,,0,,,,,,,1,43373947,pdf,91c7eda7b9e7dea363c36435859ae9cb,,,A:\\sciencedirect_books\\9783437248900 (107).pdf,0,2000-01-01 01:00:00,2016-04-03 02:51:08,1112000/91c7eda7b9e7dea363c36435859ae9cb-d.jpg,,
22401737,Therapie psychischer Erkrankungen,,,,Ulrich Voderholzer and Fritz Hohagen (Eds.),2008,,,,411,0,German,,,,978-3-437-24900-6,,,,,,,,,,,0,,,,,,,1,9987413,pdf,7a160ff2498fcd7f538da836364f5c7c,,,A:\\sciencedirect_books\\9783437249006 (26).pdf,0,2000-01-01 01:00:00,2016-04-03 02:51:08,1112000/7a160ff2498fcd7f538da836364f5c7c-d.gif,,
22401738,Therapie Psychischer Erkrankungen. State of the Art 2011⁄2012,,,,Ulrich Voderholzer and Fritz Hohagen (Eds.),2011,7. Auflage,Urban & Fischer bei Elsev,,435,0,German,,,,"978-3-437-24903-7,978-3-437-59315-4",,,,,,,,,,,0,,,,,,,1,7802028,pdf,ed10778a6625e79028786d0d08849820,,,A:\\sciencedirect_books\\9783437249037 (34).pdf,0,2000-01-01 01:00:00,2016-04-03 02:51:08,1112000/ed10778a6625e79028786d0d08849820-d.jpg,,
22401739,Therapie Psychischer Erkrankungen,,,,Ulrich Voderholzer and Fritz Hohagen (Eds.),2013,8. Auflage,Urban & Fischer bei Elsev,,460,0,German,,,,"978-3-437-24904-4,978-3-437-59282-9",,,,,,,,,,,0,,,,,,,1,8263053,pdf,4f8078f38efe05d8e0c3a86595b82b9a,,,A:\\sciencedirect_books\\9783437249044 (38).pdf,0,2000-01-01 01:00:00,2016-04-03 02:51:08,1112000/4f8078f38efe05d8e0c3a86595b82b9a-d.jpg,,
22401740,Klinikleitfaden Sonographie Gastroenterologie,,,,Eckhart Fröhlich and Holger Strunk (Eds.),2011,,Urban & Fischer bei Elsev,,237,0,German,,,,"978-3-437-24920-4,978-3-437-22430-0",,,,,,,,,,,0,,,,,,,1,13689155,pdf,a55cbc4015229eb35a61a3821d3eee44,,,A:\\sciencedirect_books\\9783437249204 (21).pdf,0,2000-01-01 01:00:00,2016-04-03 02:51:08,1112000/a55cbc4015229eb35a61a3821d3eee44-d.jpg,,
22401741,Klinikleitfaden OP-Pflege. OP-Pflege,,,,Gertraud Luce-Wunderle and Anita Debrand-Passard (Eds.),2006,,,,728,0,German,,,,978-3-437-26691-1,,,,,,,,,,,0,,,,,,,1,10792711,pdf,180e86362d6e8660772cd556fcb705fa,,,A:\\sciencedirect_books\\9783437266911 (35).pdf,0,2000-01-01 01:00:00,2016-04-03 02:51:08,1112000/180e86362d6e8660772cd556fcb705fa-d.jpg,,
22401742,Spielend Anleiten und Beraten. Hilfen zur praktischen Pflegeausbildung,,,,German Quernheim (Auth.),2009,"3., akt. u. erw. Aufl",,,298,0,German,,,,978-3-437-26881-6,,,,,,,,,,,0,,,,,,,1,12206584,pdf,8bad912da8d37aa90858a500e7c4e112,,,A:\\sciencedirect_books\\9783437268816 (14).pdf,0,2000-01-01 01:00:00,2016-04-03 02:51:08,1112000/8bad912da8d37aa90858a500e7c4e112-d.jpg,,
22401743,Anatomie und Physiologie für die Geburtshilfe,,,,Jane Coad (Auth.),2007,,Urban & Fischer bei Elsev,,506,0,German,,,,978-3-437-27540-1,,,,,,,,,,,0,,,,,,,1,9912156,pdf,d26cd26cfa1e44dfcb16acc0bff80ed2,,,A:\\sciencedirect_books\\9783437275401 (23).pdf,0,2000-01-01 01:00:00,2016-04-03 02:51:08,1112000/d26cd26cfa1e44dfcb16acc0bff80ed2-d.jpg,,
22401744,"Moderne Wundversorgung. Praxiswissen, Standards und Dokumentation",,,,"Kerstin Protz, Unter Mitarbeit von and Jan Hinnerk Timm (Auth.)",2007,,Urban & Fischer bei Elsev,,149,0,German,,,,978-3-437-27881-5,,,,,,,,,,,0,,,,,,,1,3894401,pdf,b799300c2e69932883d977e1aaf20f60,,,A:\\sciencedirect_books\\9783437278815 (17).pdf,0,2000-01-01 01:00:00,2016-04-03 02:51:08,1112000/b799300c2e69932883d977e1aaf20f60-d.jpg,,
22401745,"EKG Endlich Verständlich. Alles, was man wissen muss",,,,Albrecht Ohly (Auth.),2008,,,,274,0,German,,,,978-3-437-41412-1,,,,,,,,,,,0,,,,,,,1,35000407,pdf,c7a6f472dca04cce09fa585a7742222e,,,A:\\sciencedirect_books\\9783437414121 (29).pdf,0,2000-01-01 01:00:00,2016-04-03 02:51:08,1112000/c7a6f472dca04cce09fa585a7742222e-d.jpg,,
22401746,Klinikleitfaden Nachtdienst,,,,Marieke Pilars de Pilar and Dr. med. Ute Jachmann-Jahn (Eds.),2007,,,,684,0,German,,,,978-3-437-41510-4,,,,,,,,,,,0,,,,,,,1,13229041,pdf,f1e98d1724c7b27134363fb3bdb0a24f,,,A:\\sciencedirect_books\\9783437415104 (34).pdf,0,2000-01-01 01:00:00,2016-04-03 02:51:08,1112000/f1e98d1724c7b27134363fb3bdb0a24f-d.jpg,,
22401747,Klinikleitfaden Für Alle Stationen. Leitsymptome–Krankheitsbilder–Praxistipps,,,,Carsten Müller and Christiane Löll (Eds.),2008,3. Auflage,,,842,0,German,,,,978-3-437-41562-3,,,,,,,,,,,0,,,,,,,1,15835821,pdf,81540ec288419692bf2ba0012e2788a8,,,A:\\sciencedirect_books\\9783437415623 (39).pdf,0,2000-01-01 01:00:00,2016-04-03 02:51:08,1112000/81540ec288419692bf2ba0012e2788a8-d.jpg,,
22401748,"Netter Collection, Medizinischer Atlas, Atmungssystem",,,,David A. Kaminsky (Eds.),2013,,Urban & Fischer bei Elsev,,336,0,German,,,,"978-3-437-41792-4,978-1-4377-0574-4,978-3-437-59199-0",,,,,,,,,,,0,,,,,,,1,158459058,pdf,13d50d301b8743c293afbcb59793a9de,,,A:\\sciencedirect_books\\9783437417924 (17).pdf,0,2000-01-01 01:00:00,2016-04-03 02:51:08,1112000/13d50d301b8743c293afbcb59793a9de-d.jpg,,
22401749,"Netter Collection, Medizinischer Atlas, Reproduktionssystem",,,,Roger Smith and Paul J. Turek (Eds.),2012,,,,318,0,German,,,,"978-3-437-41795-5,978-1-4377-0595-9,978-3-437-59658-2",,,,,,,,,,,0,,,,,,,1,199457232,pdf,0362ae449b1c5aae57f75326a6195c08,,,A:\\sciencedirect_books\\9783437417955 (23).pdf,0,2000-01-01 01:00:00,2016-04-03 02:51:08,1112000/0362ae449b1c5aae57f75326a6195c08-d.gif,,
22401750,"Netter Collection, Medizinischer Atlas, Endokrines System",,,,"William F. Young, Jr. (Eds.)",2012,,Urban & Fischer bei Elsev,,241,0,German,,,,"978-3-437-41797-9,978-1-4160-6388-9,978-3-437-59175-4",,,,,,,,,,,0,,,,,,,1,92815795,pdf,fe6c45be8b99b819a50ae26f63a2596d,,,A:\\sciencedirect_books\\9783437417979 (19).pdf,0,2000-01-01 01:00:00,2016-04-03 02:51:08,1112000/fe6c45be8b99b819a50ae26f63a2596d-d.jpg,,
22401751,Leitsymptome. Ein Handbuch für Studenten und Ärzte,,,,Annemarie Hehlmann (Auth.),2007,,Urban & Fischer bei Elsev,,470,0,German,,,,978-3-437-42102-0,,,,,,,,,,,0,,,,,,,1,9911538,pdf,095a0c54a1fea5c2739a181cefc03c3e,,,A:\\sciencedirect_books\\9783437421020 (30).pdf,0,2000-01-01 01:00:00,2016-04-03 02:51:08,1112000/095a0c54a1fea5c2739a181cefc03c3e-d.jpg,,
22401752,Leitsymptome Gynäkologie/Geburtshilfe,,,,Kay Goerke (Auth.),2009,,Urban & Fischer bei Elsev,,120,0,German,,,,978-3-437-42171-6,,,,,,,,,,,0,,,,,,,1,3887072,pdf,8c301eb5407e27deeaa5d438ea53e1b2,,,A:\\sciencedirect_books\\9783437421716 (26).pdf,0,2000-01-01 01:00:00,2016-04-03 02:51:08,1112000/8c301eb5407e27deeaa5d438ea53e1b2-d.jpg,,
22401753,Differenzialdiagnostik und Differenzialtherapieb. Entscheidungen in der Inneren Medizin,,,,"Reinhard Brunkhorst, Jürgen Schölmerich (Eds.)",2010,,Urban & Fischer bei Elsev,,510,0,German,,,,978-3-437-42501-1,,,,,,,,,,,0,,,,,,,1,70982582,pdf,8af3fa63260b8ddeaaffb1473232e0d1,,,A:\\sciencedirect_books\\9783437425011 (246).pdf,0,2000-01-01 01:00:00,2016-04-03 02:51:08,1112000/8af3fa63260b8ddeaaffb1473232e0d1-d.jpg,,
22401754,Flussdiagramme zum Hammerexamen,,,,Doris Oberle (Auth.),2007,,Urban & Fischer bei Elsev,,232,0,German,,,,978-3-437-42553-0,,,,,,,,,,,0,,,,,,,1,2231251,pdf,9cd346ee6485730caa4ff7832a6b7410,,,A:\\sciencedirect_books\\9783437425530 (28).pdf,0,2000-01-01 01:00:00,2016-04-03 02:51:08,1112000/9cd346ee6485730caa4ff7832a6b7410-d.jpg,,
22401755,"Wissenstrainer Gynäkologie. 250 Fragen, die fit machen",,,,Kay Goerke (Auth.),2008,,Urban & Fischer bei Elsev,,222,0,German,,,,978-3-437-42621-6,,,,,,,,,,,0,,,,,,,1,752000,pdf,fed85bfabce5346aa9a39b8fd07912c7,,,A:\\sciencedirect_books\\9783437426216 (14).pdf,0,2000-01-01 01:00:00,2016-04-03 02:51:08,1112000/fed85bfabce5346aa9a39b8fd07912c7-d.jpg,,
22401756,Wissenstrainer Pharmakologie,,,,Franz Bernhard Hofmann and Thomas Kleppisch (Auth.),2009,,Urban & Fischer bei Elsev,,205,0,German,,,,978-3-437-42631-5,,,,,,,,,,,0,,,,,,,1,1366123,pdf,23bd13d4203a93a7265e0344098e3516,,,A:\\sciencedirect_books\\9783437426315 (25).pdf,0,2000-01-01 01:00:00,2016-04-03 02:51:08,1112000/23bd13d4203a93a7265e0344098e3516-d.jpg,,
22401757,"Innere Medizin. Herausgegeben von M. Böhm, M. Hallek, W. Schmiegel",,,,Meinhard Classen and V. Diehl (Eds.),2009,"6., komplett überarbeitete Auflage",Urban & Fischer bei Elsev,,1580,0,German,,,,978-3-437-42831-9,,,,,,,,,,,0,,,,,,,1,139525394,pdf,77b65f8f5d68a614dac82a1f93e02d36,,,A:\\sciencedirect_books\\9783437428319 (36).pdf,0,2000-01-01 01:00:00,2016-04-03 02:51:08,1112000/77b65f8f5d68a614dac82a1f93e02d36-d.jpg,,
22401758,Intensivkurs Chirurgie,,,,"Gerlind Souza-Offtermatt, Karl-Hermann Staubach, Peter Sterk, Almut Udolph, Unter Mitarbeit von, Jan Nolde and Michael J. Melullis (Auth.)",2004,,Urban + Fischer,,646,0,German,,,,"978-3-437-43490-7,3-437-43490-X",,,,,,,,,,,0,,,,,,,1,35524808,pdf,e3071f8bc7d09d012181c3cd493537bb,,,A:\\sciencedirect_books\\9783437434907 (42).pdf,0,2000-01-01 01:00:00,2016-04-03 02:51:08,1112000/e3071f8bc7d09d012181c3cd493537bb-d.jpg,,
22401759,Leitfaden Physiotherapie in der Orthopädie und Traumatologie,,,,"Dr. med. Michael Fleischhauer, Dr. med. Dieter Heimann, and Dr. med. Ulrich Hinkelmann (Eds.)",2006,2. A,Urban & Fischer bei Elsev,,873,0,German,,,,"978-3-437-45211-6,3-437-45211-8",,,,,,,,,,,0,,,,,,,1,16690673,pdf,440054c685d5419e60686722d55b076c,,,A:\\sciencedirect_books\\9783437452116 (27).pdf,0,2000-01-01 01:00:00,2016-04-03 02:51:08,1112000/440054c685d5419e60686722d55b076c-d.jpg,,
22401760,Leitfaden Manuelle Therapie,,,,Dieter Heimann and Jürgen Lawall (Eds.),2005,,Urban & Fischer bei Elsev,,506,0,German,,,,"978-3-437-45262-8,3-437-45262-2",,,,,,,,,,,0,,,,,,,1,13940930,pdf,781c0f7d7301ceda1395490dace31468,,,A:\\sciencedirect_books\\9783437452628 (23).pdf,0,2000-01-01 01:00:00,2016-04-03 02:51:08,1112000/781c0f7d7301ceda1395490dace31468-d.jpg,,
22401761,Rettungsdienst heute,,,,Kühn Luxem Runggaldier (Eds.),2007,,,,1035,0,German,,,,978-3-437-46192-7,,,,,,,,,,,0,,,,,,,1,137797333,pdf,755fe530e15fe4c8ba19e43774e44fb9,,,A:\\sciencedirect_books\\9783437461927 (65).pdf,0,2000-01-01 01:00:00,2016-04-03 02:51:08,1112000/755fe530e15fe4c8ba19e43774e44fb9-d.jpg,,
22401762,Manuelle Therapie bei Kindern. Indikationen und Konzepte,,,,Heiner Biedermann (Eds.),2006,,Urban & Fischer bei Elsev,,288,0,German,,,,978-3-437-47116-2,,,,,,,,,,,0,,,,,,,1,16441969,pdf,6ab302a1a2ca40fbda2a1a9624483835,,,A:\\sciencedirect_books\\9783437471162 (32).pdf,0,2000-01-01 01:00:00,2016-04-03 02:51:08,1112000/6ab302a1a2ca40fbda2a1a9624483835-d.jpg,,
22401763,Leitfaden Rettungsdienst,,,,,2009,5. Auflage,Urban & Fischer bei Elsev,,822,0,German,,,,978-3-437-47152-0,,,,,,,,,,,0,,,,,,,1,26140563,pdf,5581cd28d44f80a64bcc3147fd477f10,,,A:\\sciencedirect_books\\9783437471520 (39).pdf,0,2000-01-01 01:00:00,2016-04-03 02:51:08,1112000/5581cd28d44f80a64bcc3147fd477f10-d.jpg,,
22401764,Schluckstörungen. Diagnostik und Rehabilitation,,,,Gudrun Bartolome and Heidrun Schröter-Morasch (Eds.),2006,,Urban & Fischer bei Elsev,,466,0,German,,,,"978-3-437-47160-5,3-437-47160-0",,,,,,,,,,,0,,,,,,,1,28250553,pdf,e3a293f72670c7533cbf6adf996c4d0e,,,A:\\sciencedirect_books\\9783437471605 (22).pdf,0,2000-01-01 01:00:00,2016-04-03 02:51:08,1112000/e3a293f72670c7533cbf6adf996c4d0e-d.jpg,,
22401765,Leitfaden Sprache Sprechen Stimme Schlucken,,,,Julia Siegmüller and Henrik Bartels (Eds.),2006,,Urban & Fischer bei Elsev,,486,0,German,,,,"978-3-437-47780-5,3-437-47780-3",,,,,,,,,,,0,,,,,,,1,9155782,pdf,7ebbf4aa0c5d342afa0532946ba5d9c9,,,A:\\sciencedirect_books\\9783437477805 (25).pdf,0,2000-01-01 01:00:00,2016-04-03 02:51:08,1112000/7ebbf4aa0c5d342afa0532946ba5d9c9-d.jpg,,
22401766,Leitfaden Elektrotherapie,,,,"Frank-P. Bossert, Wolfgang Jenrich and Klaus Vogedes (Auth.)",2006,,,,351,0,German,,,,"978-3-437-48100-0,3-437-48100-2",,,,,,,,,,,0,,,,,,,1,28211973,pdf,3115cd2899c5a9f08b699a10673dc70e,,,A:\\sciencedirect_books\\9783437481000 (26).pdf,0,2000-01-01 01:00:00,2016-04-03 02:51:08,1112000/3115cd2899c5a9f08b699a10673dc70e-d.jpg,,
22401767,Leitfaden Gelenkmessung,,,,Roland Bruzek (Auth.),2006,,Urban & Fischer bei Elsev,,273,0,German,,,,"978-3-437-48220-5,3-437-48220-3",,,,,,,,,,,0,,,,,,,1,10290365,pdf,8254a9cb9447ca85310340d50882f4b3,,,A:\\sciencedirect_books\\9783437482205 (27).pdf,0,2000-01-01 01:00:00,2016-04-03 02:51:08,1112000/8254a9cb9447ca85310340d50882f4b3-d.jpg,,
22401768,Röntgentechnik und -verordnung,,,,"Christoph Benz, Eberhard Sonnabend and Maximilian Wilhelm (Eds.)",2006,,Urban & Fischer bei Elsev,,114,0,German,,,,"978-3-437-48280-9,3-437-48280-7",,,,,,,,,,,0,,,,,,,1,5173698,pdf,b9f45b7206a0e1712630c260f1193a2e,,,A:\\sciencedirect_books\\9783437482809 (20).pdf,0,2000-01-01 01:00:00,2016-04-03 02:51:08,1112000/b9f45b7206a0e1712630c260f1193a2e-d.jpg,,
22401769,Praxishandbuch Akupunktur,,,,Gertrude Kubiena (Eds.),2007,,Urban & Fischer bei Elsev,,423,0,German,,,,978-3-437-55118-5,,,,,,,,,,,0,,,,,,,1,22342876,pdf,05fc06ed915d54a32175cb3fd172be2e,,,A:\\sciencedirect_books\\9783437551185 (14).pdf,0,2000-01-01 01:00:00,2016-04-03 02:51:08,1112000/05fc06ed915d54a32175cb3fd172be2e-d.jpg,,
22401770,"Leitfaden Naturheilkunde. Methoden, Konzepte und praktische Anwendung",,,,Dr. med. Volker Schmiedel and Prof. Dr. Matthias Augustin (Eds.),2007,,,,1176,0,German,,,,978-3-437-55132-1,,,,,,,,,,,0,,,,,,,1,13353207,pdf,0a04391eea6b24a5aa7809d47d7cfd64,,,A:\\sciencedirect_books\\9783437551321 (17).pdf,0,2000-01-01 01:00:00,2016-04-03 02:51:08,1112000/0a04391eea6b24a5aa7809d47d7cfd64-d.jpg,,
22401771,"Leitfaden Naturheilkunde. Methoden, Konzepte und praktische Anwendung",,,,Volker Schmiedel and Matthias Augustin (Eds.),2012,6. Auflage,Urban & Fischer bei Elsev,,1256,0,German,,,,"978-3-437-55134-5,978-3-437-59579-0",,,,,,,,,,,0,,,,,,,1,13855704,pdf,be327c8e1576f86ea0ccc01a650984b5,,,A:\\sciencedirect_books\\9783437551345 (19).pdf,0,2000-01-01 01:00:00,2016-04-03 02:51:08,1112000/be327c8e1576f86ea0ccc01a650984b5-d.jpg,,
22401772,Schmerzbehandlung mit chinesischen Arzneien und Akupunktur,,,,Sun Peilin (Auth.),2005,,Urban & Fischer bei Elsev,,676,0,German,,,,"978-3-437-55236-6,3-437-55236-8",,,,,,,,,,,0,,,,,,,1,8085167,pdf,5b5f2c619478b3ac2761be680de49fb2,,,A:\\sciencedirect_books\\9783437552366 (68).pdf,0,2000-01-01 01:00:00,2016-04-03 02:51:08,1112000/5b5f2c619478b3ac2761be680de49fb2-d.jpg,,
22401773,Leitfaden Phytotherapie,,,,"Prof. Dr. Dr. h.c. Heinz Schilcher, Dr. Susanne Kammerer, and Dr. Tankred Wegener (Auth.)",2007,,Urban & Fischer bei Elsev,,1173,0,German,,,,978-3-437-55342-4,,,,,,,,,,,0,,,,,,,1,28343312,pdf,68b53a70eb01cba2b5f9905eacccaed0,,,A:\\sciencedirect_books\\9783437553424 (28).pdf,0,2000-01-01 01:00:00,2016-04-03 02:51:08,1112000/68b53a70eb01cba2b5f9905eacccaed0-d.jpg,,
22401774,Atlas Akupunktur,,,,Claudia Focks (Eds.),2005,2. A,Urban & Fischer bei Elsev,,724,0,German,,,,"978-3-437-55371-4,3-437-55371-2",,,,,,,,,,,0,,,,,,,1,139634040,pdf,22c95c54faaea525f32ddd4461fb0b2b,,,A:\\sciencedirect_books\\9783437553714 (20).pdf,0,2000-01-01 01:00:00,2016-04-03 02:51:08,1112000/22c95c54faaea525f32ddd4461fb0b2b-d.jpg,,
22401775,Reflexzonen und Somatotopien. Vom Mikrosystem zu einer Gesamtschau des Menschen,,,,Jochen M. Gleditsch (Eds.),2005,9. A,Urban & Fischer bei Elsev,,248,0,German,,,,"978-3-437-55381-3,3-437-55381-X",,,,,,,,,,,0,,,,,,,1,4489995,pdf,e64d9db00a5b5eac64ed7651e6c26cde,,,A:\\sciencedirect_books\\9783437553813 (16).pdf,0,2000-01-01 01:00:00,2016-04-03 02:51:08,1112000/e64d9db00a5b5eac64ed7651e6c26cde-d.jpg,,
22401776,Leitfaden Ohrakupunktur. Mit allen französischen und chinesischen Punkten,,,,Dr. med. Manfred Angermaier (Auth.),2007,,Urban & Fischer bei Elsev,,437,0,German,,,,978-3-437-55423-0,,,,,,,,,,,0,,,,,,,1,5511919,pdf,b97ad1e13a74f9589c97c9dd9e28693d,,,A:\\sciencedirect_books\\9783437554230 (29).pdf,0,2000-01-01 01:00:00,2016-04-03 02:51:08,1112000/b97ad1e13a74f9589c97c9dd9e28693d-d.jpg,,
22401777,Leitfaden Ohrakupunktur. Mit allen französischen und chinesischen Punkten,,,,Manfred Angermaier (Auth.),2011,5. Auflage,Urban & Fischer bei Elsev,,489,0,German,,,,978-3-437-55424-7,,,,,,,,,,,0,,,,,,,1,13546785,pdf,e6410372222c58f3da712a85ed039735,,,A:\\sciencedirect_books\\9783437554247 (24).pdf,0,2000-01-01 01:00:00,2016-04-03 02:51:08,1112000/e6410372222c58f3da712a85ed039735-d.jpg,,
22401778,Leitfaden Osteopathie. Parietale Techniken,,,,Torsten Liem and Tobias K. Dobler (Eds.),2005,,Urban & Fischer bei Elsev,,753,0,German,,,,"978-3-437-55781-1,3-437-55781-5",,,,,,,,,,,0,,,,,,,1,100042468,pdf,b876b25e616daca9aa7fbc3356f2941c,,,A:\\sciencedirect_books\\9783437557811 (33).pdf,0,2000-01-01 01:00:00,2016-04-03 02:51:08,1112000/b876b25e616daca9aa7fbc3356f2941c-d.jpg,,
22401779,Leitfaden Osteopathie. Parietale Techniken,,,,Torsten Liem and Tobias K. Dobler (Auth.),2010,3. Auflage,Urban & Fischer bei Elsev,,865,0,German,,,,978-3-437-55782-8,,,,,,,,,,,0,,,,,,,1,177288159,pdf,631c7ec113a089bf197db19d2ae87b0e,,,A:\\sciencedirect_books\\9783437557828 (39).pdf,0,2000-01-01 01:00:00,2016-04-03 02:51:08,1112000/631c7ec113a089bf197db19d2ae87b0e-d.jpg,,
22401780,Chinesische Medizin in der Orthopädie,,,,Jürgen Bachmann (Auth.),2008,,Urban & Fischer bei Elsev,,427,0,German,,,,978-3-437-55900-6,,,,,,,,,,,0,,,,,,,1,15121172,pdf,9a53c019190ff5b2f51990ef0a55fe67,,,A:\\sciencedirect_books\\9783437559006 (23).pdf,0,2000-01-01 01:00:00,2016-04-03 02:51:08,1112000/9a53c019190ff5b2f51990ef0a55fe67-d.jpg,,
22401781,Leitfaden Viszerale Osteopathie,,,,"Torsten Liem, Tobias K. Dobler and Michel Puylaert (Eds.)",2005,,Urban & Fischer bei Elsev,,662,0,German,,,,"978-3-437-56010-1,3-437-56010-7",,,,,,,,,,,0,,,,,,,1,39593741,pdf,1ec1f8d36e4a60ba2668268188c80f47,,,A:\\sciencedirect_books\\9783437560101 (26).pdf,0,2000-01-01 01:00:00,2016-04-03 02:51:08,1112000/1ec1f8d36e4a60ba2668268188c80f47-d.jpg,,
22401782,"Faszien. Anatomie, Strukturen, Techniken, Spezielle Osteopathie",,,,Serge Paoletti (Auth.),2011,2. Auflage,Urban & Fischer bei Elsev,,240,0,German,,,,978-3-437-56101-6,,,,,,,,,,,0,,,,,,,1,11804221,pdf,d6726cde4b20d19ab96f9c69e0863c75,,,A:\\sciencedirect_books\\9783437561016 (16).pdf,0,2000-01-01 01:00:00,2016-04-03 02:51:08,1112000/d6726cde4b20d19ab96f9c69e0863c75-d.jpg,,
22401783,Leitfaden Naturheilverfahren - Für die ärztliche Praxis,,,,André-Michael Beer and Martin Adler (Eds.),2011,,Urban & Fischer bei Elsev,,655,0,German,,,,"978-3-437-56103-0,978-3-437-59314-7",,,,,,,,,,,0,,,,,,,1,13166681,pdf,2e94b8b8a0799560e0bb6b05d686affc,,,A:\\sciencedirect_books\\9783437561030 (42).pdf,0,2000-01-01 01:00:00,2016-04-03 02:51:08,1112000/2e94b8b8a0799560e0bb6b05d686affc-d.jpg,,
22401784,Psychosomatik in der Chinesischen Medizin,,,,Klaus-Dieter Platsch (Eds.),2005,2. A,Urban & Fischer bei Elsev,,418,0,German,,,,"978-3-437-56111-5,3-437-56111-1",,,,,,,,,,,0,,,,,,,1,5809049,pdf,de1ab6b4cc2c24a6efe45e238e7a8cca,,,A:\\sciencedirect_books\\9783437561115 (24).pdf,0,2000-01-01 01:00:00,2016-04-03 02:51:08,1112000/de1ab6b4cc2c24a6efe45e238e7a8cca-d.jpg,,
22401785,Psychosomatik in der Chinesischen Medizin,,,,Klaus-Dieter Platsch (Auth.),2012,2. Auflage,Urban & Fischer bei Elsev,,406,0,German,,,,"978-3-437-56112-2,978-3-437-16730-0",,,,,,,,,,,0,,,,,,,1,4670079,pdf,0380043723a33a7dd7654356e017f591,,,A:\\sciencedirect_books\\9783437561122 (23).pdf,0,2000-01-01 01:00:00,2016-04-03 02:51:08,1112000/0380043723a33a7dd7654356e017f591-d.jpg,,
22401786,Leitfaden Akupunktur. Punktlokalisation und Stichtechnik,,,,"Dr. med. Claudia Focks, and Dr. med. Ulrich März (Eds.)",2005,,Urban & Fischer bei Elsev,,704,0,German,,,,"978-3-437-56140-5,3-437-56140-5",,,,,,,,,,,0,,,,,,,1,37181900,pdf,4723b05c348866c5a4d8946f9fd9b4e8,,,A:\\sciencedirect_books\\9783437561405 (17).pdf,0,2000-01-01 01:00:00,2016-04-03 02:51:08,1112000/4723b05c348866c5a4d8946f9fd9b4e8-d.jpg,,
22401787,Gynäkologie integrativ. Konventionelle und komplementäre Therapie,,,,Ingrid Gerhard and Marion Kiechle (Eds.),2005,,Urban & Fischer bei Elsev,,899,0,German,,,,"978-3-437-56260-0,3-437-56260-6",,,,,,,,,,,0,,,,,,,1,8955940,pdf,0066660befcdd76f053d019c83cdd7ea,,,A:\\sciencedirect_books\\9783437562600 (33).pdf,0,2000-01-01 01:00:00,2016-04-03 02:51:08,1112000/0066660befcdd76f053d019c83cdd7ea-d.jpg,,
22401788,Leitfaden Qigong. Gesundheitsfördernde und therapeutische Übungen der chinesischen Medizin,,,,"Ute Engelhardt, Gisela Hildenbrand and Christa Zumfelde-Hüneburg (Eds.)",2007,,,,584,0,German,,,,978-3-437-56340-9,,,,,,,,,,,0,,,,,,,1,9048309,pdf,82ce93a046f68693cb96b38aad10195e,,,A:\\sciencedirect_books\\9783437563409 (17).pdf,0,2000-01-01 01:00:00,2016-04-03 02:51:08,1112000/82ce93a046f68693cb96b38aad10195e-d.jpg,,
22401789,Leitfaden Homöopathie,,,,Dr. med. Jan Geißler and Dr. med. Thomas Quak (Eds.),2005,,,,1453,0,German,,,,978-3-437-56350-8,,,,,,,,,,,0,,,,,,,1,10372715,pdf,81539f163ff8feb8ccad55a97a8e31d0,,,A:\\sciencedirect_books\\9783437563508 (43).pdf,0,2000-01-01 01:00:00,2016-04-03 02:51:08,1112000/81539f163ff8feb8ccad55a97a8e31d0-d.jpg,,
22401790,Leitfaden Homöopathie,,,,Dr. med. Jan Geißler and Dr. med. Thomas Quak (Eds.),2009,,,,1349,0,German,,,,978-3-437-56351-5,,,,,,,,,,,0,,,,,,,1,18898716,pdf,8cc8686070508973c71b33f62aa736b4,,,A:\\sciencedirect_books\\9783437563515 (45).pdf,0,2000-01-01 01:00:00,2016-04-03 02:51:08,1112000/8cc8686070508973c71b33f62aa736b4-d.jpg,,
22401791,Leitfaden Tuina. Die manuellen Techniken in der TCM,,,,Gerlinde Wislsperger (Eds.),2005,,,,645,0,German,,,,978-3-437-56361-4,,,,,,,,,,,0,,,,,,,1,12227655,pdf,1de48d0bf456e47c0baba5ca61dec14d,,,A:\\sciencedirect_books\\9783437563614 (26).pdf,0,2000-01-01 01:00:00,2016-04-03 02:51:08,1112000/1de48d0bf456e47c0baba5ca61dec14d-d.jpg,,
22401792,Leitfaden Triggerpunkte,,,,Dominik Irnich (Auth.),2009,,Urban & Fischer bei Elsev,,786,0,German,,,,978-3-437-56380-5,,,,,,,,,,,0,,,,,,,1,39127612,pdf,35bf97bfe0d9ee1b73f1c6c1e96695dd,,,A:\\sciencedirect_books\\9783437563805 (25).pdf,0,2000-01-01 01:00:00,2016-04-03 02:51:08,1112000/35bf97bfe0d9ee1b73f1c6c1e96695dd-d.jpg,,
22401793,Handbuch der pädiatrischen Osteopathie,,,,Eva Möckel and Noori Mitha (Eds.),2005,,,,529,0,German,,,,"978-3-437-56400-0,3-437-56400-5",,,,,,,,,,,0,,,,,,,1,18642880,pdf,30a07bcce256283765f9b2b57488a089,,,A:\\sciencedirect_books\\9783437564000 (30).pdf,0,2000-01-01 01:00:00,2016-04-03 02:51:08,1112000/30a07bcce256283765f9b2b57488a089-d.jpg,,
22401794,Onkologie integrativ. Konventionelle und komplementäre Therapie,,,,"Ben Pfeifer, Joachim Preiß and Clemens Unger (Eds.)",2006,1. A,Urban & Fischer bei Elsev,,861,0,German,,,,"978-3-437-56420-8,3-437-56420-X",,,,,,,,,,,0,,,,,,,1,9318747,pdf,1d94fa4687b921bdd6c5ca70fc0f1d60,,,A:\\sciencedirect_books\\9783437564208 (50).pdf,0,2000-01-01 01:00:00,2016-04-03 02:51:08,1112000/1d94fa4687b921bdd6c5ca70fc0f1d60-d.jpg,,
22401795,Leitfaden Chinesische Medizin,,,,Claudia Focks (Eds.),2010,6. Auflage,Urban & Fischer bei Elsev,,1876,0,German,,,,978-3-437-56483-3,,,,,,,,,,,0,,,,,,,1,49589167,pdf,c501cc2a3ed9121ae3157275d8b0d9af,,,A:\\sciencedirect_books\\9783437564833 (33).pdf,0,2000-01-01 01:00:00,2016-04-03 02:51:08,1112000/c501cc2a3ed9121ae3157275d8b0d9af-d.jpg,,
22401796,Chinesische Diätetik,,,,U. Engelhardt and C.-H. Hempen (Auth.),2006,3. A,Urban & Fischer bei Elsev,,769,0,German,,,,"978-3-437-56491-8,3-437-56491-9",,,,,,,,,,,0,,,,,,,1,23419202,pdf,f7d92df836dced3be175a118975f4151,,,A:\\sciencedirect_books\\9783437564918 (28).pdf,0,2000-01-01 01:00:00,2016-04-03 02:51:08,1112000/f7d92df836dced3be175a118975f4151-d.jpg,,
22401797,Geburtshilfe integrativ. Konventionelle und komplementäre Therapie,,,,Ingrid Gerhard and Axel Feige (Eds.),2005,,Urban & Fischer bei Elsev,,736,0,German,,,,"978-3-437-56510-6,3-437-56510-9",,,,,,,,,,,0,,,,,,,1,10374930,pdf,1cf8345de79ef40fb9f8026ecef71a2f,,,A:\\sciencedirect_books\\9783437565106 (33).pdf,0,2000-01-01 01:00:00,2016-04-03 02:51:08,1112000/1cf8345de79ef40fb9f8026ecef71a2f-d.jpg,,
22401798,Leitfaden Ernährungsmedizin,,,,"Heide Koula-Jenik, Matthias Kraft, Dr., Michael Miko, Dr., Ralf-Joachim Schulz, Dr. (Eds.)",2005,,Urban & Fischer bei Elsev,,891,0,German,,,,"978-3-437-56530-4,3-437-56530-3",,,,,,,,,,,0,,,,,,,1,20858157,pdf,d4d8f48a779ad5b8cc401c3abba6f608,,,A:\\sciencedirect_books\\9783437565304 (17).pdf,0,2000-01-01 01:00:00,2016-04-03 02:51:08,1112000/d4d8f48a779ad5b8cc401c3abba6f608-d.jpg,,
22401799,Organon der Heilkunst,,,,Samuel Hahnemann and Josef M. Schmidt (Auth.),2006,2. A,Urban & Fischer bei Elsev,,470,0,German,,,,"978-3-437-56621-9,3-437-56621-0",,,,,,,,,,,0,,,,,,,1,2067854,pdf,20f36cd76fe8548d970d5dffbddbdff0,,,A:\\sciencedirect_books\\9783437566219 (16).pdf,0,2000-01-01 01:00:00,2016-04-03 02:51:08,1112000/20f36cd76fe8548d970d5dffbddbdff0-d.jpg,,
22401800,Das Große Buch der klassischen Akupunktur,,,,"F. Bahr, K. Bushe-Centmayer, L. Dorfer, F. Jost, G. Litscher, S. Suwanda and H. Zeitler (Eds.)",2006,,Urban & Fischer bei Elsev,,467,0,German,,,,"978-3-437-56780-3,3-437-56780-2",,,,,,,,,,,0,,,,,,,1,64389761,pdf,495aa1774fa1c3edb87691d97e237ef3,,,A:\\sciencedirect_books\\9783437567803 (15).pdf,0,2000-01-01 01:00:00,2016-04-03 02:51:08,1112000/495aa1774fa1c3edb87691d97e237ef3-d.jpg,,
22401801,Rehabilitation bei psychischen Störungen,,,,"Ralf-Michael Frieboes, Michael Zaudig, and Manfred Nosper (Eds.)",2006,,Urban & Fischer bei Elsev,,390,0,German,,,,"978-3-437-56790-2,3-437-56790-X",,,,,,,,,,,0,,,,,,,1,2443447,pdf,ead0e3ecd08297a4e73a455d4caac0cf,,,A:\\sciencedirect_books\\9783437567902 (13).pdf,0,2000-01-01 01:00:00,2016-04-03 02:51:08,1112000/ead0e3ecd08297a4e73a455d4caac0cf-d.jpg,,
22401802,"Die Klassischen Akupunkturpunkte. Bedeutung, Indikation, Wirkung",,,,Andrea-Mercedes Riegel (Auth.),2012,,Urban & Fischer bei Elsev,,408,0,German,,,,"978-3-437-56814-5,978-3-437-59595-0",,,,,,,,,,,0,,,,,,,1,3703521,pdf,8d0343b46cd7bab18cc99a990c7f83c7,,,A:\\sciencedirect_books\\9783437568145 (12).pdf,0,2000-01-01 01:00:00,2016-04-03 02:51:08,1112000/8d0343b46cd7bab18cc99a990c7f83c7-d.jpg,,
22401803,Hausmittel in der modernen Medizin,,,,"Sandra Bachmann, Alfred Längler and Tees, Wickel, Bäder & Co (Auth.)",2005,,Urban & Fischer bei Elsev,,126,0,German,,,,"978-3-437-56940-1,3-437-56940-6",,,,,,,,,,,0,,,,,,,1,3045101,pdf,a3082b6a055d1622ad3cd2a59480f1a0,,,A:\\sciencedirect_books\\9783437569401 (17).pdf,0,2000-01-01 01:00:00,2016-04-03 02:51:08,1112000/a3082b6a055d1622ad3cd2a59480f1a0-d.jpg,,
22401804,Systemische Störungen - Problemfälle lösen mit Applied Kinesiology,,,,Dr. med. Hans Garten and Gerald Weiss (Auth.),2007,,Urban & Fischer bei Elsev,,686,0,German,,,,978-3-437-57030-8,,,,,,,,,,,0,,,,,,,1,35959446,pdf,1995c288c82ea08f6c8219f099d8e0fb,,,A:\\sciencedirect_books\\9783437570308 (24).pdf,0,2000-01-01 01:00:00,2016-04-03 02:51:08,1112000/1995c288c82ea08f6c8219f099d8e0fb-d.jpg,,
22401805,Adipositas behandeln mit chinesischer Medizin,,,,Angela Drees (Eds.),2005,,ElsevierGmbh,,388,0,German,,,,"978-3-437-57050-6,3-437-57050-1",,,,,,,,,,,0,,,,,,,1,2779289,pdf,247bacc12d6d09d330dc000682caad45,,,A:\\sciencedirect_books\\9783437570506 (17).pdf,0,2000-01-01 01:00:00,2016-04-03 02:51:08,1112000/247bacc12d6d09d330dc000682caad45-d.jpg,,
22401806,Ernährungstherapie mit chinesischen Kräutern. Die chinesische Diätetik kombiniert mit Phytotherapie,,,,Wu Yanping (Auth.),2005,1. A,Urban & Fischer bei Elsev,,405,0,German,,,,"978-3-437-57160-2,3-437-57160-5",,,,,,,,,,,0,,,,,,,1,7267148,pdf,d48557501bf846c64d4121b9ca222bed,,,A:\\sciencedirect_books\\9783437571602 (15).pdf,0,2000-01-01 01:00:00,2016-04-03 02:51:08,1112000/d48557501bf846c64d4121b9ca222bed-d.jpg,,
22401807,Manuelle Medizin,,,,Karel Lewit (Eds.),2006,,,,454,0,German,,,,"978-3-437-57190-9,3-437-57190-7",,,,,,,,,,,0,,,,,,,1,15758161,pdf,9d734084a259363ffddaa4a0741d879a,,,A:\\sciencedirect_books\\9783437571909 (18).pdf,0,2000-01-01 01:00:00,2016-04-03 02:51:08,1112000/9d734084a259363ffddaa4a0741d879a-d.jpg,,
22401808,Chronische Erkrankungen integrativ. Konventionelle und komplementäre Therapie,,,,"Gustav Dobos, Ulrich Deuse and Andreas Michalsen (Eds.)",2006,,,,559,0,German,,,,"978-3-437-57200-5,3-437-57200-8",,,,,,,,,,,0,,,,,,,1,7672919,pdf,5b57ff46ee45b2fc3750111c146554e1,,,A:\\sciencedirect_books\\9783437572005 (33).pdf,0,2000-01-01 01:00:00,2016-04-03 02:51:08,1112000/5b57ff46ee45b2fc3750111c146554e1-d.jpg,,
22401809,Traditionelle Chinesische Innere Medizin (TCIM),,,,Malte Kießler (Eds.),2005,,,,380,0,German,,,,"978-3-437-57220-3,3-437-57220-2",,,,,,,,,,,0,,,,,,,1,2498814,pdf,b8cdff52db2117a441b59109bc1e5e89,,,A:\\sciencedirect_books\\9783437572203 (24).pdf,0,2000-01-01 01:00:00,2016-04-03 02:51:08,1112000/b8cdff52db2117a441b59109bc1e5e89-d.jpg,,
22401810,Homöopathie in der Intensiv- und Notfallmedizin,,,,Michael Frass and Martin Bündner (Eds.),2007,,Urban & Fischer bei Elsev,,667,0,German,,,,978-3-437-57260-9,,,,,,,,,,,0,,,,,,,1,5817764,pdf,f531f02eb9f0bd88135d3eff049a8bfa,,,A:\\sciencedirect_books\\9783437572609 (39).pdf,0,2000-01-01 01:00:00,2016-04-03 02:51:08,1112000/f531f02eb9f0bd88135d3eff049a8bfa-d.jpg,,
22401811,Heilpflanzenpraxis Heute. Porträts • Rezepturen • Anwendung,,,,Siegfried Bäumler (Eds.),2006,,Urban & Fischer bei Elsev,,988,0,German,,,,"978-3-437-57270-8,3-437-57270-9",,,,,,,,,,,0,,,,,,,1,95128025,pdf,d215f0c062ec7d49515b86dd6a5762f8,,,A:\\sciencedirect_books\\9783437572708 (25).pdf,0,2000-01-01 01:00:00,2016-04-03 02:51:08,1112000/d215f0c062ec7d49515b86dd6a5762f8-d.jpg,,
22401812,Akupunktur bei Muskel- und Skelettstörungen. Deutsche Übersetzung von Gabriele Schmid,,,,Lü Shaojie (Auth.),2005,,Urban & Fischer bei Elsev,,224,0,German,,,,"978-3-437-57320-0,3-437-57320-9",,,,,,,,,,,0,,,,,,,1,8180047,pdf,b2e6f67b5fe85818c70c54d457d7232f,,,A:\\sciencedirect_books\\9783437573200 (71).pdf,0,2000-01-01 01:00:00,2016-04-03 02:51:08,1112000/b2e6f67b5fe85818c70c54d457d7232f-d.jpg,,
22401813,Akupunktur bei Kindern,,,,May Loo (Auth.),2006,,Urban & Fischer bei Elsev,,418,0,German,,,,"978-3-437-57360-6,3-437-57360-8",,,,,,,,,,,0,,,,,,,1,4328187,pdf,5174e8c9f3a763233aa557d119f1d09d,,,A:\\sciencedirect_books\\9783437573606 (16).pdf,0,2000-01-01 01:00:00,2016-04-03 02:51:08,1112000/5174e8c9f3a763233aa557d119f1d09d-d.jpg,,
22401814,Westliche und traditionell chinesische Heilkräuter. Die 50 wichtigsten Rezepturen,,,,Florian Ploberger (Auth.),2005,,Urban & Fischer bei Elsevier,,403,0,German,,,,"978-3-437-57520-4,3-437-57520-1",,,,,,,,,,,0,,,,,,,1,1934043,pdf,52a3015db591684ea8541c641481d1bd,,,A:\\sciencedirect_books\\9783437575204 (19).pdf,0,2000-01-01 01:00:00,2016-04-03 02:51:08,1112000/52a3015db591684ea8541c641481d1bd-d.jpg,,
22401815,Stresskrankheiten. Vorbeugen und behandeln mit chinesischer Medizin,,,,Andreas A. Noll and Barbara Kirschbaum (Eds.),2006,,Urban & Fischer bei Elsev,,549,0,German,,,,"978-3-437-57560-0,3-437-57560-0",,,,,,,,,,,0,,,,,,,1,16189251,pdf,e2efd7a1fd76ee713ca5d24601df1025,,,A:\\sciencedirect_books\\9783437575600 (57).pdf,0,2000-01-01 01:00:00,2016-04-03 02:51:08,1112000/e2efd7a1fd76ee713ca5d24601df1025-d.jpg,,
22401816,Wirkprinzipien der Naturheilkunde. Modelle – Konzepte – Fallbeispiele,,,,Kay Uwe Kämmerer (Auth.),2008,,Urban & Fischer bei Elsev,,238,0,German,,,,978-3-437-57590-7,,,,,,,,,,,0,,,,,,,1,4872888,pdf,360e1ebca6dc3b4ced6ea9c73fe12409,,,A:\\sciencedirect_books\\9783437575907 (13).pdf,0,2000-01-01 01:00:00,2016-04-03 02:51:08,1112000/360e1ebca6dc3b4ced6ea9c73fe12409-d.jpg,,
22401817,Depressionen. Möglichkeiten und Grenzen naturheilkundlicher Therapieverfahren,,,,Anja Welsch (Eds.),2007,,Elsevier GmbH,,250,0,German,,,,978-3-437-57710-9,,,,,,,,,,,0,,,,,,,1,1581941,pdf,937eacc8b6527feb41b611c1476ea9cb,,,A:\\sciencedirect_books\\9783437577109 (15).pdf,0,2000-01-01 01:00:00,2016-04-03 02:51:08,1112000/937eacc8b6527feb41b611c1476ea9cb-d.jpg,,
22401818,Sauerstoff-Ozon-Therapien. Methoden und praktische Anwendungen,,,,"Ronald Dehmlow, Hrsg. (Eds.)",2007,,Urban & Fischer bei Elsev,,161,0,German,,,,978-3-437-57780-2,,,,,,,,,,,0,,,,,,,1,2792156,pdf,501def9e7687b89d173ad45af32dbfd5,,,A:\\sciencedirect_books\\9783437577802 (18).pdf,0,2000-01-01 01:00:00,2016-04-03 02:51:08,1112000/501def9e7687b89d173ad45af32dbfd5-d.jpg,,
22401819,Lernkarten Körperakupunktur. Spielend durch die Akupunktur,,,,Claudia Focks (Eds.),2006,,Urban & Fischer bei Elsev,,734,0,German,,,,"978-3-437-57850-2,3-437-57850-2",,,,,,,,,,,0,,,,,,,1,85159889,pdf,b44cfeffa420a48f5ef40743371348b3,,,A:\\sciencedirect_books\\9783437578502 (363).pdf,0,2000-01-01 01:00:00,2016-04-03 02:51:08,1112000/b44cfeffa420a48f5ef40743371348b3-d.jpg,,
22401820,Gynäkologie in der chinesischen Medizin. Deutsche Übersetzung von Agnes Fatrai,,,,Robin Marchment (Auth.),2008,,Urban & Fischer bei Elsev,,329,0,German,,,,978-3-437-57880-9,,,,,,,,,,,0,,,,,,,1,4436899,pdf,d8baffc4da3143222b409bbd7ca9e02d,,,A:\\sciencedirect_books\\9783437578809 (22).pdf,0,2000-01-01 01:00:00,2016-04-03 02:51:08,1112000/d8baffc4da3143222b409bbd7ca9e02d-d.jpg,,
22401821,"Die Praxis der manuellen Therapie. Physiologie, Neurologie und Psychologie",,,,Eyal Lederman (Auth.),2007,,Urban & Fischer bei Elsev,,352,0,German,,,,978-3-437-57940-0,,,,,,,,,,,0,,,,,,,1,7199923,pdf,f7d2a204efc7dd799e50fc6b4c6d7647,,,A:\\sciencedirect_books\\9783437579400 (39).pdf,0,2000-01-01 01:00:00,2016-04-03 02:51:08,1112000/f7d2a204efc7dd799e50fc6b4c6d7647-d.jpg,,
22401822,Differenzierung Homöopathischer Kindermittel. Bewährte Arzneimittel und ihre engsten Verwandten,,,,Martin Hirte (Auth.),2008,,Urban & Fischer Bei Elsev,,506,0,German,,,,978-3-437-57950-9,,,,,,,,,,,0,,,,,,,1,2124626,pdf,537abe4a823eb3c815dd9636e702a926,,,A:\\sciencedirect_books\\9783437579509 (21).pdf,0,2000-01-01 01:00:00,2016-04-03 02:51:08,1112000/537abe4a823eb3c815dd9636e702a926-d.jpg,,
22401823,Handbuch Neuraltherapie,,,,Stefan Weinschenk (Auth.),2010,,,,1145,0,German,,,,978-3-437-58210-3,,,,,,,,,,,0,,,,,,,1,25640063,pdf,2744a5a8aa3d520c33fd8d7fd1239637,,,A:\\sciencedirect_books\\9783437582103 (24).pdf,0,2000-01-01 01:00:00,2016-04-03 02:51:08,1112000/2744a5a8aa3d520c33fd8d7fd1239637-d.jpg,,
22401824,Praxis der Chirologie. Persönlichkeits- und Krankheitsdiagnostik aus der Hand,,,,Irmgard Wenzel (Auth.),2007,,Urban & Fischer bei Elsev,,323,0,German,,,,978-3-437-58240-0,,,,,,,,,,,0,,,,,,,1,16184388,pdf,08af6c11b9a2dfaae6c5936ca175dc0c,,,A:\\sciencedirect_books\\9783437582400 (22).pdf,0,2000-01-01 01:00:00,2016-04-03 02:51:08,1112000/08af6c11b9a2dfaae6c5936ca175dc0c-d.jpg,,
22401825,Leitbahnen der Akupunktur,,,,Giovanni Maciocia (Auth.),2009,,Urban & Fischer bei Elsev,,703,0,German,,,,"978-3-437-58290-5,0-443-07491-7,978-0-443-07491-2",,,,,,,,,,,0,,,,,,,1,103398990,pdf,3b50e1ce5fba880c1dda5d19fa29c9f6,,,A:\\sciencedirect_books\\9783437582905 (62).pdf,0,2000-01-01 01:00:00,2016-04-03 02:51:08,1112000/3b50e1ce5fba880c1dda5d19fa29c9f6-d.jpg,,
22401826,Netter. Anatomía Clínica. Anatomía Clínica,,,,John T. Hansen and David R. Lambert (Auth.),2006,1 ª ed,Editorial Elsevier,,672,0,Spanish,,,,"978-84-458-1580-9,84-458-1580-6",,,,,,,,,,,0,,,,,,,1,70123677,pdf,e907dcea8ab4bd85d21f82d22d627531,,,A:\\sciencedirect_books\\9788445815809 (16).pdf,0,2000-01-01 01:00:00,2016-04-03 02:51:08,1112000/e907dcea8ab4bd85d21f82d22d627531-d.jpg,,
22401827,Fundamentos de las enfermedades del tórax,,,,"Richard S. Fraser, MD, CM, Neil Colman, MD, Nestor L. Müller, MD, PhD, and P.D. Paré, MD, CM (Auth.)",2006,,Masson,,983,0,Spanish,,,,"978-84-458-1603-5,84-458-1603-9",,,,,,,,,,,0,,,,,,,1,369534100,pdf,93b1fab196ff44d54d438c59d018cf9b,,,A:\\sciencedirect_books\\9788445816035 (29).pdf,0,2000-01-01 01:00:00,2016-04-03 02:51:08,1112000/93b1fab196ff44d54d438c59d018cf9b-d.jpg,,
22401828,Cirugía de las Vías Biliares,,,,Jean-François Gigot (Eds.),2007,1 ª ed,Editorial Elsevier,,150,0,Spanish,,,,"978-84-458-1643-1,84-458-1643-8",,,,,,,,,,,0,,,,,,,1,81138688,pdf,7972c20e0c3f6672bdf11383fded4245,,,A:\\sciencedirect_books\\9788445816431 (14).pdf,0,2000-01-01 01:00:00,2016-04-03 02:51:08,1112000/7972c20e0c3f6672bdf11383fded4245-d.jpg,,
22401829,Atlas de Anestesia Regional,,,,"David L. Brown, M.D. (Auth.)",2006,,Masson,,368,0,Spanish,,,,"978-84-458-1644-8,84-458-1644-6",,,,,,,,,,,0,,,,,,,1,46793009,pdf,ac7abacb5d40762f2be0c0e72a1f77a6,,,A:\\sciencedirect_books\\9788445816448 (58).pdf,0,2000-01-01 01:00:00,2016-04-03 02:51:08,1112000/ac7abacb5d40762f2be0c0e72a1f77a6-d.jpg,,
22401830,Gestión Diaria del Hospital,,,,Miguel Ángel Asenjo Sebastián (Eds.),2006,,Masson,,637,0,Spanish,,,,978-84-458-1666-0,,,,,,,,,,,0,,,,,,,1,6713393,pdf,5466cef97da13b68630258e34037a745,,,A:\\sciencedirect_books\\9788445816660 (42).pdf,0,2000-01-01 01:00:00,2016-04-03 02:51:08,1112000/5466cef97da13b68630258e34037a745-d.jpg,,
22401831,Cirugía del hombro y del codo. Técnicas Quirúrgicas,,,,Michel Mansat (Eds.),2007,1 ª ed,Editorial Elsevier,,201,0,Spanish,,,,978-84-458-1717-9,,,,,,,,,,,0,,,,,,,1,31212024,pdf,f7468ad988f64f2a53f41a6cfa7be18d,,,A:\\sciencedirect_books\\9788445817179 (23).pdf,0,2000-01-01 01:00:00,2016-04-03 02:51:08,1112000/f7468ad988f64f2a53f41a6cfa7be18d-d.jpg,,
22401832,Cirugía de la próstata. Técnicas Quirúrgicas,,,,Claude Abbou (Eds.),2007,,Studia Humanitatis Inc,,110,0,Spanish,,,,978-84-458-1764-3,,,,,,,,,,,0,,,,,,,1,22027996,pdf,682dd0b13510526e1709f501f99e23b8,,,A:\\sciencedirect_books\\9788445817643 (20).pdf,0,2000-01-01 01:00:00,2016-04-03 02:51:08,1112000/682dd0b13510526e1709f501f99e23b8-d.jpg,,
22401833,Cirugía otológica y otoneurológica.Técnicas Quirúrgicas,,,,"Philippe Bordure, Alain Robier and Olivier Malard (Auth.)",2007,1 ª ed,Editorial Elsevier,,233,0,Spanish,,,,978-84-458-1770-4,,,,,,,,,,,0,,,,,,,1,33274463,pdf,b91b20aaf2287c3b5dd3fb4130a14f41,,,A:\\sciencedirect_books\\9788445817704 (28).pdf,0,2000-01-01 01:00:00,2016-04-03 02:51:08,1112000/b91b20aaf2287c3b5dd3fb4130a14f41-d.jpg,,
22401834,Cirugía del tracto digestivo inferior,,,,Patrice Valleur (Eds.),2007,1 ª ed,Editorial Elsevier,,153,0,Spanish,,,,978-84-458-1772-8,,,,,,,,,,,0,,,,,,,1,25692541,pdf,05261a58363ccc319b9733d1d12fc42a,,,A:\\sciencedirect_books\\9788445817728 (25).pdf,0,2000-01-01 01:00:00,2016-04-03 02:51:08,1112000/05261a58363ccc319b9733d1d12fc42a-d.jpg,,
22401835,Cirugía Hepática y de la Hipertensión Portal,,,,"Denis Castaing, Daniel Azoulay and René Adam (Auth.)",2007,1 ª ed,Editorial Elsevier,,216,0,Spanish,,,,978-84-458-1773-5,,,,,,,,,,,0,,,,,,,1,32624313,pdf,45c2df7f9ec4807f135d3504855ea1f0,,,A:\\sciencedirect_books\\9788445817735 (27).pdf,0,2000-01-01 01:00:00,2016-04-03 02:51:08,1112000/45c2df7f9ec4807f135d3504855ea1f0-d.jpg,,
22401836,Neuroimagen. Técnicas y procesos cognitivos. Técnicas y Procesos Cognitivos,,,,"Fernando Maestú Unturbe, Marcos Ríos Lago and Raúl Cabestrero Alonso (Eds.)",2008,1 ª ed,Editorial Elsevier,,539,0,Spanish,,,,978-84-458-1776-6,,,,,,,,,,,0,,,,,,,1,16137353,pdf,1f241aea359d72d7c7a669f1907a3b0f,,,A:\\sciencedirect_books\\9788445817766 (29).pdf,0,2000-01-01 01:00:00,2016-04-03 02:51:08,1112000/1f241aea359d72d7c7a669f1907a3b0f-d.jpg,,
22401837,Uroginecología y cirugía reconstructiva de la pelvis,,,,"Mark D. Walters, MD, and Mickey M. Karram, MD (Eds.)",2008,3a ED,,,596,0,Spanish,,,,978-84-458-1814-5,,,,,,,,,,,0,,,,,,,1,61584039,pdf,8c7edbb908d88cc23f6c433d38e70c6a,,,A:\\sciencedirect_books\\9788445818145 (52).pdf,0,2000-01-01 01:00:00,2016-04-03 02:51:08,1112000/8c7edbb908d88cc23f6c433d38e70c6a-d.jpg,,
22401838,Ecografía en diagnóstico prenatal,,,,"José M. Carrera, MD, and Asim Kurjak, MD (Eds.)",2008,1a ED,,,478,0,Spanish,,,,978-84-458-1845-9,,,,,,,,,,,0,,,,,,,1,40418718,pdf,9669da897fc12f3704fbf14cca6d59cf,,,A:\\sciencedirect_books\\9788445818459 (36).pdf,0,2000-01-01 01:00:00,2016-04-03 02:51:08,1112000/9669da897fc12f3704fbf14cca6d59cf-d.jpg,,
22401839,Atlas de cirugía urológica laparoscópica,,,,"Jay T. Bishoff, MD, and Louis R. Kavoussi, MD (Eds.)",2008,1 ª ed,Editorial Elsevier,,353,0,Spanish,,,,978-84-458-1869-5,,,,,,,,,,,0,,,,,,,1,30025162,pdf,17763f4740b9549593970f184dcbf289,,,A:\\sciencedirect_books\\9788445818695 (35).pdf,0,2000-01-01 01:00:00,2016-04-03 02:51:08,1112000/17763f4740b9549593970f184dcbf289-d.jpg,,
22401840,Medicina integrativa,,,,"David Rakel, MD (Eds.)",2009,,,,1174,0,Spanish,,,,978-84-458-1911-1,,,,,,,,,,,0,,,,,,,1,125989266,pdf,1a3cb0414d939d3c3d24e1b50265f3e8,,,A:\\sciencedirect_books\\9788445819111 (123).pdf,0,2000-01-01 01:00:00,2016-04-03 02:51:08,1112000/1a3cb0414d939d3c3d24e1b50265f3e8-d.jpg,,
22401841,Neurología clínica para psiquiatras,,,,"David Myland Kaufman, MD (Auth.)",2008,6 ª ed,Editorial Elsevier,,657,0,Spanish,,,,978-84-458-1917-3,,,,,,,,,,,0,,,,,,,1,16525363,pdf,20beddb9b5479f8212ec3c214ac5f671,,,A:\\sciencedirect_books\\9788445819173 (53).pdf,0,2000-01-01 01:00:00,2016-04-03 02:51:08,1112000/20beddb9b5479f8212ec3c214ac5f671-d.jpg,,
22401842,Atlas de Cirugía Mínimamente Invasiva,,,,"Constantine T. Frantzides, MD, PhD, FACS, and Mark A. Carlson, MD, FACS (Eds.)",2009,1 ª ed,Editorial Elsevier,,238,0,Spanish,,,,978-84-458-1956-2,,,,,,,,,,,0,,,,,,,1,33979884,pdf,fd31ef53292d23ab3f057f9d39ea2f89,,,A:\\sciencedirect_books\\9788445819562 (68).pdf,0,2000-01-01 01:00:00,2016-04-03 02:51:08,1112000/fd31ef53292d23ab3f057f9d39ea2f89-d.jpg,,
22401843,Tratado de otorrinolaringología y patología cervicofacial,,,,Jorge Basterra Alegría (Eds.),2009,"1ª ed., 1ª imp","Masson, S.A",,788,0,Spanish,,,,978-84-458-1963-0,,,,,,,,,,,0,,,,,,,1,40620090,pdf,6fd81dfc04d475946a215f1a05e89f36,,,A:\\sciencedirect_books\\9788445819630 (70).pdf,0,2000-01-01 01:00:00,2016-04-03 02:51:08,1112000/6fd81dfc04d475946a215f1a05e89f36-d.jpg,,
22401844,Comorbilidades del TDAH,,,,Thomas E. Brown (Auth.),2010,Second Edition,,,451,0,Spanish,,,,978-84-458-2021-6,,,,,,,,,,,0,,,,,,,1,7937523,pdf,9da1491b5399adedfee18cb8e0c2880a,,,A:\\sciencedirect_books\\9788445820216 (31).pdf,0,2000-01-01 01:00:00,2016-04-03 02:51:08,1112000/9da1491b5399adedfee18cb8e0c2880a-d.jpg,,
22401845,Toxina Botulínica. Aplicaciones terapóuticas en el siglo XXI,,,,J. López del Val and A. Castro García (Auth.),2010,,HP Publishing,,428,0,Spanish,,,,978-84-458-2022-3,,,,,,,,,,,0,,,,,,,1,4741358,pdf,9ada4a994d165c1edfdbcae63d102e1d,,,A:\\sciencedirect_books\\9788445820223 (26).pdf,0,2000-01-01 01:00:00,2016-04-03 02:51:08,1112000/9ada4a994d165c1edfdbcae63d102e1d-d.jpg,,
22401846,Medicina Personalizada Posgenómica. Conceptos Prácticos Para Clínicos,,,,J. Sabater Tobella (Auth.),2011,,,,370,0,Spanish,,,,978-84-458-2025-4,,,,,,,,,,,0,,,,,,,1,7282655,pdf,3f4131ab3ca15f50d4f59444cd4adb0d,,,A:\\sciencedirect_books\\9788445820254 (19).pdf,0,2000-01-01 01:00:00,2016-04-03 02:51:08,1112000/3f4131ab3ca15f50d4f59444cd4adb0d-d.gif,,
22401847,Técnicas y Métodos de Laboratorio Clínico,,,,J.M. González de Buitrago (Auth.),2010,,Agapea,,527,0,Spanish,,,,978-84-458-2029-2,,,,,,,,,,,0,,,,,,,1,5358791,pdf,478cd90976d783209b7f75310c78ae39,,,A:\\sciencedirect_books\\9788445820292 (45).pdf,0,2000-01-01 01:00:00,2016-04-03 02:51:08,1112000/478cd90976d783209b7f75310c78ae39-d.jpg,,
22401848,Manifestaciones Somáticas de los Trastornos Mentales,,,,"Joel E. Dimsdale, Yu Xin, Arthur Kleinman, Vikram Patel, William E. Narrow, Sirovatka and Regier (Eds.)",2010,,Agapea,,188,0,Spanish,,,,978-84-458-2037-7,,,,,,,,,,,0,,,,,,,1,2189695,pdf,d6d7bfd0ff3b0c3916c6cb51d7b04ce6,,,A:\\sciencedirect_books\\9788445820377 (20).pdf,0,2000-01-01 01:00:00,2016-04-03 02:51:08,1112000/d6d7bfd0ff3b0c3916c6cb51d7b04ce6-d.jpg,,
22401849,Pares Craneales. Médula Espinal. Sistema Nervioso Periférico,,,,César Borobia Fernández (Auth.),2012,,"Elsevier España, S.A",,621,0,Spanish,,,,978-84-458-2038-4,,,,,,,,,,,0,,,,,,,1,12859879,pdf,484747a24db9cb496edbdb876ee1b38f,,,A:\\sciencedirect_books\\9788445820384 (56).pdf,0,2000-01-01 01:00:00,2016-04-03 02:51:08,1112000/484747a24db9cb496edbdb876ee1b38f-d.jpg,,
22401850,Manual Práctico de Psiquiatría Forense,,,,Manuel J. Checa González (Auth.),2011,"1ª ed., 1ª imp",El Sevier España S.L,,490,0,Spanish,,,,978-84-458-2042-1,,,,,,,,,,,0,,,,,,,1,4150584,pdf,1e38b03d329ded7be659de7dd27e69a0,,,A:\\sciencedirect_books\\9788445820421 (57).pdf,0,2000-01-01 01:00:00,2016-04-03 02:51:08,1112000/1e38b03d329ded7be659de7dd27e69a0-d.jpg,,
22401851,Migraña y Otras Cefaleas,,,,V. Mateos Marcos (Auth.),2011,1ª ed,"Elsevier España, S.L",,476,0,Spanish,,,,978-84-458-2063-6,,,,,,,,,,,0,,,,,,,1,14847261,pdf,4c7e0366e38aefc7d255517d107e467d,,,A:\\sciencedirect_books\\9788445820636 (28).pdf,0,2000-01-01 01:00:00,2016-04-03 02:51:08,1112000/4c7e0366e38aefc7d255517d107e467d-d.jpg,,
22401852,Rehabilitación Neuropsicológica. Intervención y práctica clínica,,,,Olga Bruna Rabassa (Auth.),2011,,Elsevier España S.A,,579,0,Spanish,,,,978-84-458-2066-7,,,,,,,,,,,0,,,,,,,1,15732257,pdf,4a35d59f53744bcb1f6ffc5941a2c119,,,A:\\sciencedirect_books\\9788445820667 (38).pdf,0,2000-01-01 01:00:00,2016-04-03 02:51:08,1112000/4a35d59f53744bcb1f6ffc5941a2c119-d.jpg,,
22401853,La Organización de la Atención Multidisciplinar en Cáncer,,,,J. Prades and J.M. Borrás (Auth.),2011,,,,182,0,Spanish,,,,978-84-458-2103-9,,,,,,,,,,,0,,,,,,,1,3871342,pdf,4e2e0880132a350bbf5fc6b03b3c9534,,,A:\\sciencedirect_books\\9788445821039 (17).pdf,0,2000-01-01 01:00:00,2016-04-03 02:51:08,1112000/4e2e0880132a350bbf5fc6b03b3c9534-d.gif,,
22401854,Tratado de medicina de urgencias pediátricas,,,,"Peter Cameron, MBBS MD FACEM, George Jelinek, MD MBBS Dip DHM FACEM, Ian Everitt, MBBS Dip Anat FRACP FACEM, Gary Browne, MD MBBS MSpMed FRACP FACEM, and Jeremy Raftos, MBBS FRACP (Eds.)",2007,1ª ed,Editorial Elsevier,,689,0,Spanish,,,,978-84-8086-225-7,,,,,,,,,,,0,,,,,,,1,14744738,pdf,1ea36df944d5d17dcb9c8f16da1d33f0,,,A:\\sciencedirect_books\\9788480862257 (123).pdf,0,2000-01-01 01:00:00,2016-04-03 02:51:08,1112000/1ea36df944d5d17dcb9c8f16da1d33f0-d.jpg,,
22401855,Toma de Decisiones en el Tratamiento del Dolor,,,,"Somayaji Ramamurthy, MD, James N. Rogers, MD, and Euleche Alanmanou, MD (Eds.)",2007,2 ª ed,Editorial Elsevier,,326,0,Spanish,,,,978-84-8086-231-8,,,,,,,,,,,0,,,,,,,1,7075543,pdf,40989bce41734b36fbe4aa4959b29a5f,,,A:\\sciencedirect_books\\9788480862318 (140).pdf,0,2000-01-01 01:00:00,2016-04-03 02:51:08,1112000/40989bce41734b36fbe4aa4959b29a5f-d.jpg,,
22401856,Atlas de medicina tropical y parasitología,,,,"Wallace Peters, MD (London), DSc (London), Docteur Honoris Causa (Université René Descartes, Paris), FRCP, DTM&H, and Geoffrey Pasvol, MA (Oxon), MB ChB, DPhil (Oxon), FRCP, FRCPE (Auth.)",2008,6 ed,Editorial Elsevier,,433,0,Spanish,,,,978-84-8086-283-7,,,,,,,,,,,0,,,,,,,1,143168924,pdf,0cbc139a4946b2c5a78f7c199d66a05b,,,A:\\sciencedirect_books\\9788480862837 (17).pdf,0,2000-01-01 01:00:00,2016-04-03 02:51:08,1112000/0cbc139a4946b2c5a78f7c199d66a05b-d.jpg,,
22401857,Neumología Clínica,,,,,2010,,,,859,0,Spanish,,,,978-84-8086-298-1,,,,,,,,,,,0,,,,,,,1,23510799,pdf,1e12b5d9e38bcf35821a71a5a8b5338a,,,A:\\sciencedirect_books\\9788480862981 (107).pdf,0,2000-01-01 01:00:00,2016-04-03 02:51:08,1112000/1e12b5d9e38bcf35821a71a5a8b5338a-d.gif,,
22401858,Trasplante hepático,,,,Joaqín Berenguer and Pascual Parrilla (Eds.),2008,2a ED,,,575,0,Spanish,,,,978-84-8086-310-0,,,,,,,,,,,0,,,,,,,1,14198073,pdf,357772f14ecac9f2ecba1282aea990f8,,,A:\\sciencedirect_books\\9788480863100 (52).pdf,0,2000-01-01 01:00:00,2016-04-03 02:51:08,1112000/357772f14ecac9f2ecba1282aea990f8-d.jpg,,
22401859,Toma de Decisiones en Anestesiología. Algoritmos de Actuación,,,,"Lois L. Bready, MD, Dawn Dillman, MD, and Susan H. Noorily, MD (Eds.)",2008,4 ª ed,Editorial Elsevier,,598,0,Spanish,,,,978-84-8086-334-6,,,,,,,,,,,0,,,,,,,1,13762652,pdf,1b67e69bb28bac3061652fd6c3ddfee2,,,A:\\sciencedirect_books\\9788480863346 (222).pdf,0,2000-01-01 01:00:00,2016-04-03 02:51:08,1112000/1b67e69bb28bac3061652fd6c3ddfee2-d.jpg,,
22401860,Cardiología Pediátrica,,,,"Myung K. Park, MD, FAAP, FACC (Auth.)",2008,5a ED,,,674,0,Spanish,,,,978-84-8086-356-8,,,,,,,,,,,0,,,,,,,1,15586200,pdf,cc4f3c8a9c912a9dc7a07608efed1b56,,,A:\\sciencedirect_books\\9788480863568 (55).pdf,0,2000-01-01 01:00:00,2016-04-03 02:51:08,1112000/cc4f3c8a9c912a9dc7a07608efed1b56-d.jpg,,
22401861,Levin y O’Neal. El pie diabético,,,,"John H. Bowker, MD, and Michael A. Pfeifer, MD, CDE, FACE (Eds.)",2008,7,Elsevier,,635,0,Spanish,,,,978-84-8086-367-4,,,,,,,,,,,0,,,,,,,1,43202083,pdf,6bbfe250837fb99fbb4cebba0f4b446f,,,A:\\sciencedirect_books\\9788480863674 (42).pdf,0,2000-01-01 01:00:00,2016-04-03 02:51:08,1112000/6bbfe250837fb99fbb4cebba0f4b446f-d.jpg,,
22401862,Oncología clínica oftálmica,,,,"Arun D. Singh, MD, Bertil E. Damato, MD PhD FRCOphth, Jacob Pe’er, MD, A. Linn Murphree, MD, and Julian Perry, MD (Eds.)",2009,1 ed,Editorial Elsevier,,274,0,Spanish,,,,978-84-8086-369-8,,,,,,,,,,,0,,,,,,,1,43433320,pdf,be225662b70c2c8102ef8ca98069e623,,,A:\\sciencedirect_books\\9788480863698 (106).pdf,0,2000-01-01 01:00:00,2016-04-03 02:51:08,1112000/be225662b70c2c8102ef8ca98069e623-d.jpg,,
22401863,Cirugía de las Cataratas.Técnicas Quirúrgicas en Oftalmología,,,,"Larry Benjamin, FRCS FRCOphth DO (Eds.)",2009,Har/DVD,Elsevier,,164,0,Spanish,,,,"978-84-8086-373-5,978-84-8086-374-2",,,,,,,,,,,0,,,,,,,1,10676416,pdf,82fab28913418ea1b2237403fa35301c,,,A:\\sciencedirect_books\\9788480863735 (31).pdf,0,2000-01-01 01:00:00,2016-04-03 02:51:08,1112000/82fab28913418ea1b2237403fa35301c-d.jpg,,
22401864,Cirugía del Estrabismo.Técnicas Quirúrgicas en Oftalmología,,,,"John D. Ferris, FRCOphth, and Peter E.J. Davies, FRANZCO MPH (Eds.)",2009,,Elsevier,,167,0,Spanish,,,,"978-84-8086-374-2,978-84-8086-373-5",,,,,,,,,,,0,,,,,,,1,11808647,pdf,02f2a98b8a9d34b1f9d4f5e918737d83,,,A:\\sciencedirect_books\\9788480863742 (44).pdf,0,2000-01-01 01:00:00,2016-04-03 02:51:08,1112000/02f2a98b8a9d34b1f9d4f5e918737d83-d.jpg,,
22401865,Tratado de diálisis peritoneal,,,,"Jesús Montenegro, Ricardo Correa-Rotter and Miguel C. Riella (Eds.)",2009,"1ª ed., 1ª imp","Elsevier España, S.A",,640,0,Spanish,,,,978-84-8086-394-0,,,,,,,,,,,0,,,,,,,1,37743014,pdf,89e357129874006e8248cbd462283d55,,,A:\\sciencedirect_books\\9788480863940 (40).pdf,0,2000-01-01 01:00:00,2016-04-03 02:51:08,1112000/89e357129874006e8248cbd462283d55-d.jpg,,
22401866,Tratamiento Quirúrgico de la Obesidad,,,,"Henry Buchwald, M.D., Ph.D., George S.M. Cowan, Jr., M.D., and Walter J. Pories, M.D. (Eds.)",2009,,Elsevier,,461,0,Spanish,,,,978-84-8086-428-2,,,,,,,,,,,0,,,,,,,1,31130977,pdf,f99fb038520399d116a1bd85ce2402ea,,,A:\\sciencedirect_books\\9788480864282 (62).pdf,0,2000-01-01 01:00:00,2016-04-03 02:51:08,1112000/f99fb038520399d116a1bd85ce2402ea-d.jpg,,
22401867,"Kline y Hudson. Lesiones Nerviosas. Resultados del Tratamiento Quirúrgico de los Traumatismos, los Atrapamientos y los Tumores de los Nervios Principales",,,,"Daniel H. Kim, MD, Rajiv Midha, MD, MSc, FRCS(C), Judith A. Murovic, MD, and Robert J. Spinner, MD (Eds.)",2010,2 ed,Editorial Elsevier,,501,0,Spanish,,,,978-84-8086-442-8,,,,,,,,,,,0,,,,,,,1,104422738,pdf,90ca1ad9950b3c3c633a3f4286891a3e,,,A:\\sciencedirect_books\\9788480864428 (35).pdf,0,2000-01-01 01:00:00,2016-04-03 02:51:08,1112000/90ca1ad9950b3c3c633a3f4286891a3e-d.jpg,,
22401868,Publicación Científica Biomédica. Cómo escribir y publicar un artículo de investigación,,,,"Josep Maria Argimon, Josep Jiménez, Amando Martín and Miquel Vilardell (Eds.)",2010,1 ª ed,Editorial Elsevier,,393,0,Spanish,,,,978-84-8086-461-9,,,,,,,,,,,0,,,,,,,1,3037188,pdf,d441e03f5e0c9b324cf80704f382c7e6,,,A:\\sciencedirect_books\\9788480864619 (29).pdf,0,2000-01-01 01:00:00,2016-04-03 02:51:08,1112000/d441e03f5e0c9b324cf80704f382c7e6-d.jpg,,
22401869,150 Problemas de ECG,,,,"John R. Hampton, DM MA DPhil FRCP FFPM FESC (Auth.)",2009,3,Elsevier,,319,0,Spanish,,,,978-84-8086-474-9,,,,,,,,,,,0,,,,,,,1,9348602,pdf,7890206a78b0422f5b98141500bcd0f5,,,A:\\sciencedirect_books\\9788480864749 (155).pdf,0,2000-01-01 01:00:00,2016-04-03 02:51:08,1112000/7890206a78b0422f5b98141500bcd0f5-d.jpg,,
22401870,ECG Fácil,,,,"John R. Hampton, DM MA DPhil FRCP FFPM FESC (Auth.)",2009,7,Elsevier,,183,0,Spanish,,,,978-84-8086-476-3,,,,,,,,,,,0,,,,,,,1,2426304,pdf,6efe0fb5940d176614bac243a7f2b07d,,,A:\\sciencedirect_books\\9788480864763 (11).pdf,0,2000-01-01 01:00:00,2016-04-03 02:51:08,1112000/6efe0fb5940d176614bac243a7f2b07d-d.jpg,,
22401871,Tratado de Medicina Transfusional Perioperatoria,,,,"J.V. Llau Pitarch, V. Moral García, A. Gómez Luque and M. Basora Macaya (Auth.)",2010,1 ª ed,Editorial Elsevier,,638,0,Spanish,,,,978-84-8086-637-8,,,,,,,,,,,0,,,,,,,1,6829552,pdf,d18a45d01866d7c34fa25d64ad8be83a,,,A:\\sciencedirect_books\\9788480866378 (56).pdf,0,2000-01-01 01:00:00,2016-04-03 02:51:08,1112000/d18a45d01866d7c34fa25d64ad8be83a-d.jpg,,
22401872,Reumatología Clínica,,,,,2011,1,Elsevier,,474,0,Spanish,,,,978-84-8086-645-3,,,,,,,,,,,0,,,,,,,1,7685785,pdf,5e4386f68b9f736a4cdf213b98db3cc2,,,A:\\sciencedirect_books\\9788480866453 (66).pdf,0,2000-01-01 01:00:00,2016-04-03 02:51:08,1112000/5e4386f68b9f736a4cdf213b98db3cc2-d.jpg,,
22401873,Actualización de Terapia Anti-VEGF en Enfermedades de la Retina y Coroides,,,,L. Arias (Auth.),2010,1 ª ed,Editorial Elsevier,,183,0,Spanish,,,,978-84-8086-706-1,,,,,,,,,,,0,,,,,,,1,10392311,pdf,de0cbc37e9e1d5c95b27b313c97b1ef3,,,A:\\sciencedirect_books\\9788480867061 (31).pdf,0,2000-01-01 01:00:00,2016-04-03 02:51:08,1112000/de0cbc37e9e1d5c95b27b313c97b1ef3-d.jpg,,
22401874,"Medicina de los Trastornos del Sueño. Aspectos básicos, consideraciones tócnicas y aplicaciones clínicas",,,,Sudhansu Chokroverty (Auth.),2011,"3ª ed., 1ª imp",El Sevier España S.L,,696,0,Spanish,,,,978-84-8086-733-7,,,,,,,,,,,0,,,,,,,1,44036461,pdf,85ff16f534d7e642fe2ab6ad68c76ee7,,,A:\\sciencedirect_books\\9788480867337 (49).pdf,0,2000-01-01 01:00:00,2016-04-03 02:51:08,1112000/85ff16f534d7e642fe2ab6ad68c76ee7-d.jpg,,
22401875,Presbiacusia. Exploración e intervención. Reflexiones y pautas de actuación,,,,Pere Abelló (Auth.),2011,1,Elsevier,,149,0,Spanish,,,,978-84-8086-738-2,,,,,,,,,,,0,,,,,,,1,2437200,pdf,8807215460a2fca9472934c5e56c2f04,,,A:\\sciencedirect_books\\9788480867382 (14).pdf,0,2000-01-01 01:00:00,2016-04-03 02:51:08,1112000/8807215460a2fca9472934c5e56c2f04-d.jpg,,
22401876,Electroencefalografía del Adulto/Adult Electroencephalography. Atlas bilingüe español-inglós basado en casos clínicos/A case-based bilingual English-Spanish atlas,,,,"Jorge Iriarte Franco, Julio Artieda González-Granda, Manuel Alegre Esteban and Elena Urrestarazu Bolumburu (Auth.)",2012,,,,793,0,Spanish,,,,978-84-8086-744-3,,,,,,,,,,,0,,,,,,,1,356323989,pdf,16b72c8befd0d42a174fe78b9b507574,,,A:\\sciencedirect_books\\9788480867443 (16).pdf,0,2000-01-01 01:00:00,2016-04-03 02:51:08,1112000/16b72c8befd0d42a174fe78b9b507574-d.gif,,
22401877,Neurofarmacología Contemporánea,,,,Juan J. Zarranz (Eds.),2012,,"Elsevier España, S.A",,359,0,Spanish,,,,978-84-8086-875-4,,,,,,,,,,,0,,,,,,,1,5395711,pdf,a8c5db2005c08d58788cf970283496ec,,,A:\\sciencedirect_books\\9788480868754 (20).pdf,0,2000-01-01 01:00:00,2016-04-03 02:51:08,1112000/a8c5db2005c08d58788cf970283496ec-d.jpg,,
22401878,Manual de Otorrinolaringología Infantil,,,,Pilar Navarro (Eds.),2012,1,"Elsevier España, S.A",,522,0,Spanish,,,,978-84-8086-905-8,,,,,,,,,,,0,,,,,,,1,7941182,pdf,c895aae91c8136933a4c57f7004e4104,,,A:\\sciencedirect_books\\9788480869058 (57).pdf,0,2000-01-01 01:00:00,2016-04-03 02:51:08,1112000/c895aae91c8136933a4c57f7004e4104-d.jpg,,
22401879,"Monitorización en Anestesia, Cuidados Críticos y Medicina de Urgencias",,,,"Francisco de Borja de la Quintana Gordon, Carlos Chamorro, Antonio Planas and Eloísa López (Eds.)",2004,,Elsevier,,719,0,Spanish,,,,"978-84-8174-708-9,84-8174-708-4",,,,,,,,,,,0,,,,,,,1,13322935,pdf,48396fee39379365931af5924b9dd213,,,A:\\sciencedirect_books\\9788481747089 (51).pdf,0,2000-01-01 01:00:00,2016-04-03 02:51:08,1112000/48396fee39379365931af5924b9dd213-d.jpg,,
22401880,Cirugía y oncología de cabeza y cuello,,,,"Jatin P. Shah, MD, MS (Surg), FACS, Hon. FRCS (Edin), Hon. FRACS, Hon. FDSRCS (Lond), and Snehal G. Patel, MD, MS (Surg), FRCS (Glasg) (Eds.)",2004,3,Elsevier,,728,0,Spanish,,,,"978-84-8174-730-0,84-8174-730-0",,,,,,,,,,,0,,,,,,,1,244519711,pdf,4eae6bcd5e7ce3aac736900ca3f6cc42,,,A:\\sciencedirect_books\\9788481747300 (27).pdf,0,2000-01-01 01:00:00,2016-04-03 02:51:08,1112000/4eae6bcd5e7ce3aac736900ca3f6cc42-d.jpg,,
22401881,Endoscopia y radiología gastrointestinal. Los Requisitos en Gastroenterología,,,,"Gregory G. Ginsberg, MD, and Michael L. Kochman, MD, FACP (Eds.)",2005,,Elsevier,,203,0,Spanish,,,,"978-84-8174-819-2,84-8174-819-6",,,,,,,,,,,0,,,,,,,1,14778513,pdf,197a6db2b0a49c779980ef8bb03e443c,,,A:\\sciencedirect_books\\9788481748192 (16).pdf,0,2000-01-01 01:00:00,2016-04-03 02:51:08,1112000/197a6db2b0a49c779980ef8bb03e443c-d.jpg,,
22401882,Intestino grueso y delgado. Los Requisitos en Gastroenterología,,,,"Gary R. Lichtenstein, MD, and Gary D. Wu, MD (Eds.)",2005,,Elsevier,,312,0,Spanish,,,,"978-84-8174-821-5,84-8174-821-8",,,,,,,,,,,0,,,,,,,1,5093895,pdf,90a6ebbc022a53e8ff2eb858105bbf04,,,A:\\sciencedirect_books\\9788481748215 (20).pdf,0,2000-01-01 01:00:00,2016-04-03 02:51:08,1112000/90a6ebbc022a53e8ff2eb858105bbf04-d.jpg,,
22401883,Conducto hepatobiliar y páncreas. Los Requisitos en Gastroenterología,,,,"K. Rajender. Reddy, MD, and William B. Long, MD (Eds.)",2005,,Elsevier,,352,0,Spanish,,,,"978-84-8174-822-2,84-8174-822-6",,,,,,,,,,,0,,,,,,,1,10581547,pdf,09416847fa14a4860e3d2635c79335f5,,,A:\\sciencedirect_books\\9788481748222 (25).pdf,0,2000-01-01 01:00:00,2016-04-03 02:51:08,1112000/09416847fa14a4860e3d2635c79335f5-d.jpg,,
22401884,Atlas de cirugía estética periocular y del párpado,,,,"Henry M. Spinelli, MD, FACS (Auth.)",2005,,Elsevier,,172,0,Spanish,,,,978-84-8174-835-2,,,,,,,,,,,0,,,,,,,1,31585571,pdf,45d655c631c6cca5455ccd86e025b7ba,,,A:\\sciencedirect_books\\9788481748352 (16).pdf,0,2000-01-01 01:00:00,2016-04-03 02:51:08,1112000/45d655c631c6cca5455ccd86e025b7ba-d.jpg,,
22401885,Traumatismos maxilofaciales y reconstrucción facial estética,,,,"Peter Ward Booth, FDS, FRCS, Barry L. Eppley, MD, DMD, and Rainer Schmelzeisen, MD, DDS (Eds.)",2005,,Elsevier,,643,0,Spanish,,,,"978-84-8174-836-9,84-8174-836-6",,,,,,,,,,,0,,,,,,,1,178952642,pdf,62d5b540667ef3c6dc41de8ecd7abcb3,,,A:\\sciencedirect_books\\9788481748369 (37).pdf,0,2000-01-01 01:00:00,2016-04-03 02:51:08,1112000/62d5b540667ef3c6dc41de8ecd7abcb3-d.jpg,,
22401886,Rehabilitación ortopédica clínica,,,,"S. Brent Brotzman, M.D., and Kevin E. Wilk, P.T. (Eds.)",2005,2,Elsevier,,629,0,Spanish,,,,"978-84-8174-844-4,84-8174-844-7",,,,,,,,,,,0,,,,,,,1,27111069,pdf,eaa73055f50fdb2b98e850539c3a2ebd,,,A:\\sciencedirect_books\\9788481748444 (16).pdf,0,2000-01-01 01:00:00,2016-04-03 02:51:08,1112000/eaa73055f50fdb2b98e850539c3a2ebd-d.jpg,,
22401887,Diagnóstico Clínico Cardiovascular Por Imagen. Complemento al Tratado de cardiología de Braunwald,,,,"Martin G. St. John Sutton, MBBS, FRCP, FACC, and John D. Rutherford, MB, ChB, FRACP, FACC (Eds.)",2005,1,Elsevier,,594,0,Spanish,,,,"978-84-8174-862-8,84-8174-862-5",,,,,,,,,,,0,,,,,,,1,23462259,pdf,50a0e006eddfafdec09e1cbaddfcbd4e,,,A:\\sciencedirect_books\\9788481748628 (22).pdf,0,2000-01-01 01:00:00,2016-04-03 02:51:08,1112000/50a0e006eddfafdec09e1cbaddfcbd4e-d.jpg,,
22401888,Cáncer de piel,,,,"Darrell S. Rigel, MD, Robert J. Friedman, MD MSc(Med), Leonard M. Dzubow, MD, Douglas S. Reintgen, MD, Jean-Claude Bystryn, MD, and Robin Marks, MB BS MPH FRACP FACD (Eds.)",2006,,Elsevier,,692,0,Spanish,,,,"978-84-8174-875-8,84-8174-875-7",,,,,,,,,,,0,,,,,,,1,127320010,pdf,df23a7a97c1f38ad0a8c850259a90f15,,,A:\\sciencedirect_books\\9788481748758 (63).pdf,0,2000-01-01 01:00:00,2016-04-03 02:51:08,1112000/df23a7a97c1f38ad0a8c850259a90f15-d.jpg,,
22401889,Alergia e Inmunologí. Secretos,,,,"M. Eric Gershwin, M.D., and Stanley M. Naguwa, M.D. (Auth.)",2006,2,Elsevier,,376,0,Spanish,,,,"978-84-8174-884-0,84-8174-884-6",,,,,,,,,,,0,,,,,,,1,2796304,pdf,d6f7e863df48872e86e789e4bb5d5e21,,,A:\\sciencedirect_books\\9788481748840 (25).pdf,0,2000-01-01 01:00:00,2016-04-03 02:51:08,1112000/d6f7e863df48872e86e789e4bb5d5e21-d.jpg,,
22401890,Pediatría. Secretos,,,,"Richard A. Polin, MD, and Mark F. Ditmar, MD (Eds.)",2006,4,Elsevier,,757,0,Spanish,,,,"978-84-8174-888-8,84-8174-888-9",,,,,,,,,,,0,,,,,,,1,5128783,pdf,04249b7211100be5b52dd1805538aff7,,,A:\\sciencedirect_books\\9788481748888 (23).pdf,0,2000-01-01 01:00:00,2016-04-03 02:51:08,1112000/04249b7211100be5b52dd1805538aff7-d.jpg,,
22401891,Neurología pediátrica clínica. Un Enfoque por Signos y Síntomas,,,,"Gerald M. Fenichel, MD (Auth.)",2006,5,Elsevier,,405,0,Spanish,,,,"978-84-8174-903-8,84-8174-903-6",,,,,,,,,,,0,,,,,,,1,4233881,pdf,300dede64a23048bbdc7325939bfdefa,,,A:\\sciencedirect_books\\9788481749038 (22).pdf,0,2000-01-01 01:00:00,2016-04-03 02:51:08,1112000/300dede64a23048bbdc7325939bfdefa-d.jpg,,
22401892,Atlas diagnóstico del dolor. Un Enfoque por Signos y Síntomas,,,,"Steven D. Waldman, MD, JD (Auth.)",2007,1 Har/Dvdr,Elsevier,,375,0,Spanish,,,,"978-84-8174-938-0,84-8174-938-9",,,,,,,,,,,0,,,,,,,1,34886453,pdf,d72cd59ac166e4e3883fba4ce1ad81bc,,,A:\\sciencedirect_books\\9788481749380 (213).pdf,0,2000-01-01 01:00:00,2016-04-03 02:51:08,1112000/d72cd59ac166e4e3883fba4ce1ad81bc-d.jpg,,
22401893,Anestesia. Secretos,,,,"James Duke, MD (Eds.)",2006,3,Elsevier,,628,0,Spanish,,,,"978-84-8174-941-0,84-8174-941-9",,,,,,,,,,,0,,,,,,,1,5469803,pdf,0b7b4ae90e4e0faf2306f5edf4a2dbba,,,A:\\sciencedirect_books\\9788481749410 (90).pdf,0,2000-01-01 01:00:00,2016-04-03 02:51:08,1112000/0b7b4ae90e4e0faf2306f5edf4a2dbba-d.jpg,,
22401894,Sheehy. Manual de urgencia de enfermería,,,,"Lorene Newberry, MS, RN, CEN, and Laura M. Criddle, MS, RN, CCNS, CEN, CFRN, CNRN (Eds.)",2007,6,Elsevier,,952,0,Spanish,,,,"978-84-8174-942-7,84-8174-942-7",,,,,,,,,,,0,,,,,,,1,11634723,pdf,e84a618ad5fcac80a89ddb28d76ba550,,,A:\\sciencedirect_books\\9788481749427 (59).pdf,0,2000-01-01 01:00:00,2016-04-03 02:51:08,1112000/e84a618ad5fcac80a89ddb28d76ba550-d.jpg,,
22401895,Wall y Melzack. Tratado del Dolor,,,,"Stephen B. McMahon, FMedSci, and Martin Koltzenburg, MD FRCP (Eds.)",2009,5,Elsevier,,1247,0,Spanish,,,,"978-84-8174-949-6,84-8174-949-4",,,,,,,,,,,0,,,,,,,1,28649912,pdf,7b0a20c654141524c461630d26db5270,,,A:\\sciencedirect_books\\9788481749496 (83).pdf,0,2000-01-01 01:00:00,2016-04-03 02:51:08,1112000/7b0a20c654141524c461630d26db5270-d.jpg,,
22401896,Epidemiología y bioestadística. Secretos,,,,"Robert J. Nordness, MD, MPH (Eds.)",2006,,Elsevier,,285,0,Spanish,,,,"978-84-8174-950-2,84-8174-950-8",,,,,,,,,,,0,,,,,,,1,2615918,pdf,4c3ccbe8fe0705f2a50a6cdcb990a8f8,,,A:\\sciencedirect_books\\9788481749502 (28).pdf,0,2000-01-01 01:00:00,2016-04-03 02:51:08,1112000/4c3ccbe8fe0705f2a50a6cdcb990a8f8-d.jpg,,
22401897,Radiología. Secretos,,,,"E. Scott Pretorius, MD, and Jeffrey A. Solomon, MD, MBA (Eds.)",2006,2,Elsevier,,696,0,Spanish,,,,978-84-8174-951-9,,,,,,,,,,,0,,,,,,,1,17645898,pdf,94694e4acd3f067c2d2206874f51200a,,,A:\\sciencedirect_books\\9788481749519 (80).pdf,0,2000-01-01 01:00:00,2016-04-03 02:51:08,1112000/94694e4acd3f067c2d2206874f51200a-d.jpg,,
22401898,Atlas diagnóstico de patología renal,,,,"Agnes B. Fogo, MD, and Michael Kashgarian, MD (Auth.)",2006,1,Elsevier,,483,0,Spanish,,,,"978-84-8174-959-5,84-8174-959-1",,,,,,,,,,,0,,,,,,,1,104663128,pdf,35c1a01f0a1266db204fb78e0461ceca,,,A:\\sciencedirect_books\\9788481749595 (13).pdf,0,2000-01-01 01:00:00,2016-04-03 02:51:08,1112000/35c1a01f0a1266db204fb78e0461ceca-d.jpg,,
22401899,A Formação Do Mundo Moderno,,,,Francisco Falcon and Antonio Rodrigues (Auth.),2006,,,,270,0,Spanish,,,,978-85-352-1296-9,,,,,,,,,,,0,,,,,,,1,1407035,pdf,9e12b5e1d7ed9fcf8f8c2a14462963fe,,,A:\\sciencedirect_books\\9788535212969 (11).pdf,0,2000-01-01 01:00:00,2016-04-03 02:51:08,1112000/9e12b5e1d7ed9fcf8f8c2a14462963fe-d.gif,,
22401900,Mercado Financeiro. Uma Abordagem Prático Dos Principais Produtos E Serviços,,,,"Michel Fleuriet, Alexandre Galvao and Lucas Mendes (Auth.)",2005,,,,495,0,Spanish,,,,978-85-352-1336-2,,,,,,,,,,,0,,,,,,,1,4952859,pdf,f99ad81dee581a73ddfa8f3bb85d5025,,,A:\\sciencedirect_books\\9788535213362 (17).pdf,0,2000-01-01 01:00:00,2016-04-03 02:51:08,1112000/f99ad81dee581a73ddfa8f3bb85d5025-d.gif,,
22401901,Cooperação e Conflito. Instituições E Desenvolvimento Econômico,,,,Ronaldo Fiani (Auth.),2011,,,,245,0,Spanish,,,,978-85-352-1433-8,,,,,,,,,,,0,,,,,,,1,2414828,pdf,262182f4e68f750101ae8fddb9a5dbe5,,,A:\\sciencedirect_books\\9788535214338 (16).pdf,0,2000-01-01 01:00:00,2016-04-03 02:51:08,1112000/262182f4e68f750101ae8fddb9a5dbe5-d.gif,,
22401902,Organizações Internacionais,,,,Monica Herz and Andrea Hoffman (Auth.),2004,,,,265,0,Spanish,,,,978-85-352-1453-6,,,,,,,,,,,0,,,,,,,1,1133001,pdf,b020800bb7d463fe67253e47d1184484,,,A:\\sciencedirect_books\\9788535214536 (12).pdf,0,2000-01-01 01:00:00,2016-04-03 02:51:08,1112000/b020800bb7d463fe67253e47d1184484-d.gif,,
22401903,Otimização Combinatória e Programação Linear,,,,Marco Goldbarg and Henrique Luna (Auth.),2005,2,Campus,,519,0,Spanish,,,,978-85-352-1520-5,,,,,,,,,,,0,,,,,,,1,3976414,pdf,e403d43faab61e40b0b2725a7d0a3e9e,,,A:\\sciencedirect_books\\9788535215205 (22).pdf,0,2000-01-01 01:00:00,2016-04-03 02:51:08,1112000/e403d43faab61e40b0b2725a7d0a3e9e-d.gif,,
22401904,Estratégia e Gestão Empresarial,,,,Betania Barros (Auth.),2006,1,LTR,,271,0,Spanish,,,,978-85-352-1529-8,,,,,,,,,,,0,,,,,,,1,1971177,pdf,fd6c4bd08f22e64db492decbfd274c96,,,A:\\sciencedirect_books\\9788535215298 (20).pdf,0,2000-01-01 01:00:00,2016-04-03 02:51:08,1112000/fd6c4bd08f22e64db492decbfd274c96-d.gif,,
22401905,Estatística Usando Excel,,,,Juan Lapponi (Auth.),2005,,,,473,0,Spanish,,,,978-85-352-1574-8,,,,,,,,,,,0,,,,,,,1,16199332,pdf,1fa5cc6c45d0cb66d279573357baaa7b,,,A:\\sciencedirect_books\\9788535215748 (24).pdf,0,2000-01-01 01:00:00,2016-04-03 02:51:08,1112000/1fa5cc6c45d0cb66d279573357baaa7b-d.gif,,
22401906,A Internet e Seus Protocolos. Uma Análise Comparativa,,,,Adrian Farrel (Auth.),2005,,,,553,0,Spanish,,,,"978-85-352-1591-5,1-55860-913-X",,,,,,,,,,,0,,,,,,,1,23876370,pdf,e8f09cb63d0c443cfa8ee1afc5f5114b,,,A:\\sciencedirect_books\\9788535215915 (21).pdf,0,2000-01-01 01:00:00,2016-04-03 02:51:08,1112000/e8f09cb63d0c443cfa8ee1afc5f5114b-d.gif,,
22401907,Administração De Vendas,,,,,2010,,,,167,0,Spanish,,,,"978-85-352-1631-8,85-352-1631-6",,,,,,,,,,,0,,,,,,,1,1067465,pdf,1147223d945af8662aa273b0438ab1eb,,,A:\\sciencedirect_books\\9788535216318 (14).pdf,0,2000-01-01 01:00:00,2016-04-03 02:51:08,1112000/1147223d945af8662aa273b0438ab1eb-d.gif,,
22401908,A Gestão de Pessoas no Brasil. Virtudes e Pecados Capitais,,,,"Betania Barros, Paul Evans and Vladimir Pucik (Auth.)",2007,,,,215,0,Portuguese,,,0,"978-85-352-1686-8,85-352-1686-3",,,,,,,,,,,0,,,,,,,1,1991554,pdf,4da67bcf2a28baa001c15ea125fbc8f3,,,A:/sciencedirect_books/9788535216868 (12).pdf,0,2000-01-01 01:00:00,2016-04-03 02:51:08,1112000/4da67bcf2a28baa001c15ea125fbc8f3-d.gif,,
22401909,PrincíPios De Análise e Projeto De Sistemas Com UML. Um Guia Prático Para Modelagem De Sistemas Orientados A Objetos Através Da Linguagem De Modelagem Unificada,,,,Eduardo Bezerra (Auth.),2006,,,,373,0,Spanish,,,,978-85-352-1696-7,,,,,,,,,,,0,,,,,,,1,2459943,pdf,375e243cf3c35569cd1231e96092f7b9,,,A:\\sciencedirect_books\\9788535216967 (18).pdf,0,2000-01-01 01:00:00,2016-04-03 02:51:08,1112000/375e243cf3c35569cd1231e96092f7b9-d.gif,,
22401910,Direito e Economia. Análise Econômica Do Direito E Das Organizações,,,,Raquel Sztajn and Décio Zylberstajn (Auth.),2005,1,Campus,,328,0,Portuguese,,,0,978-85-352-1715-5,,,,,,,,,,,0,,,,,,,1,1706790,pdf,c83342f70c2044c8b2cd5acabbe013fc,,,A:/sciencedirect_books/9788535217155 (17).pdf,0,2000-01-01 01:00:00,2016-04-03 02:51:08,1112000/c83342f70c2044c8b2cd5acabbe013fc-d.gif,,
22401911,Gestão Da Inovação. A Economia Da Tecnologia No Brasil,,,,Paulo Tigre (Auth.),2006,,,,279,0,Portuguese,,,0,978-85-352-1785-8,,,,,,,,,,,0,,,,,,,1,2058070,pdf,39018d1b736e0f15cc3ec044cd8207d1,,,A:/sciencedirect_books/9788535217858 (19).pdf,0,2000-01-01 01:00:00,2016-04-03 02:51:08,1112000/39018d1b736e0f15cc3ec044cd8207d1-d.gif,,
22401912,Matemática Financeira,,,,Juan Lapponi (Auth.),2005,,,,527,0,Spanish,,,,978-85-352-1880-0,,,,,,,,,,,0,,,,,,,1,2655136,pdf,55b1db39cd18ce114293d62e7fed386a,,,A:\\sciencedirect_books\\9788535218800 (18).pdf,0,2000-01-01 01:00:00,2016-04-03 02:51:08,1112000/55b1db39cd18ce114293d62e7fed386a-d.gif,,
22401913,Integração Regional,,,,,2006,,,,203,0,Spanish,,,,978-85-352-2024-7,,,,,,,,,,,0,,,,,,,1,1180285,pdf,0dbb3dff7b7d6fad7d92d722c22c6b0f,,,A:\\sciencedirect_books\\9788535220247 (11).pdf,0,2000-01-01 01:00:00,2016-04-03 02:51:08,1112000/0dbb3dff7b7d6fad7d92d722c22c6b0f-d.gif,,
22401914,Macroeconomia. Teoria E Prática No Brasil,,,,Ana Alem (Auth.),2010,,,,380,0,Portuguese,,,0,978-85-352-2025-4,,,,,,,,,,,0,,,,,,,1,19497220,pdf,82139fe5e2d57e373d2b7c9e63fbb227,,,A:/sciencedirect_books/9788535220254 (15).pdf,0,2000-01-01 01:00:00,2016-04-03 02:51:08,1112000/82139fe5e2d57e373d2b7c9e63fbb227-d.gif,,
22401915,O Texto Na TV: Manual De Telejornalismo,,,,Vera Paternostro (Auth.),2006,,,,225,0,Spanish,,,,"978-85-352-2029-2,85-352-2029-1",,,,,,,,,,,0,,,,,,,1,1897118,pdf,de6cbbaf477269733892973abb5458c1,,,A:\\sciencedirect_books\\9788535220292 (28).pdf,0,2000-01-01 01:00:00,2016-04-03 02:51:08,1112000/de6cbbaf477269733892973abb5458c1-d.gif,,
22401916,Internacionalização De Empresas Brasileiras,,,,,2006,,,,321,0,Portuguese,,,0,"978-85-352-2056-8,85-352-2056-9",,,,,,,,,,,0,,,,,,,1,2562983,pdf,64657a6f8a1b462008a5c31c8aaf555a,,,A:/sciencedirect_books/9788535220568 (15).pdf,0,2000-01-01 01:00:00,2016-04-03 02:51:08,1112000/64657a6f8a1b462008a5c31c8aaf555a-d.gif,,
22401917,Ética E Economia,,,,,2006,,,,218,0,Spanish,,,,"978-85-352-2075-9,85-352-2075-5",,,,,,,,,,,0,,,,,,,1,1182862,pdf,88386f16fa49aeccc24cb8dc81b7f5b8,,,A:\\sciencedirect_books\\9788535220759 (9).pdf,0,2000-01-01 01:00:00,2016-04-03 02:51:08,1112000/88386f16fa49aeccc24cb8dc81b7f5b8-d.gif,,
22401918,Planejamento Turístico. Teoria E Prática,,,,Debora Braga (Auth.),2006,,,,233,0,Spanish,,,,978-85-352-2089-6,,,,,,,,,,,0,,,,,,,1,3004129,pdf,52799c8f721306e5b49bc15360082175,,,A:\\sciencedirect_books\\9788535220896 (26).pdf,0,2000-01-01 01:00:00,2016-04-03 02:51:08,1112000/52799c8f721306e5b49bc15360082175-d.gif,,
22401919,Como Escrever Teses e Monografias. Um Roteiro Passo A Passo,,,,Magda Alves (Auth.),2006,,,,108,0,Spanish,,,,"978-85-352-2212-8,85-352-2212-X",,,,,,,,,,,0,,,,,,,1,743107,pdf,ec346434b8f5b45e42d024c90a3a92ba,,,A:\\sciencedirect_books\\9788535222128 (12).pdf,0,2000-01-01 01:00:00,2016-04-03 02:51:08,1112000/ec346434b8f5b45e42d024c90a3a92ba-d.gif,,
22401920,Pessoas Focadas Na Estratégia,,,,Emilio Herrero (Auth.),2011,,,,271,0,Spanish,,,,978-85-352-2292-0,,,,,,,,,,,0,,,,,,,1,1818391,pdf,f8f3fdb31a2f9058724c42f39dc3ecca,,,A:\\sciencedirect_books\\9788535222920 (16).pdf,0,2000-01-01 01:00:00,2016-04-03 02:51:08,1112000/f8f3fdb31a2f9058724c42f39dc3ecca-d.gif,,
22401921,Agências de Viagens e Turismo. Práticas de Mercado,,,,"Claudia Astorino, Debora Braga and Marcela Candioto (Auth.)",2007,,,,268,0,Portuguese,,,0,978-85-352-2326-2,,,,,,,,,,,0,,,,,,,1,6361600,pdf,728c873e5ef06127504f672999fea27f,,,A:/sciencedirect_books/9788535223262 (25).pdf,0,2000-01-01 01:00:00,2016-04-03 02:51:08,1112000/728c873e5ef06127504f672999fea27f-d.gif,,
22401922,Introdução À Engenharia De Produção,,,,Mario Batalha (Auth.),2007,,,,320,0,Spanish,,,,978-85-352-2330-9,,,,,,,,,,,0,,,,,,,1,3518496,pdf,6077bf96b129300e9c94a476e438db08,,,A:\\sciencedirect_books\\9788535223309 (18).pdf,0,2000-01-01 01:00:00,2016-04-03 02:51:08,1112000/6077bf96b129300e9c94a476e438db08-d.gif,,
22401923,Economia Monetária e Financeira. Teoria E Política,,,,"Fernando Carvalho, Luiz Fernando De Paula and Joao Sicsu (Auth.)",2007,,,,395,0,Spanish,,,,978-85-352-2360-6,,,,,,,,,,,0,,,,,,,1,3459106,pdf,e0523c2677baa8080668f92afa51cc38,,,A:\\sciencedirect_books\\9788535223606 (31).pdf,0,2000-01-01 01:00:00,2016-04-03 02:51:08,1112000/e0523c2677baa8080668f92afa51cc38-d.gif,,
22401924,Comércio Exterior: Interesses Do Brasil,,,,,2007,,,,226,0,Portuguese,,,0,978-85-352-2361-3,,,,,,,,,,,0,,,,,,,1,5097338,pdf,e099b1966b62a5f86a066f10f3a66381,,,A:/sciencedirect_books/9788535223613 (9).pdf,0,2000-01-01 01:00:00,2016-04-03 02:51:08,1112000/e099b1966b62a5f86a066f10f3a66381-d.gif,,
22401925,"Logística e Gerenciamento Da Cadeia De Distribuição. Estratégia, Operação E Avaliação",,,,Antonio Novaes (Auth.),2007,,,,404,0,Spanish,,,,978-85-352-2415-3,,,,,,,,,,,0,,,,,,,1,4071723,pdf,7875062273e2b67fcdc47d998621b087,,,A:\\sciencedirect_books\\9788535224153 (16).pdf,0,2000-01-01 01:00:00,2016-04-03 02:51:08,1112000/7875062273e2b67fcdc47d998621b087-d.gif,,
22401926,Manual De História Dos Sistemas Jurídicos,,,,Christiano Carrilho (Auth.),2009,,,,206,0,Spanish,,,,978-85-352-2582-2,,,,,,,,,,,0,,,,,,,1,1916392,pdf,5907629802ea573117f32bd3396a746d,,,A:\\sciencedirect_books\\9788535225822 (19).pdf,0,2000-01-01 01:00:00,2016-04-03 02:51:08,1112000/5907629802ea573117f32bd3396a746d-d.gif,,
22401927,Finanças Corporativas,,,,,2007,,,,598,0,Spanish,,,,978-85-352-2667-6,,,,,,,,,,,0,,,,,,,1,11334773,pdf,6863b7da0a4375afe1738ce9e8c59361,,,A:\\sciencedirect_books\\9788535226676 (28).pdf,0,2000-01-01 01:00:00,2016-04-03 02:51:08,1112000/6863b7da0a4375afe1738ce9e8c59361-d.gif,,
22401928,Empreendedorismo De Base Tecnológica,,,,,2007,,,,139,0,Spanish,,,,978-85-352-2668-3,,,,,,,,,,,0,,,,,,,1,1392896,pdf,97751b4d76aed6d40ba42fb10160e2d0,,,A:\\sciencedirect_books\\9788535226683 (9).pdf,0,2000-01-01 01:00:00,2016-04-03 02:51:08,1112000/97751b4d76aed6d40ba42fb10160e2d0-d.gif,,
22401929,Administração De Varejo,,,,Fauze Najib Mattar (Auth.),2011,,,,627,0,Spanish,,,,978-85-352-2719-2,,,,,,,,,,,0,,,,,,,1,19523570,pdf,87466f63b1f1e779dd2c51d52601da48,,,A:\\sciencedirect_books\\9788535227192 (23).pdf,0,2000-01-01 01:00:00,2016-04-03 02:51:08,1112000/87466f63b1f1e779dd2c51d52601da48-d.gif,,
22401930,Desenvolvimento Distribuído De Software,,,,,2007,,,,216,0,Spanish,,,,978-85-352-2720-8,,,,,,,,,,,0,,,,,,,1,3919506,pdf,fa2a62a7114a6812f2db17f275978950,,,A:\\sciencedirect_books\\9788535227208 (15).pdf,0,2000-01-01 01:00:00,2016-04-03 02:51:08,1112000/fa2a62a7114a6812f2db17f275978950-d.gif,,
22401931,Empreendedorismo Na Prática. Mitos E Verdades Do Empreendedor De Sucesso,,,,José Dornelas (Auth.),2007,,,,148,0,Spanish,,,,978-85-352-2761-1,,,,,,,,,,,0,,,,,,,1,1935289,pdf,da42e12eb3df5fe8ee4fa2c5e432db91,,,A:\\sciencedirect_books\\9788535227611 (13).pdf,0,2000-01-01 01:00:00,2016-04-03 02:51:08,1112000/da42e12eb3df5fe8ee4fa2c5e432db91-d.gif,,
22401932,Economia Do Desenvolvimento. Teoria E Políticas Keynesianas,,,,Carlos Vidotto and Joao Sicsu (Auth.),2008,,Campus,,270,0,Spanish,,,,978-85-352-2773-4,,,,,,,,,,,0,,,,,,,1,1892190,pdf,92e3fad1985919f8374f833260e8eaff,,,A:\\sciencedirect_books\\9788535227734 (22).pdf,0,2000-01-01 01:00:00,2016-04-03 02:51:08,1112000/92e3fad1985919f8374f833260e8eaff-d.jpg,,
22401933,Formação Econômica Do Brasil. Uma Reinterpretação Contemporânea,,,,Marcos Fernandes (Auth.),2012,,,,161,0,Portuguese,,,0,978-85-352-2774-1,,,,,,,,,,,0,,,,,,,1,7045261,pdf,ee78e9099b8553353f812f65df4eb96a,,,A:/sciencedirect_books/9788535227741 (12).pdf,0,2000-01-01 01:00:00,2016-04-03 02:51:08,1112000/ee78e9099b8553353f812f65df4eb96a-d.gif,,
22401934,Teoria Política Contemporânea,,,,João Feres Jr and Thamy Pogrebinschi (Auth.),2010,,,,234,0,Spanish,,,,978-85-352-2775-8,,,,,,,,,,,0,,,,,,,1,9601087,pdf,ef385410f1eb54420f81557753a4e6e5,,,A:\\sciencedirect_books\\9788535227758 (12).pdf,0,2000-01-01 01:00:00,2016-04-03 02:51:08,1112000/ef385410f1eb54420f81557753a4e6e5-d.gif,,
22401935,Impérios Na História,,,,"Francisco J. Silva, Ricardo Cabral and Sidnei Munhoz (Auth.)",2009,,,,448,0,Spanish,,,,978-85-352-2776-5,,,,,,,,,,,0,,,,,,,1,9211502,pdf,5330b06f49e1eb4b0609af6697eceb72,,,A:\\sciencedirect_books\\9788535227765 (41).pdf,0,2000-01-01 01:00:00,2016-04-03 02:51:08,1112000/5330b06f49e1eb4b0609af6697eceb72-d.gif,,
22401936,Bob Wolfenson – Cartas a Um Jovem Fotógrafo,,,,Bob Wolfenson (Auth.),2009,,,,244,0,Spanish,,,,978-85-352-2794-9,,,,,,,,,,,0,,,,,,,1,3451329,pdf,f8c92af73e228f0a7a93172431981ed7,,,A:\\sciencedirect_books\\9788535227949 (22).pdf,0,2000-01-01 01:00:00,2016-04-03 02:51:08,1112000/f8c92af73e228f0a7a93172431981ed7-d.gif,,
22401937,Reflexões Sobre o Direito À Propriedade,,,,Denis Rosenfield (Auth.),2008,,Elsevier,,210,0,Portuguese,,,0,978-85-352-2795-6,,,,,,,,,,,0,,,,,,,1,952260,pdf,d37bcebbeb40e7358e1163b482188f13,,,A:/sciencedirect_books/9788535227956 (10).pdf,0,2000-01-01 01:00:00,2016-04-03 02:51:08,1112000/d37bcebbeb40e7358e1163b482188f13-d.gif,,
22401938,O Direito À Vida e a Pesquisa Em Células-tronco,,,,Renata Rocha (Auth.),2008,,Campus Juridico,,222,0,Portuguese,,,0,978-85-352-2812-0,,,,,,,,,,,0,,,,,,,1,2286428,pdf,7aeb015206f323c2729a68dc32ca6dc6,,,A:/sciencedirect_books/9788535228120 (15).pdf,0,2000-01-01 01:00:00,2016-04-03 02:51:08,1112000/7aeb015206f323c2729a68dc32ca6dc6-d.jpg,,
22401939,PrincíPios Do Processo De Execução,,,,Marina Vezzoni (Auth.),2008,,,,151,0,Spanish,,,,978-85-352-2920-2,,,,,,,,,,,0,,,,,,,1,1164611,pdf,134c3c26f9c0dc6b3310a61458ab3e71,,,A:\\sciencedirect_books\\9788535229202 (18).pdf,0,2000-01-01 01:00:00,2016-04-03 02:51:08,1112000/134c3c26f9c0dc6b3310a61458ab3e71-d.gif,,
22401940,A Nova Execução De Títulos Extrajudiciais,,,,Luis Carvalho (Auth.),2008,,Elsevier,,203,0,Portuguese,,,0,978-85-352-2935-6,,,,,,,,,,,0,,,,,,,1,1638474,pdf,ae4f6b9b976d6d72cae75da6985e3976,,,A:/sciencedirect_books/9788535229356 (14).pdf,0,2000-01-01 01:00:00,2016-04-03 02:51:08,1112000/ae4f6b9b976d6d72cae75da6985e3976-d.gif,,
22401941,Novos Sujeitos De Direito,,,,Luciana Musse (Auth.),2009,,,,181,0,Portuguese,,,0,978-85-352-2992-9,,,,,,,,,,,0,,,,,,,1,1167838,pdf,db0c2a81fed0de0c6971c6a8b0106aed,,,A:/sciencedirect_books/9788535229929 (15).pdf,0,2000-01-01 01:00:00,2016-04-03 02:51:08,1112000/db0c2a81fed0de0c6971c6a8b0106aed-d.gif,,
22401942,Introdução À Compilação,,,,,2008,,,,265,0,Spanish,,,,978-85-352-3067-3,,,,,,,,,,,0,,,,,,,1,2589061,pdf,490885d5a6e211c3509c2c7a34532c9e,,,A:\\sciencedirect_books\\9788535230673 (12).pdf,0,2000-01-01 01:00:00,2016-04-03 02:51:08,1112000/490885d5a6e211c3509c2c7a34532c9e-d.gif,,
22401943,Governança Corporativa,,,,,2008,,,,257,0,Spanish,,,,978-85-352-3092-5,,,,,,,,,,,0,,,,,,,1,7583647,pdf,cbb6d757ff16633bfdf2e6797b5acfc6,,,A:\\sciencedirect_books\\9788535230925 (25).pdf,0,2000-01-01 01:00:00,2016-04-03 02:51:08,1112000/cbb6d757ff16633bfdf2e6797b5acfc6-d.gif,,
22401944,Gestão Socioambiental,,,,,2008,,,,250,0,Spanish,,,,978-85-352-3166-3,,,,,,,,,,,0,,,,,,,1,2525859,pdf,4e4baa33d1d71073e331b88858727017,,,A:\\sciencedirect_books\\9788535231663 (15).pdf,0,2000-01-01 01:00:00,2016-04-03 02:51:08,1112000/4e4baa33d1d71073e331b88858727017-d.gif,,
22401945,Aprimorando Seu Francês,,,,Angela Pastura (Auth.),2009,,,,205,0,Spanish,,,,978-85-352-3191-5,,,,,,,,,,,0,,,,,,,1,1642662,pdf,59cc2b7af2e90f06214159f0bf4ed292,,,A:\\sciencedirect_books\\9788535231915 (11).pdf,0,2000-01-01 01:00:00,2016-04-03 02:51:08,1112000/59cc2b7af2e90f06214159f0bf4ed292-d.gif,,
22401946,Controle Estatístico De Qualidade,,,,,2009,,,,272,0,Spanish,,,,978-85-352-3220-2,,,,,,,,,,,0,,,,,,,1,17854279,pdf,578d35fdb4228699ca7b7bcb3a998989,,,A:\\sciencedirect_books\\9788535232202 (20).pdf,0,2000-01-01 01:00:00,2016-04-03 02:51:08,1112000/578d35fdb4228699ca7b7bcb3a998989-d.gif,,
22401947,Introdução À Economia,,,,Carlos Gonçalves and Bernardo Guimarães (Auth.),2010,,,,261,0,Spanish,,,,978-85-352-3221-9,,,,,,,,,,,0,,,,,,,1,12943013,pdf,59846d430671f993e359b4d86df5e4ff,,,A:\\sciencedirect_books\\9788535232219 (25).pdf,0,2000-01-01 01:00:00,2016-04-03 02:51:08,1112000/59846d430671f993e359b4d86df5e4ff-d.gif,,
22401948,Administração Pública,,,,Claudia Costin (Auth.),2010,,,,266,0,Spanish,,,,978-85-352-3225-7,,,,,,,,,,,0,,,,,,,1,1740128,pdf,401b1d6904ae2d51ac3d256ced213d96,,,A:\\sciencedirect_books\\9788535232257 (15).pdf,0,2000-01-01 01:00:00,2016-04-03 02:51:08,1112000/401b1d6904ae2d51ac3d256ced213d96-d.gif,,
22401949,Algoritmos. Em Liguagem C,,,,Paulo Feofillof (Auth.),2009,,,,196,0,Spanish,,,,978-85-352-3249-3,,,,,,,,,,,0,,,,,,,1,3030463,pdf,93aefab0168c175ed9ea1faa80269ba5,,,A:\\sciencedirect_books\\9788535232493 (32).pdf,0,2000-01-01 01:00:00,2016-04-03 02:51:08,1112000/93aefab0168c175ed9ea1faa80269ba5-d.gif,,
22401950,Fundamentos Geográficos Do Turismo,,,,,2009,,,,171,0,Spanish,,,,978-85-352-3250-9,,,,,,,,,,,0,,,,,,,1,9729653,pdf,48cc3575feea8a2190462c6f77386e2e,,,A:\\sciencedirect_books\\9788535232509 (8).pdf,0,2000-01-01 01:00:00,2016-04-03 02:51:08,1112000/48cc3575feea8a2190462c6f77386e2e-d.gif,,
22401951,Manual Prático De Assessoria De Imprensa,,,,,2008,,,,126,0,Spanish,,,,978-85-352-3253-0,,,,,,,,,,,0,,,,,,,1,3781340,pdf,262e2fd254abb3c15efe89d5a7d3185c,,,A:\\sciencedirect_books\\9788535232530 (15).pdf,0,2000-01-01 01:00:00,2016-04-03 02:51:08,1112000/262e2fd254abb3c15efe89d5a7d3185c-d.gif,,
22401952,Brasil Pós-Crise,,,,,2009,,,,357,0,Portuguese,,,0,978-85-352-3279-0,,,,,,,,,,,0,,,,,,,1,5394556,pdf,8c30078feddf5edcdacf117037c7b75b,,,A:/sciencedirect_books/9788535232790 (26).pdf,0,2000-01-01 01:00:00,2016-04-03 02:51:08,1112000/8c30078feddf5edcdacf117037c7b75b-d.gif,,
22401953,Sustentabilidade e Geração De Valor,,,,David Zylbersztajn and Clarissa Lins (Auth.),2010,,,,223,0,Spanish,,,,978-85-352-3283-7,,,,,,,,,,,0,,,,,,,1,2151019,pdf,1b47fa37f980aec4b4d04504e818c24b,,,A:\\sciencedirect_books\\9788535232837 (17).pdf,0,2000-01-01 01:00:00,2016-04-03 02:51:08,1112000/1b47fa37f980aec4b4d04504e818c24b-d.gif,,
22401954,O Direito Ao Silêncio Na Jurisprudência Do STF,,,,Thiago Bottino (Auth.),2009,,,,251,0,Portuguese,,,0,978-85-352-3315-5,,,,,,,,,,,0,,,,,,,1,2319328,pdf,3e7053bf58127201daefe1de3bad238d,,,A:/sciencedirect_books/9788535233155 (16).pdf,0,2000-01-01 01:00:00,2016-04-03 02:51:08,1112000/3e7053bf58127201daefe1de3bad238d-d.gif,,
22401955,Projeto Do Produto,,,,"Eduardo Romeiro, Cristiano Ferreira, Redson Gouvinha, Ricardo Naveiro and Paulo Augusto Cauchik (Auth.)",2010,,,,374,0,Spanish,,,,978-85-352-3351-3,,,,,,,,,,,0,,,,,,,1,23250598,pdf,92d60e1a172b5f3310bc81f45ae523e3,,,A:\\sciencedirect_books\\9788535233513 (35).pdf,0,2000-01-01 01:00:00,2016-04-03 02:51:08,1112000/92d60e1a172b5f3310bc81f45ae523e3-d.gif,,
22401956,Confiabilidade e Manutenção Industrial,,,,Flavio Fogliato and Jose Ribeiro (Auth.),2009,,,,267,0,Spanish,,,,978-85-352-3353-7,,,,,,,,,,,0,,,,,,,1,11752924,pdf,eea4d82dc3a3e2518cbeceb9738c46cd,,,A:\\sciencedirect_books\\9788535233537 (20).pdf,0,2000-01-01 01:00:00,2016-04-03 02:51:08,1112000/eea4d82dc3a3e2518cbeceb9738c46cd-d.gif,,
22401957,Curso De Criminologia,,,,Aderlan Crespo (Auth.),2009,,,,211,0,Spanish,,,,978-85-352-3374-2,,,,,,,,,,,0,,,,,,,1,1880447,pdf,114b115c731a66cfff998efe68a0192b,,,A:\\sciencedirect_books\\9788535233742 (19).pdf,0,2000-01-01 01:00:00,2016-04-03 02:51:08,1112000/114b115c731a66cfff998efe68a0192b-d.gif,,
22401958,Títulos PúBlicos Sem Segredos,,,,Fabio Pereira (Auth.),2009,,,,134,0,Spanish,,,,978-85-352-3401-5,,,,,,,,,,,0,,,,,,,1,1825867,pdf,d2542deaca50d19ec9e6b738a0b8c582,,,A:\\sciencedirect_books\\9788535234015 (21).pdf,0,2000-01-01 01:00:00,2016-04-03 02:51:08,1112000/d2542deaca50d19ec9e6b738a0b8c582-d.gif,,
22401959,Direito e Tradição,,,,Ari Sólon (Auth.),2009,,,,163,0,Portuguese,,,0,978-85-352-3405-3,,,,,,,,,,,0,,,,,,,1,1848170,pdf,a47fbc12e290bbcf278ddfc9087aff42,,,A:/sciencedirect_books/9788535234053 (17).pdf,0,2000-01-01 01:00:00,2016-04-03 02:51:08,1112000/a47fbc12e290bbcf278ddfc9087aff42-d.gif,,
22401960,Empreendedorismo Para Computação,,,,,2009,,,,163,0,Spanish,,,,978-85-352-3417-6,,,,,,,,,,,0,,,,,,,1,3277923,pdf,c95d208797a2a9fcde60b0e6d95def7c,,,A:\\sciencedirect_books\\9788535234176 (12).pdf,0,2000-01-01 01:00:00,2016-04-03 02:51:08,1112000/c95d208797a2a9fcde60b0e6d95def7c-d.gif,,
22401961,Interação Humano-computador,,,,Simone Barbosa and Bruno Silva (Auth.),2010,,,,388,0,Spanish,,,,978-85-352-3418-3,,,,,,,,,,,0,,,,,,,1,6003675,pdf,aeff47a9e7b7beb25f05ea57c102ce62,,,A:\\sciencedirect_books\\9788535234183 (17).pdf,0,2000-01-01 01:00:00,2016-04-03 02:51:08,1112000/aeff47a9e7b7beb25f05ea57c102ce62-d.gif,,
22401962,Introdução À Ciência Da Computação Com Jogos,,,,,2009,,,,266,0,Spanish,,,,978-85-352-3419-0,,,,,,,,,,,0,,,,,,,1,14722956,pdf,1d392bcd40c1c2f9e3f75a60d0b21019,,,A:\\sciencedirect_books\\9788535234190 (19).pdf,0,2000-01-01 01:00:00,2016-04-03 02:51:08,1112000/1d392bcd40c1c2f9e3f75a60d0b21019-d.gif,,
22401963,Pesquisa operacional Para Cursos De Administração,,,,Luiz Paulo Fávero and Patrícia Belfiore (Auth.),2012,,,,360,0,Spanish,,,,978-85-352-3421-3,,,,,,,,,,,0,,,,,,,1,25780005,pdf,a52da9e74fa385b55337f8a3e74f8917,,,A:\\sciencedirect_books\\9788535234213 (14).pdf,0,2000-01-01 01:00:00,2016-04-03 02:51:08,1112000/a52da9e74fa385b55337f8a3e74f8917-d.gif,,
22401964,Iniciação À Pesquisa No Direito,,,,Maria Fonseca (Auth.),2009,,,,179,0,Portuguese,,,0,978-85-352-3451-0,,,,,,,,,,,0,,,,,,,1,1515081,pdf,df001b2c0ed42b6987343b412cb98432,,,A:/sciencedirect_books/9788535234510 (16).pdf,0,2000-01-01 01:00:00,2016-04-03 02:51:08,1112000/df001b2c0ed42b6987343b412cb98432-d.gif,,
22401965,Teoria Geral Do Delito,,,,Bruno Rodrigues (Auth.),2009,,,,265,0,Spanish,,,,978-85-352-3452-7,,,,,,,,,,,0,,,,,,,1,2309376,pdf,01b63e1620627ac8151235c59b798ab3,,,A:\\sciencedirect_books\\9788535234527 (23).pdf,0,2000-01-01 01:00:00,2016-04-03 02:51:08,1112000/01b63e1620627ac8151235c59b798ab3-d.gif,,
22401966,Gestão Estratégica De Pessoas,,,,Rui Andrade and Ana Vilas Boas (Auth.),2010,,,,241,0,Spanish,,,,978-85-352-3453-4,,,,,,,,,,,0,,,,,,,1,2141336,pdf,3b5a83f3f9ce9be74de2f80774a60abf,,,A:\\sciencedirect_books\\9788535234534 (23).pdf,0,2000-01-01 01:00:00,2016-04-03 02:51:08,1112000/3b5a83f3f9ce9be74de2f80774a60abf-d.gif,,
22401967,Análise De Estruturas. Conceitos E Métodos Básicos,,,,Luiz Martha (Auth.),2010,,,,540,0,Spanish,,,,978-85-352-3455-8,,,,,,,,,,,0,,,,,,,1,35294572,pdf,ccb63ace51d660a30bf1b5654cc266b0,,,A:\\sciencedirect_books\\9788535234558 (25).pdf,0,2000-01-01 01:00:00,2016-04-03 02:51:08,1112000/ccb63ace51d660a30bf1b5654cc266b0-d.gif,,
22401968,TGA – Teoria Geral Da Administração,,,,Rui Andrade and Nerio Amboni (Auth.),2011,,,,253,0,Spanish,,,,978-85-352-3456-5,,,,,,,,,,,0,,,,,,,1,3890192,pdf,3baf6c8dfce3a9558d7103921d50d630,,,A:\\sciencedirect_books\\9788535234565 (22).pdf,0,2000-01-01 01:00:00,2016-04-03 02:51:08,1112000/3baf6c8dfce3a9558d7103921d50d630-d.gif,,
22401969,Implantando Uma Empresa. A Partir Do Plano De Empreendimento,,,,"Cesar Salim, Carlos Frederico Ferreira and Helene Salim (Auth.)",2011,,,,345,0,Spanish,,,,978-85-352-3467-1,,,,,,,,,,,0,,,,,,,1,7524046,pdf,4016b02835e046f544152d7ccea55125,,,A:\\sciencedirect_books\\9788535234671 (19).pdf,0,2000-01-01 01:00:00,2016-04-03 02:51:08,1112000/4016b02835e046f544152d7ccea55125-d.gif,,
22401970,"Construindo Planos De Empreendimentos. Negócios Lucrativos, Ações Sociais. E Desenvolvimento Local",,,,César Simões Salim (Auth.),2010,,,,277,0,Spanish,,,,978-85-352-3468-8,,,,,,,,,,,0,,,,,,,1,4433170,pdf,e509080888c538f291d5d5c6a74fb124,,,A:\\sciencedirect_books\\9788535234688 (23).pdf,0,2000-01-01 01:00:00,2016-04-03 02:51:08,1112000/e509080888c538f291d5d5c6a74fb124-d.gif,,
22401971,Introdução Às Opções,,,,,2010,,,,153,0,Spanish,,,,978-85-352-3504-3,,,,,,,,,,,0,,,,,,,1,1285430,pdf,4f4dc91872add8971ffc4d453dc07fb2,,,A:\\sciencedirect_books\\9788535235043 (14).pdf,0,2000-01-01 01:00:00,2016-04-03 02:51:08,1112000/4f4dc91872add8971ffc4d453dc07fb2-d.gif,,
22401972,Why Do We Say That? Por Que Dizemos Isso?,,,,Jack Scholes (Auth.),2009,,,,164,0,Spanish,,,,978-85-352-3505-0,,,,,,,,,,,0,,,,,,,1,2756999,pdf,1f434e9f559fb3dcb9cbdf41c95bec15,,,A:\\sciencedirect_books\\9788535235050 (29).pdf,0,2000-01-01 01:00:00,2016-04-03 02:51:08,1112000/1f434e9f559fb3dcb9cbdf41c95bec15-d.gif,,
22401973,Guia Prático De Qualidade De Vida,,,,,2009,,,,186,0,Spanish,,,,978-85-352-3510-4,,,,,,,,,,,0,,,,,,,1,2922171,pdf,7ab3492227374b4fcd746eea4c700e32,,,A:\\sciencedirect_books\\9788535235104 (31).pdf,0,2000-01-01 01:00:00,2016-04-03 02:51:08,1112000/7ab3492227374b4fcd746eea4c700e32-d.gif,,
22401974,Inglês Para Administração,,,,Francisco Costa and Cristina Schumacher (Auth.),2010,,Campus/Elsevier,,193,0,Spanish,,,,978-85-352-3511-1,,,,,,,,,,,0,,,,,,,1,1221416,pdf,4e7b2594458a6677cd7a0b5f16f8dcd3,,,A:\\sciencedirect_books\\9788535235111 (9).pdf,0,2000-01-01 01:00:00,2016-04-03 02:51:08,1112000/4e7b2594458a6677cd7a0b5f16f8dcd3-d.jpg,,
22401975,Inglês Para Comunicação Social,,,,"Douglas Ceconello, Francisco Costa and Cristina Schumacher (Auth.)",2009,,,,194,0,Spanish,,,,978-85-352-3512-8,,,,,,,,,,,0,,,,,,,1,1758253,pdf,58d5b9c99c45413fd87f8917bf2d9af2,,,A:\\sciencedirect_books\\9788535235128 (12).pdf,0,2000-01-01 01:00:00,2016-04-03 02:51:08,1112000/58d5b9c99c45413fd87f8917bf2d9af2-d.gif,,
22401976,Guia Prático Do Empregado Doméstico,,,,João Neto (Auth.),2009,,,,156,0,Spanish,,,,978-85-352-3516-6,,,,,,,,,,,0,,,,,,,1,2233989,pdf,f34974e1e956aa4f568c07c6723421d3,,,A:\\sciencedirect_books\\9788535235166 (22).pdf,0,2000-01-01 01:00:00,2016-04-03 02:51:08,1112000/f34974e1e956aa4f568c07c6723421d3-d.gif,,
22401977,Higiene e Segurança Do Trabalho,,,,Ubirajara Mattos and Francisco Másculo (Auth.),2011,,,,438,0,Spanish,,,,978-85-352-3520-3,,,,,,,,,,,0,,,,,,,1,21945330,pdf,6b3a6b46304b01cc44da7507f519c9ba,,,A:\\sciencedirect_books\\9788535235203 (24).pdf,0,2000-01-01 01:00:00,2016-04-03 02:51:08,1112000/6b3a6b46304b01cc44da7507f519c9ba-d.gif,,
22401978,Metodologia De Pesquisa Para Ciência Da Computação,,,,Raul Wazlawick (Auth.),2009,,,,163,0,Spanish,,,,978-85-352-3522-7,,,,,,,,,,,0,,,,,,,1,6454345,pdf,e822b9a07fd65de343bf632395f78611,,,A:\\sciencedirect_books\\9788535235227 (15).pdf,0,2000-01-01 01:00:00,2016-04-03 02:51:08,1112000/e822b9a07fd65de343bf632395f78611-d.gif,,
22401979,O Novo Marketing,,,,,2009,,,,348,0,Spanish,,,,978-85-352-3524-1,,,,,,,,,,,0,,,,,,,1,4177083,pdf,fa5c8644abdca0c3695b1699acc66a76,,,A:\\sciencedirect_books\\9788535235241 (18).pdf,0,2000-01-01 01:00:00,2016-04-03 02:51:08,1112000/fa5c8644abdca0c3695b1699acc66a76-d.gif,,
22401980,Engenharia Eletromagnética,,,,José Cardoso (Auth.),2011,,,,474,0,Spanish,,,,978-85-352-3525-8,,,,,,,,,,,0,,,,,,,1,26530922,pdf,ea3a43e5ff3eafab495d8410f9c786b3,,,A:\\sciencedirect_books\\9788535235258 (14).pdf,0,2000-01-01 01:00:00,2016-04-03 02:51:08,1112000/ea3a43e5ff3eafab495d8410f9c786b3-d.gif,,
22401981,O Novo Plano Diretor Do Mercado De Capitais,,,,IBMEC (Auth.),2006,,,,110,0,Spanish,,,,978-85-352-3535-7,,,,,,,,,,,0,,,,,,,1,935300,pdf,f66c2822d7822e79ceba794533758a07,,,A:\\sciencedirect_books\\9788535235357 (11).pdf,0,2000-01-01 01:00:00,2016-04-03 02:51:08,1112000/f66c2822d7822e79ceba794533758a07-d.gif,,
22401982,Lala Aranha - Cartas a Um Jovem Relações-púBlicas,,,,Lala Aranha and Malu Fernandes (Auth.),2010,,,,139,0,Spanish,,,,978-85-352-3537-1,,,,,,,,,,,0,,,,,,,1,786420,pdf,4b93d822897d46120969233514db86a1,,,A:\\sciencedirect_books\\9788535235371 (15).pdf,0,2000-01-01 01:00:00,2016-04-03 02:51:08,1112000/4b93d822897d46120969233514db86a1-d.gif,,
22401983,Risco E Regulação,,,,,2010,,Elsevier,,304,0,Spanish,,,,978-85-352-3544-9,,,,,,,,,,,0,,,,,,,1,4617446,pdf,4376e8723670e1d851dc144b249a0c5e,,,A:\\sciencedirect_books\\9788535235449 (27).pdf,0,2000-01-01 01:00:00,2016-04-03 02:51:08,1112000/4376e8723670e1d851dc144b249a0c5e-d.jpg,,
22401984,Cesar Asfor Rocha – Cartas a Um Jovem Juiz,,,,Cesar Rocha (Auth.),2009,,,,143,0,Spanish,,,,978-85-352-3612-5,,,,,,,,,,,0,,,,,,,1,854474,pdf,7979cee9f0d805ab4a0fc9d7f82b4da0,,,A:\\sciencedirect_books\\9788535236125 (19).pdf,0,2000-01-01 01:00:00,2016-04-03 02:51:08,1112000/7979cee9f0d805ab4a0fc9d7f82b4da0-d.gif,,
22401985,Elaboração E Avaliação De Projetos De Investimento,,,,,2009,,,,264,0,Spanish,,,,978-85-352-3644-6,,,,,,,,,,,0,,,,,,,1,14693610,pdf,f9be8fbac4d68466e597eb144ad27fa4,,,A:\\sciencedirect_books\\9788535236446 (20).pdf,0,2000-01-01 01:00:00,2016-04-03 02:51:08,1112000/f9be8fbac4d68466e597eb144ad27fa4-d.gif,,
22401986,Física Moderna: Exercícios Resolvidos,,,,Francisco Caruso and Vitor Oguri (Auth.),2009,,,,221,0,Spanish,,,,978-85-352-3645-3,,,,,,,,,,,0,,,,,,,1,3016333,pdf,ca48d966b97595442f058d37f571a9c3,,,A:\\sciencedirect_books\\9788535236453 (22).pdf,0,2000-01-01 01:00:00,2016-04-03 02:51:08,1112000/ca48d966b97595442f058d37f571a9c3-d.gif,,
22401987,Governança Corporativa No Brasil e No Mundo,,,,Alexandre Di Miceli (Auth.),2010,,,,401,0,Portuguese,,,0,978-85-352-3648-4,,,,,,,,,,,0,,,,,,,1,3428108,pdf,81c797ee6ca99ecdacb2c6c3c53c2f8c,,,A:/sciencedirect_books/9788535236484 (16).pdf,0,2000-01-01 01:00:00,2016-04-03 02:51:08,1112000/81c797ee6ca99ecdacb2c6c3c53c2f8c-d.gif,,
22401988,Introdução Ao Estudo Do Turismo,,,,,2009,,,,141,0,Spanish,,,,978-85-352-3649-1,,,,,,,,,,,0,,,,,,,1,1625387,pdf,307589ca8f4c916720f570430af0802e,,,A:\\sciencedirect_books\\9788535236491 (16).pdf,0,2000-01-01 01:00:00,2016-04-03 02:51:08,1112000/307589ca8f4c916720f570430af0802e-d.gif,,
22401989,Gramática De Inglês Para Brasileiros,,,,Cristina Schumacher (Auth.),2010,,,,275,0,Portuguese,,,0,978-85-352-3679-8,,,,,,,,,,,0,,,,,,,1,3207308,pdf,0518a379357a694b725a40f43b42c667,,,A:/sciencedirect_books/9788535236798 (30).pdf,0,2000-01-01 01:00:00,2016-04-03 02:51:08,1112000/0518a379357a694b725a40f43b42c667-d.gif,,
22401990,Administrando Micro e Pequenas Empresas,,,,Antonio Lemes and Beatriz Pisa (Auth.),2010,,,,220,0,Spanish,,,,978-85-352-3698-9,,,,,,,,,,,0,,,,,,,1,11560381,pdf,a49c7df675b85a3c20c8020428fa8a90,,,A:\\sciencedirect_books\\9788535236989 (18).pdf,0,2000-01-01 01:00:00,2016-04-03 02:51:08,1112000/a49c7df675b85a3c20c8020428fa8a90-d.gif,,
22401991,Estratégias De Gestão,,,,,2009,,,,272,0,Spanish,,,,978-85-352-3700-9,,,,,,,,,,,0,,,,,,,1,12896338,pdf,43e86b7d4d64228b62fbd692b55e3853,,,A:\\sciencedirect_books\\9788535237009 (14).pdf,0,2000-01-01 01:00:00,2016-04-03 02:51:08,1112000/43e86b7d4d64228b62fbd692b55e3853-d.gif,,
22401992,Introdução À Programação orientada a objetos Com C++,,,,Antonio Mendes (Auth.),2010,,,,289,0,Spanish,92,,,978-85-352-3702-3,,,,,,,,,,,0,,,,,,,1,20414330,pdf,8714c9151eb7d23d5f5f6d3e8f6e117b,,,A:\\sciencedirect_books\\9788535237023 (19).pdf,0,2000-01-01 01:00:00,2016-04-03 02:51:08,1112000/8714c9151eb7d23d5f5f6d3e8f6e117b-d.gif,,
22401993,Administração De Materiais,,,,Paulo Gonçalves (Auth.),2010,,,,393,0,Spanish,,,,978-85-352-3715-3,,,,,,,,,,,0,,,,,,,1,5360565,pdf,b9e1b9dff849005a7ecfffbcdcdd3022,,,A:\\sciencedirect_books\\9788535237153 (21).pdf,0,2000-01-01 01:00:00,2016-04-03 02:51:08,1112000/b9e1b9dff849005a7ecfffbcdcdd3022-d.gif,,
22401994,Curso Prático De Argumentação Jurídica,,,,Felipe Asensi (Auth.),2010,,,,145,0,Spanish,,,,978-85-352-3736-8,,,,,,,,,,,0,,,,,,,1,1184322,pdf,d187815b3664284b0d0499474765f873,,,A:\\sciencedirect_books\\9788535237368 (15).pdf,0,2000-01-01 01:00:00,2016-04-03 02:51:08,1112000/d187815b3664284b0d0499474765f873-d.gif,,
22401995,Probabilidade e Estatística. Quantificando A Incerteza,,,,"Joao Pinheiro, Sonia Cunha, Gastao Gomes and Santiago Carvajal (Auth.)",2012,,,,554,0,Spanish,,,,978-85-352-3757-3,,,,,,,,,,,0,,,,,,,1,30289130,pdf,277819bc08b6fe7c9f07ae9c8a2440ca,,,A:\\sciencedirect_books\\9788535237573 (23).pdf,0,2000-01-01 01:00:00,2016-04-03 02:51:08,1112000/277819bc08b6fe7c9f07ae9c8a2440ca-d.gif,,
22401996,Economia Do Meio Ambiente,,,,"Peter May, Maria Cecilia Lustosa and Valé Vinha (Auth.)",2010,,,,385,0,Spanish,,,,978-85-352-3765-8,,,,,,,,,,,0,,,,,,,1,3918165,pdf,d9ae322a03dbeaa5aa8e899d209d9c1a,,,A:\\sciencedirect_books\\9788535237658 (22).pdf,0,2000-01-01 01:00:00,2016-04-03 02:51:08,1112000/d9ae322a03dbeaa5aa8e899d209d9c1a-d.gif,,
22401997,Ergonomia. Trabalho Adequado E Eficiente,,,,Francisco Soares Masculo and Mario Cesar Vidal (Auth.),2011,,,,616,0,Spanish,,,,978-85-352-3802-0,,,,,,,,,,,0,,,,,,,1,53390675,pdf,6438923cdedc34ee5d77c2d5ac52c15f,,,A:\\sciencedirect_books\\9788535238020 (47).pdf,0,2000-01-01 01:00:00,2016-04-03 02:51:08,1112000/6438923cdedc34ee5d77c2d5ac52c15f-d.gif,,
22401998,"Administração Financeira. Príncipios, Fundamentos E Práticas Brasileiras",,,,"Ana Cherobim, Antonio Lemes and Claudio Rigo (Auth.)",2010,,,,598,0,Portuguese,,,0,978-85-352-3804-4,,,,,,,,,,,0,,,,,,,1,31936707,pdf,b7f09f1d1e42793c920caac814b7743b,,,A:/sciencedirect_books/9788535238044 (26).pdf,0,2000-01-01 01:00:00,2016-04-03 02:51:08,1112000/b7f09f1d1e42793c920caac814b7743b-d.gif,,
22401999,Materiais e Design. A Arte E Ciência Da Seleção De Materiais No Projeto Do Produto,,,,Michael Ashby and Kara Johnson (Auth.),2011,,,,350,0,Spanish,,,,978-85-352-3842-6,,,,,,,,,,,0,,,,,,,1,64383323,pdf,d6279c4653a2c0bb8ecd6a8abbee65c2,,,A:\\sciencedirect_books\\9788535238426 (24).pdf,0,2000-01-01 01:00:00,2016-04-03 02:51:08,1112000/d6279c4653a2c0bb8ecd6a8abbee65c2-d.gif,,
22402000,"Preços, orçamentos e Custos Industriais",,,,"Hélisson Akira, Reinaldo Costa and Freires Jr. (Auth.)",2010,,,,220,0,Spanish,,,,978-85-352-3843-3,,,,,,,,,,,0,,,,,,,1,17185113,pdf,1854a8393f3f7abcf0253d2e728111b5,,,A:\\sciencedirect_books\\9788535238433 (16).pdf,0,2000-01-01 01:00:00,2016-04-03 02:51:08,1112000/1854a8393f3f7abcf0253d2e728111b5-d.gif,,
22402001,Orçamento E Contabilidade Pública.,,,,,2010,,,,777,0,Spanish,,,,978-85-352-3858-7,,,,,,,,,,,0,,,,,,,1,3989400,pdf,951a3121f602b1587ef709909452ac0b,,,A:\\sciencedirect_books\\9788535238587 (18).pdf,0,2000-01-01 01:00:00,2016-04-03 02:51:08,1112000/951a3121f602b1587ef709909452ac0b-d.gif,,
22402002,A Efetividade Do Direito e Do Processo Do Trabalho,,,,"Ives Martins Filho, Maurício Delgado, Ney Prado and Araújo (Auth.)",2010,,,,304,0,Portuguese,,,0,978-85-352-3864-8,,,,,,,,,,,0,,,,,,,1,3047447,pdf,2d67d239a801f3d0911b807832dcb6eb,,,A:/sciencedirect_books/9788535238648 (23).pdf,0,2000-01-01 01:00:00,2016-04-03 02:51:08,1112000/2d67d239a801f3d0911b807832dcb6eb-d.gif,,
22402003,Erre Mais!,,,,,2010,,,,168,0,Spanish,,,,978-85-352-3867-9,,,,,,,,,,,0,,,,,,,1,3453364,pdf,6eb61a41b1efadf4b70d2c844dd36f97,,,A:\\sciencedirect_books\\9788535238679 (69).pdf,0,2000-01-01 01:00:00,2016-04-03 02:51:08,1112000/6eb61a41b1efadf4b70d2c844dd36f97-d.gif,,
22402004,Inglês Essencial Para Concursos,,,,,2010,,,,144,0,Spanish,,,,978-85-352-3871-6,,,,,,,,,,,0,,,,,,,1,2103582,pdf,8c69f7d5815f425a5e68b7d5ec5300ea,,,A:\\sciencedirect_books\\9788535238716 (20).pdf,0,2000-01-01 01:00:00,2016-04-03 02:51:08,1112000/8c69f7d5815f425a5e68b7d5ec5300ea-d.gif,,
22402005,Administração Pública,,,,,2010,,,,471,0,Spanish,,,,978-85-352-3875-4,,,,,,,,,,,0,,,,,,,1,5102148,pdf,9c87f555f3480defd6d8b922df800538,,,A:\\sciencedirect_books\\9788535238754 (24).pdf,0,2000-01-01 01:00:00,2016-04-03 02:51:08,1112000/9c87f555f3480defd6d8b922df800538-d.gif,,
22402006,Sociologia e Administração. Relações Sociais Nas Organizações,,,,"Marilis Almeida, Sidinei Oliveira and Piccinini (Auth.)",2011,,,,305,0,Spanish,,,,978-85-352-3878-5,,,,,,,,,,,0,,,,,,,1,1489554,pdf,a940c25a055003bfaa63997200c1a142,,,A:\\sciencedirect_books\\9788535238785 (25).pdf,0,2000-01-01 01:00:00,2016-04-03 02:51:08,1112000/a940c25a055003bfaa63997200c1a142-d.gif,,
22402007,Ética e Ficção: De Aristóteles a Tolkien,,,,Andra Gandra Filho (Auth.),2010,,,,263,0,Spanish,,,,978-85-352-3880-8,,,,,,,,,,,0,,,,,,,1,20451836,pdf,459fa23c3202e38b57ed89c75028d67a,,,A:\\sciencedirect_books\\9788535238808 (22).pdf,0,2000-01-01 01:00:00,2016-04-03 02:51:08,1112000/459fa23c3202e38b57ed89c75028d67a-d.gif,,
22402008,Noções De Estatística Para Concursos,,,,,2010,,,,142,0,Spanish,,,,978-85-352-3906-5,,,,,,,,,,,0,,,,,,,1,3010064,pdf,c74167d2b3b6ccfac448bf253b92d506,,,A:\\sciencedirect_books\\9788535239065 (19).pdf,0,2000-01-01 01:00:00,2016-04-03 02:51:08,1112000/c74167d2b3b6ccfac448bf253b92d506-d.gif,,
22402009,Análise e Projeto De Sistemas De Informação orientados,,,,Raul Wazlawick (Auth.),2011,,,,331,0,Spanish,,,,978-85-352-3916-4,,,,,,,,,,,0,,,,,,,1,17336342,pdf,dc6b7b86daaca98f1a3330c7695d4508,,,A:\\sciencedirect_books\\9788535239164 (20).pdf,0,2000-01-01 01:00:00,2016-04-03 02:51:08,1112000/dc6b7b86daaca98f1a3330c7695d4508-d.gif,,
22402010,Direito Administrativo Contemporâneo,,,,Rodrigo Schwarz (Auth.),2010,,,,309,0,Portuguese,,,0,978-85-352-3922-5,,,,,,,,,,,0,,,,,,,1,2760253,pdf,ccc159116c4ee2a9dd3f5155cbca1c62,,,A:/sciencedirect_books/9788535239225 (20).pdf,0,2000-01-01 01:00:00,2016-04-03 02:51:08,1112000/ccc159116c4ee2a9dd3f5155cbca1c62-d.gif,,
22402011,Método Dos Elementos Finitos Em Análise De Estruturas,,,,Luiz Eloy (Auth.),2011,,,,284,0,Spanish,,,,978-85-352-3929-4,,,,,,,,,,,0,,,,,,,1,7236452,pdf,692c105ff75ec32237ace9e980ed5e0f,,,A:\\sciencedirect_books\\9788535239294 (16).pdf,0,2000-01-01 01:00:00,2016-04-03 02:51:08,1112000/692c105ff75ec32237ace9e980ed5e0f-d.gif,,
22402012,Finanças e Governança Corporativa,,,,José Neto and Henrique Martins (Auth.),2010,,,,309,0,Spanish,,,,978-85-352-3932-4,,,,,,,,,,,0,,,,,,,1,4327024,pdf,ef444f517c7e2ff66af2503b2cfd9de5,,,A:\\sciencedirect_books\\9788535239324 (18).pdf,0,2000-01-01 01:00:00,2016-04-03 02:51:08,1112000/ef444f517c7e2ff66af2503b2cfd9de5-d.gif,,
22402013,Os Supersinais Da Análise Técnica,,,,,2010,,,,132,0,Spanish,,,,978-85-352-3950-8,,,,,,,,,,,0,,,,,,,1,4481506,pdf,6feae55f1d1835fb7c22e5d2ee67f4cf,,,A:\\sciencedirect_books\\9788535239508 (10).pdf,0,2000-01-01 01:00:00,2016-04-03 02:51:08,1112000/6feae55f1d1835fb7c22e5d2ee67f4cf-d.gif,,
22402014,Tributos Em Espécie,,,,"João Pasin, Ives Martins, Alcides Costa, Thaís Cárnio, Marcelo Campos, Ana Messa, Edison Fernandes, Luciano Amaro and Sergio Martins (Auth.)",2010,,,,450,0,Spanish,,,,978-85-352-3951-5,,,,,,,,,,,0,,,,,,,1,4051685,pdf,672ec138d6843ff8f856e43038728733,,,A:\\sciencedirect_books\\9788535239515 (27).pdf,0,2000-01-01 01:00:00,2016-04-03 02:51:08,1112000/672ec138d6843ff8f856e43038728733-d.gif,,
22402015,Comentários Ao Estatuto Da Advocacia,,,,Flávio Azevedo (Auth.),2010,,,,452,0,Spanish,,,,978-85-352-3952-2,,,,,,,,,,,0,,,,,,,1,4559503,pdf,16ae80a2889d3c8cf81b10182b48ba8c,,,A:\\sciencedirect_books\\9788535239522 (42).pdf,0,2000-01-01 01:00:00,2016-04-03 02:51:08,1112000/16ae80a2889d3c8cf81b10182b48ba8c-d.gif,,
22402016,Operando Opções,,,,,2010,,,,225,0,Spanish,,,,978-85-352-3978-2,,,,,,,,,,,0,,,,,,,1,1810164,pdf,b4b2c37d668dd16c916a15cbae5a027f,,,A:\\sciencedirect_books\\9788535239782 (18).pdf,0,2000-01-01 01:00:00,2016-04-03 02:51:08,1112000/b4b2c37d668dd16c916a15cbae5a027f-d.gif,,
22402017,Fundamentos De Administração: Para Cursos De Gestão. Para Cursos De Gestão,,,,Rui Andrade and Nerio Amboni (Auth.),2011,,,,281,0,Spanish,,,,978-85-352-3987-4,,,,,,,,,,,0,,,,,,,1,15733283,pdf,1c4680199786379197e9c448f48f6537,,,A:\\sciencedirect_books\\9788535239874 (22).pdf,0,2000-01-01 01:00:00,2016-04-03 02:51:08,1112000/1c4680199786379197e9c448f48f6537-d.gif,,
22402018,Real Estate. Fundamentos Para Análise De Investimento,,,,"Joao Rocha Lima Jr., Eliana Monetti and Claudio Tavares De Alencar (Auth.)",2011,,,,446,0,Spanish,,,,978-85-352-3988-1,,,,,,,,,,,0,,,,,,,1,4218267,pdf,81e90665314ad776a179c672ccbfd4e6,,,A:\\sciencedirect_books\\9788535239881 (12).pdf,0,2000-01-01 01:00:00,2016-04-03 02:51:08,1112000/81e90665314ad776a179c672ccbfd4e6-d.gif,,
22402019,"Guia Prático De Formação De Preços. Aspectos Mercadológicos, Tributários E Financeiros Para Pequenas E Médias Empresas",,,,Roberto Assef (Auth.),2011,,,,120,0,Spanish,,,,978-85-352-4030-6,,,,,,,,,,,0,,,,,,,1,1196737,pdf,11ff30ee38a52c00d706de43b0d9a44d,,,A:\\sciencedirect_books\\9788535240306 (16).pdf,0,2000-01-01 01:00:00,2016-04-03 02:51:08,1112000/11ff30ee38a52c00d706de43b0d9a44d-d.gif,,
22402020,Gerência De Preços. Como Ferramenta De Marketing,,,,Roberto Assef (Auth.),2011,,,,227,0,Spanish,,,,978-85-352-4031-3,,,,,,,,,,,0,,,,,,,1,1925400,pdf,e1f7d580c992e8a0ce6a1e34299ce628,,,A:\\sciencedirect_books\\9788535240313 (19).pdf,0,2000-01-01 01:00:00,2016-04-03 02:51:08,1112000/e1f7d580c992e8a0ce6a1e34299ce628-d.gif,,
22402021,Diagnóstico Da Cultura Organizacional,,,,,2010,,,,166,0,Spanish,,,,978-85-352-4033-7,,,,,,,,,,,0,,,,,,,1,2329041,pdf,472ea8ff7699f93785d8fc7af2486ffb,,,A:\\sciencedirect_books\\9788535240337 (20).pdf,0,2000-01-01 01:00:00,2016-04-03 02:51:08,1112000/472ea8ff7699f93785d8fc7af2486ffb-d.gif,,
22402022,Investindo Em Opções,,,,,2010,,,,204,0,Spanish,,,,978-85-352-4142-6,,,,,,,,,,,0,,,,,,,1,3180654,pdf,7a6ae571dc8d34bbd46b2be30b7d9ac7,,,A:\\sciencedirect_books\\9788535241426 (31).pdf,0,2000-01-01 01:00:00,2016-04-03 02:51:08,1112000/7a6ae571dc8d34bbd46b2be30b7d9ac7-d.gif,,
22402023,Índio Da Costa – Cartas a Um Jovem Arquiteto,,,,Luis Indio Da Costa (Auth.),2011,,Campus/Elsevier,,121,0,Spanish,,,,978-85-352-4143-3,,,,,,,,,,,0,,,,,,,1,918872,pdf,cf5776dbf28d9b2f91a0673c36168b09,,,A:\\sciencedirect_books\\9788535241433 (20).pdf,0,2000-01-01 01:00:00,2016-04-03 02:51:08,1112000/cf5776dbf28d9b2f91a0673c36168b09-d.jpg,,
22402024,Culpabilidade,,,,Davi Tangerino (Auth.),2011,,,,289,0,Spanish,,,,978-85-352-4148-8,,,,,,,,,,,0,,,,,,,1,11789971,pdf,fc0a9b3ae7da13f29a1583eafd69dddf,,,A:\\sciencedirect_books\\9788535241488 (13).pdf,0,2000-01-01 01:00:00,2016-04-03 02:51:08,1112000/fc0a9b3ae7da13f29a1583eafd69dddf-d.gif,,
22402025,"Justiça, Democracia e Capitalismo",,,,Denis Rosenfiel (Auth.),2010,,,,251,0,Spanish,,,,978-85-352-4180-8,,,,,,,,,,,0,,,,,,,1,1523005,pdf,9f480d9a91942853b4f50c142f9b470a,,,A:\\sciencedirect_books\\9788535241808 (11).pdf,0,2000-01-01 01:00:00,2016-04-03 02:51:08,1112000/9f480d9a91942853b4f50c142f9b470a-d.gif,,
22402026,Crime organizado e Seu Tratamento Jurídico Penal,,,,Luiz Godoy (Auth.),2011,,,,225,0,Spanish,,,,978-85-352-4186-0,,,,,,,,,,,0,,,,,,,1,1773297,pdf,145e772f030ba54f2ce43ec035902e13,,,A:\\sciencedirect_books\\9788535241860 (15).pdf,0,2000-01-01 01:00:00,2016-04-03 02:51:08,1112000/145e772f030ba54f2ce43ec035902e13-d.gif,,
22402027,Responsabilidade Penal Da Pessoa Jurídica,,,,Sérgio Shecaira (Auth.),2011,,,,227,0,Spanish,,,,978-85-352-4195-2,,,,,,,,,,,0,,,,,,,1,1902486,pdf,bf758496a1d5fc6f79fe023370456dd0,,,A:\\sciencedirect_books\\9788535241952 (14).pdf,0,2000-01-01 01:00:00,2016-04-03 02:51:08,1112000/bf758496a1d5fc6f79fe023370456dd0-d.gif,,
22402028,A Economia Brasileira – De Onde Viemos E Onde Estamos,,,,Antonio Leite (Auth.),2011,,,,230,0,Portuguese,,,0,978-85-352-4202-7,,,,,,,,,,,0,,,,,,,1,5128393,pdf,b0b9ab2480076f695bbe98ee9c8646aa,,,A:/sciencedirect_books/9788535242027 (47).pdf,0,2000-01-01 01:00:00,2016-04-03 02:51:08,1112000/b0b9ab2480076f695bbe98ee9c8646aa-d.gif,,
22402029,"Materiais. Engenharia, Ciência, Processamento E Projeto",,,,"Michael Ashby, Hugh Shercliff and David Cebon (Auth.)",2012,,,,647,0,Spanish,,,,978-85-352-4203-4,,,,,,,,,,,0,,,,,,,1,46648025,pdf,9b9ea2556336f4786d8887b1eab1db0f,,,A:\\sciencedirect_books\\9788535242034 (29).pdf,0,2000-01-01 01:00:00,2016-04-03 02:51:08,1112000/9b9ea2556336f4786d8887b1eab1db0f-d.gif,,
22402030,Coisa Julgada Parcial No Processo Civil,,,,José Amorim (Auth.),2011,,,,247,0,Spanish,,,,978-85-352-4210-2,,,,,,,,,,,0,,,,,,,1,1951872,pdf,02b9e063b9308f7838b26a22c630366e,,,A:\\sciencedirect_books\\9788535242102 (14).pdf,0,2000-01-01 01:00:00,2016-04-03 02:51:08,1113000/02b9e063b9308f7838b26a22c630366e-d.gif,,
22402031,"Tributação, Propriedade e Igualdade Fiscal",,,,Marcelo Martins (Auth.),2011,,,,285,0,Spanish,,,,978-85-352-4213-3,,,,,,,,,,,0,,,,,,,1,2790838,pdf,c7222570dfb3f0a0bf4e2f05bf046337,,,A:\\sciencedirect_books\\9788535242133 (15).pdf,0,2000-01-01 01:00:00,2016-04-03 02:51:08,1113000/c7222570dfb3f0a0bf4e2f05bf046337-d.gif,,
22402032,Capitalismo De Laços,,,,,2010,,,,197,0,Spanish,,,,978-85-352-4243-0,,,,,,,,,,,0,,,,,,,1,2056967,pdf,300a549773a278476762d2be94f37f62,,,A:\\sciencedirect_books\\9788535242430 (17).pdf,0,2000-01-01 01:00:00,2016-04-03 02:51:08,1113000/300a549773a278476762d2be94f37f62-d.gif,,
22402033,Psicologia Aplicada À Administração,,,,"Silvia Generali, Micheline Bastianello, Roberto Decourt, Cleber Dutra, Alvaro Guedes, Wallisen Hattori, Natalia Maciel, Jairo Procianoy and Sonia Romero (Auth.)",2011,,,,247,0,Spanish,,,,978-85-352-4298-0,,,,,,,,,,,0,,,,,,,1,10596832,pdf,506eca451a8f612dce070abc0a198a3f,,,A:\\sciencedirect_books\\9788535242980 (17).pdf,0,2000-01-01 01:00:00,2016-04-03 02:51:08,1113000/506eca451a8f612dce070abc0a198a3f-d.gif,,
22402034,Estilística e Discurso,,,,Claudio Henriques (Auth.),2011,,,,264,0,Spanish,,,,978-85-352-4356-7,,,,,,,,,,,0,,,,,,,1,3526237,pdf,16667b9546717af89c51fad4a92ab465,,,A:\\sciencedirect_books\\9788535243567 (25).pdf,0,2000-01-01 01:00:00,2016-04-03 02:51:08,1113000/16667b9546717af89c51fad4a92ab465-d.gif,,
22402035,LéXico e Semântica,,,,Claudio Henriques (Auth.),2011,,,,236,0,Spanish,,,,978-85-352-4357-4,,,,,,,,,,,0,,,,,,,1,4348568,pdf,eb6e3f0910aa0c6103e6591c3ecbea4d,,,A:\\sciencedirect_books\\9788535243574 (25).pdf,0,2000-01-01 01:00:00,2016-04-03 02:51:08,1113000/eb6e3f0910aa0c6103e6591c3ecbea4d-d.gif,,
22402036,Criminologia No Brasil: História e Aplicações Clínicas,,,,"Davi Tangerino, Sérgio Shecaira, Alvino Sá, Fernando Costa, Danilo Cymrot, Thaís Faria, Jovacy Filho, Marianna Gonçalves and Hugo Leonardo (Auth.)",2011,,,,326,0,Portuguese,,,0,978-85-352-4370-3,,,,,,,,,,,0,,,,,,,1,14560248,pdf,d69ba3a971e93b27c7763b1df3e3133c,,,A:/sciencedirect_books/9788535243703 (15).pdf,0,2000-01-01 01:00:00,2016-04-03 02:51:08,1113000/d69ba3a971e93b27c7763b1df3e3133c-d.gif,,
22402037,Curso de Iniciação ao Direito do Trabalho,,,,Rodrigo Schwarz (Auth.),2011,,,,425,0,Portuguese,,,0,978-85-352-4375-8,,,,,,,,,,,0,,,,,,,1,4317064,pdf,3cf3fbc90e3a4bcc1fa593a141533b77,,,A:/sciencedirect_books/9788535243758 (22).pdf,0,2000-01-01 01:00:00,2016-04-03 02:51:08,1113000/3cf3fbc90e3a4bcc1fa593a141533b77-d.gif,,
22402038,Metodologia Da Pesquisa Jurídica,,,,Marcelo Lamy (Auth.),2011,,,,210,0,Spanish,,,,978-85-352-4376-5,,,,,,,,,,,0,,,,,,,1,2766287,pdf,fca881d01c713314e92e2cac46a2af99,,,A:\\sciencedirect_books\\9788535243765 (24).pdf,0,2000-01-01 01:00:00,2016-04-03 02:51:08,1113000/fca881d01c713314e92e2cac46a2af99-d.gif,,
22402039,Informática. Conceitos Básicos,,,,Fernando Velloso (Auth.),2011,,,,386,0,Spanish,,,,978-85-352-4397-0,,,,,,,,,,,0,,,,,,,1,5857091,pdf,3d7c314ffe1c10b3c744ad99348e6d49,,,A:\\sciencedirect_books\\9788535243970 (28).pdf,0,2000-01-01 01:00:00,2016-04-03 02:51:08,1113000/3d7c314ffe1c10b3c744ad99348e6d49-d.gif,,
22402040,Análise Crítica Da Prática Médica,,,,,2010,,,,181,0,Spanish,,,,978-85-352-4427-4,,,,,,,,,,,0,,,,,,,1,1413269,pdf,5ac9939fc739abaaff4255fa9ea16885,,,A:\\sciencedirect_books\\9788535244274 (15).pdf,0,2000-01-01 01:00:00,2016-04-03 02:51:08,1113000/5ac9939fc739abaaff4255fa9ea16885-d.gif,,
22402041,Mercado Financeiro,,,,,2011,,,,172,0,Spanish,,,,978-85-352-4434-2,,,,,,,,,,,0,,,,,,,1,2839105,pdf,1a20589f11b02bbe31fd9d2e62028722,,,A:\\sciencedirect_books\\9788535244342 (23).pdf,0,2000-01-01 01:00:00,2016-04-03 02:51:08,1113000/1a20589f11b02bbe31fd9d2e62028722-d.gif,,
22402042,Introdução À Exploração e Produção De Hidrocarbonetos,,,,"Frank Jahn, Mark Cook, Mark Graham and Doneivan Ferreira (Auth.)",2012,,,,493,0,Spanish,,,,978-85-352-4467-0,,,,,,,,,,,0,,,,,,,1,27011373,pdf,c6a47796ed697d946136f157f3bfb77b,,,A:\\sciencedirect_books\\9788535244670 (24).pdf,0,2000-01-01 01:00:00,2016-04-03 02:51:08,1113000/c6a47796ed697d946136f157f3bfb77b-d.gif,,
22402043,Bem Jurídico Penal,,,,Fábio Canton Filho (Auth.),2012,,,,167,0,Spanish,,,,978-85-352-4469-4,,,,,,,,,,,0,,,,,,,1,11611016,pdf,74e0f26509dd11c7ba4d2525e488a097,,,A:\\sciencedirect_books\\9788535244694 (12).pdf,0,2000-01-01 01:00:00,2016-04-03 02:51:08,1113000/74e0f26509dd11c7ba4d2525e488a097-d.gif,,
22402044,Estatística Para a Qualidade,,,,Sonia Vieira (Auth.),2012,,,,249,0,Spanish,,,,978-85-352-4490-8,,,,,,,,,,,0,,,,,,,1,12616270,pdf,4b193c16608b083de56c9148e42ca4c8,,,A:\\sciencedirect_books\\9788535244908 (26).pdf,0,2000-01-01 01:00:00,2016-04-03 02:51:08,1113000/4b193c16608b083de56c9148e42ca4c8-d.gif,,
22402045,Seleção De Materiais No Projeto Mecânico,,,,Michael Ashby (Auth.),2012,,,,596,0,Spanish,,,,"978-85-352-4521-9,978-1-85617-608-8,978-1-85617-497-8,978-1-85617-663-7",,,,,,,10.1016/B978-1-85617-663-7.00001-1,,,,0,,,,,,,1,103546178,pdf,0e68835c2f7310e139a731a32bd11565,,,A:\\sciencedirect_books\\9788535245219 (27).pdf,0,2000-01-01 01:00:00,2016-04-03 02:51:08,1113000/0e68835c2f7310e139a731a32bd11565-d.gif,,
22402046,Taxa De Câmbio No Brasil,,,,Marcio Brito (Auth.),2011,,,,290,0,Portuguese,,,0,978-85-352-4536-3,,,,,,,,,,,0,,,,,,,1,2629279,pdf,84c4c14540eb26dff5c674682150e779,,,A:/sciencedirect_books/9788535245363 (18).pdf,0,2000-01-01 01:00:00,2016-04-03 02:51:08,1113000/84c4c14540eb26dff5c674682150e779-d.gif,,
22402047,Sistemas Colaborativos,,,,Hugo Fuks and Mariano Pimentel (Auth.),2012,,,,392,0,Spanish,,,,978-85-352-4669-8,,,,,,,,,,,0,,,,,,,1,11190497,pdf,035efdc46fc5bb2e2f84e04ba788a6ad,,,A:\\sciencedirect_books\\9788535246698 (31).pdf,0,2000-01-01 01:00:00,2016-04-03 02:51:08,1113000/035efdc46fc5bb2e2f84e04ba788a6ad-d.gif,,
22402048,Matemática Financeira objetiva e Aplicada,,,,Abelardo Puccini (Auth.),2012,,,,360,0,Spanish,,,,978-85-352-4672-8,,,,,,,,,,,0,,,,,,,1,4318697,pdf,882b88d8dbb4944b697663e6527a8cec,,,A:\\sciencedirect_books\\9788535246728 (21).pdf,0,2000-01-01 01:00:00,2016-04-03 02:51:08,1113000/882b88d8dbb4944b697663e6527a8cec-d.gif,,
22402049,Matemática Financeira objetiva e Aplicada. Edição Compacta,,,,Adriana Puccini and Abelardo Puccini (Auth.),2012,,,,191,0,Spanish,,,,978-85-352-4673-5,,,,,,,,,,,0,,,,,,,1,2503490,pdf,586ed4456534529fbb5071755dd560d2,,,A:\\sciencedirect_books\\9788535246735 (17).pdf,0,2000-01-01 01:00:00,2016-04-03 02:51:08,1113000/586ed4456534529fbb5071755dd560d2-d.gif,,
22402050,Teoria e Prática Da Pesquisa Aplicada,,,,"Rosa Alegria, Pergentino Almeida, Victor Aratangy and B Victor (Auth.)",2012,,,,486,0,Spanish,,,,978-85-352-4675-9,,,,,,,,,,,0,,,,,,,1,51998707,pdf,3d01277c2f7ec7da245d4d933d7a43cb,,,A:\\sciencedirect_books\\9788535246759 (50).pdf,0,2000-01-01 01:00:00,2016-04-03 02:51:08,1113000/3d01277c2f7ec7da245d4d933d7a43cb-d.gif,,
22402051,Casos De Ética Empresarial,,,,Robert Srour (Auth.),2011,,,,174,0,Spanish,,,,978-85-352-4751-0,,,,,,,,,,,0,,,,,,,1,1976896,pdf,f5f539a53179f60ce8a1cc704d77f241,,,A:\\sciencedirect_books\\9788535247510 (15).pdf,0,2000-01-01 01:00:00,2016-04-03 02:51:08,1113000/f5f539a53179f60ce8a1cc704d77f241-d.gif,,
22402052,Turismo e Meio Ambiente,,,,"Reinaldo Teles, Edson Cabral, Silva Maria Nogueira, Thalita Lima, Fabricio Scarpeta, Fernando Kanni, Regina Perussi and Sidnei Raimundo (Auth.)",2011,,,,234,0,Spanish,,,,978-85-352-4752-7,,,,,,,,,,,0,,,,,,,1,4330089,pdf,ecb9aa323b5ecf199cccc5f486deb0cd,,,A:\\sciencedirect_books\\9788535247527 (15).pdf,0,2000-01-01 01:00:00,2016-04-03 02:51:08,1113000/ecb9aa323b5ecf199cccc5f486deb0cd-d.gif,,
22402053,Desigualdades Regionais No Brasil,,,,Alexandre Rands (Auth.),2011,,,,332,0,Portuguese,,,0,978-85-352-4839-5,,,,,,,,,,,0,,,,,,,1,3017055,pdf,89f3c6556eaea0ae598dbe059b831899,,,A:/sciencedirect_books/9788535248395 (22).pdf,0,2000-01-01 01:00:00,2016-04-03 02:51:08,1113000/89f3c6556eaea0ae598dbe059b831899-d.gif,,
22402054,Engenharia De Software,,,,Kechi Hirama (Auth.),2012,,,,211,0,Spanish,,,,978-85-352-4882-1,,,,,,,,,,,0,,,,,,,1,4138795,pdf,82714514c92304d2066b86074bf3943e,,,A:\\sciencedirect_books\\9788535248821 (21).pdf,0,2000-01-01 01:00:00,2016-04-03 02:51:08,1113000/82714514c92304d2066b86074bf3943e-d.gif,,
22402055,Agências de Turismo no Brasil,,,,Marcela Candioto (Auth.),2012,,,,144,0,Portuguese,,,0,978-85-352-4886-9,,,,,,,,,,,0,,,,,,,1,4347558,pdf,3a96a499b27f5a9685d0fdf904ba09d9,,,A:/sciencedirect_books/9788535248869 (17).pdf,0,2000-01-01 01:00:00,2016-04-03 02:51:08,1113000/3a96a499b27f5a9685d0fdf904ba09d9-d.gif,,
22402056,Gestão Da Qualidade. Teoria E Casos,,,,Marly Carvalho and Edson Paladini (Auth.),2012,,,,437,0,Spanish,,,,978-85-352-4887-6,,,,,,,,,,,0,,,,,,,1,32993426,pdf,01f8d011d183d9a0bbff2a41316dc5ff,,,A:\\sciencedirect_books\\9788535248876 (18).pdf,0,2000-01-01 01:00:00,2016-04-03 02:51:08,1113000/01f8d011d183d9a0bbff2a41316dc5ff-d.gif,,
22402057,Metodologia De Pesquisa Em Engenharia De Produção,,,,"Paulo Cauchick, Reinaldo Morabito and Vi Pureza (Auth.)",2012,,,,265,0,Spanish,,,,"978-85-352-4891-3,978-85-352-4850-0",,,,,,,,,,,0,,,,,,,1,18327819,pdf,45e944f30218e1f4aaad3bfe67600ea8,,,A:\\sciencedirect_books\\9788535248913 (23).pdf,0,2000-01-01 01:00:00,2016-04-03 02:51:08,1113000/45e944f30218e1f4aaad3bfe67600ea8-d.gif,,
22402058,Novos Domínios Da História,,,,Ronaldo Vainfas and Ciro Cardoso (Auth.),2012,,,,338,0,Spanish,,,,978-85-352-4892-0,,,,,,,,,,,0,,,,,,,1,28463136,pdf,1006a32f2ab8ce10487c7a030673a478,,,A:\\sciencedirect_books\\9788535248920 (23).pdf,0,2000-01-01 01:00:00,2016-04-03 02:51:08,1113000/1006a32f2ab8ce10487c7a030673a478-d.gif,,
22402059,Pesquisa operacional Para Cursos De Engenharia,,,,Patrícia Belfiore and Luiz Paulo Fávero (Auth.),2013,,,,545,0,Spanish,,,,978-85-352-4893-7,,,,,,,,,,,0,,,,,,,1,45839316,pdf,4e13ad4e6cfaf13095b4f776235f2a0c,,,A:\\sciencedirect_books\\9788535248937 (15).pdf,0,2000-01-01 01:00:00,2016-04-03 02:51:08,1113000/4e13ad4e6cfaf13095b4f776235f2a0c-d.gif,,
22402060,Planejamento e Controle orçamentário,,,,Jocildo Correia Neto (Auth.),2011,,,,248,0,Spanish,,,,978-85-352-4894-4,,,,,,,,,,,0,,,,,,,1,17017926,pdf,ad5e83d38382da62044dea0bd931eccb,,,A:\\sciencedirect_books\\9788535248944 (17).pdf,0,2000-01-01 01:00:00,2016-04-03 02:51:08,1113000/ad5e83d38382da62044dea0bd931eccb-d.gif,,
22402061,Planejamento e organização Do Turismo,,,,Ivan Fernandes (Auth.),2012,,,,203,0,Spanish,,,,978-85-352-4895-1,,,,,,,,,,,0,,,,,,,1,8834661,pdf,5d7049b49dd39f6db116de5d4828592a,,,A:\\sciencedirect_books\\9788535248951 (27).pdf,0,2000-01-01 01:00:00,2016-04-03 02:51:08,1113000/5d7049b49dd39f6db116de5d4828592a-d.gif,,
22402062,Comunicação Integrada De Marketing. A Teoria Na Prática,,,,"Celso Gomes, Claudio Neto and Perrotti Pasquale (Auth.)",2012,,,,184,0,Spanish,,,,978-85-352-4900-2,,,,,,,,,,,0,,,,,,,1,9801208,pdf,7f1e6d39e90f06c92938c54e60b50b61,,,A:\\sciencedirect_books\\9788535249002 (20).pdf,0,2000-01-01 01:00:00,2016-04-03 02:51:08,1113000/7f1e6d39e90f06c92938c54e60b50b61-d.gif,,
22402063,"Processo, Procedimento e Ato Processual. O Plano Da Eficácia",,,,Sandro Martins (Auth.),2012,,,,237,0,Spanish,,,,978-85-352-5017-6,,,,,,,,,,,0,,,,,,,1,16994611,pdf,35e7fd3be3383b05046549c9237e5e61,,,A:\\sciencedirect_books\\9788535250176 (12).pdf,0,2000-01-01 01:00:00,2016-04-03 02:51:08,1113000/35e7fd3be3383b05046549c9237e5e61-d.gif,,
22402064,"EAD Na Prática. Planejamento, Métodos E Ambientes",,,,"Dilermano Piva Jr., Joao Ricardo Pupo, Luciano Gamez and Saullo Oliveira (Auth.)",2012,,,,196,0,Spanish,,,,978-85-352-5019-0,,,,,,,,,,,0,,,,,,,1,5862696,pdf,facc8736fe01ef80cb323bb1e45e8bea,,,A:\\sciencedirect_books\\9788535250190 (16).pdf,0,2000-01-01 01:00:00,2016-04-03 02:51:08,1113000/facc8736fe01ef80cb323bb1e45e8bea-d.gif,,
22402065,Organização Básica De Computadores e Linguagem De Montagem,,,,"Dilermando Junior, Frank Behrens and Ricardo Pannain (Auth.)",2012,,,,399,0,Spanish,,,,978-85-352-5021-3,,,,,,,,,,,0,,,,,,,1,31077651,pdf,fb0337ec83cf8791c5ab00009b578ede,,,A:\\sciencedirect_books\\9788535250213 (26).pdf,0,2000-01-01 01:00:00,2016-04-03 02:51:08,1113000/fb0337ec83cf8791c5ab00009b578ede-d.gif,,
22402066,Elementos De Jornalismo Econômico,,,,Sidnei Basile (Auth.),2012,,,,275,0,Spanish,,,,978-85-352-5027-5,,,,,,,,,,,0,,,,,,,1,2425118,pdf,84360e599637eccd9f7b923810b12105,,,A:\\sciencedirect_books\\9788535250275 (27).pdf,0,2000-01-01 01:00:00,2016-04-03 02:51:08,1113000/84360e599637eccd9f7b923810b12105-d.gif,,
22402067,Algoritmos e Programação De Computadores,,,,"Dilermando Junior, Gilberto Nakamiti and An Engelbrecht (Auth.)",2012,,,,503,0,Spanish,,,,978-85-352-5031-2,,,,,,,,,,,0,,,,,,,1,19528801,pdf,d42c840c69218f749367ffd3a2fd0278,,,A:\\sciencedirect_books\\9788535250312 (24).pdf,0,2000-01-01 01:00:00,2016-04-03 02:51:08,1113000/d42c840c69218f749367ffd3a2fd0278-d.gif,,
22402068,Seu Futuro Em Administração,,,,Leandro Vieira (Auth.),2011,,,,166,0,Spanish,,,,978-85-352-5056-5,,,,,,,,,,,0,,,,,,,1,1785956,pdf,7ac84d9c0fe883f2a21b051c351493ab,,,A:\\sciencedirect_books\\9788535250565 (28).pdf,0,2000-01-01 01:00:00,2016-04-03 02:51:08,1113000/7ac84d9c0fe883f2a21b051c351493ab-d.gif,,
22402069,Cinema Digital e 35 Mm,,,,Luiz Luca (Auth.),2011,,,,224,0,Spanish,,,,978-85-352-5078-7,,,,,,,,,,,0,,,,,,,1,6359946,pdf,42fe94e90ad45f91fb331a3e97e32794,,,A:\\sciencedirect_books\\9788535250787 (14).pdf,0,2000-01-01 01:00:00,2016-04-03 02:51:08,1113000/42fe94e90ad45f91fb331a3e97e32794-d.gif,,
22402070,Projeto De Centros De Distribuição,,,,Darli Vieira and Michel Roux (Auth.),2011,,,,254,0,Spanish,,,,978-85-352-5113-5,,,,,,,,,,,0,,,,,,,1,12674170,pdf,e8bceaba9927760c8c0aee538487a3d1,,,A:\\sciencedirect_books\\9788535251135 (32).pdf,0,2000-01-01 01:00:00,2016-04-03 02:51:08,1113000/e8bceaba9927760c8c0aee538487a3d1-d.gif,,
22402071,Lei Nº 12.403/2011 – o Novo Processo Penal Cautelar,,,,André Nicolitt (Auth.),2011,,,,150,0,Spanish,,,,978-85-352-5121-0,,,,,,,,,,,0,,,,,,,1,1714848,pdf,ba619935578b54cdfe6435e9e78a3681,,,A:\\sciencedirect_books\\9788535251210 (11).pdf,0,2000-01-01 01:00:00,2016-04-03 02:51:08,1113000/ba619935578b54cdfe6435e9e78a3681-d.gif,,
22402072,Judicialização ou Representação?,,,,Thamy Pogrebinschi (Auth.),2011,,,,205,0,Spanish,,,,978-85-352-5150-0,,,,,,,,,,,0,,,,,,,1,1276999,pdf,1c14fb29e9f725d30d30c00174e4b7a3,,,A:\\sciencedirect_books\\9788535251500 (15).pdf,0,2000-01-01 01:00:00,2016-04-03 02:51:08,1113000/1c14fb29e9f725d30d30c00174e4b7a3-d.gif,,
22402073,Desenvolvimento Econômico. Uma Perspectiva Brasileira,,,,"Fabio Giambiagi, Fernando Veloso, Pedro Cavalcanti Ferreira and Samuel Pessoa (Auth.)",2013,,,,467,0,Portuguese,,,0,978-85-352-5155-5,,,,,,,,,,,0,,,,,,,1,3170903,pdf,747707471287a761b8abd149838971bf,,,A:/sciencedirect_books/9788535251555 (22).pdf,0,2000-01-01 01:00:00,2016-04-03 02:51:08,1113000/747707471287a761b8abd149838971bf-d.gif,,
22402074,Gestão Ambiental De Unidades Produtivas,,,,"Paulo Adissi, Jose Almeida Neto, Thiago Almeida, Rita Braga, Renata Camara, Rosangela Cardoso, Josires Curi, Wilson Curi and Sergio Franca (Auth.)",2013,,,,461,0,Spanish,,,,978-85-352-5159-3,,,,,,,,,,,0,,,,,,,1,24997496,pdf,367dc4a677f953d5e09553a8877cbace,,,A:\\sciencedirect_books\\9788535251593 (22).pdf,0,2000-01-01 01:00:00,2016-04-03 02:51:08,1113000/367dc4a677f953d5e09553a8877cbace-d.gif,,
22402075,Gestão Socioambiental,,,,Rui Andrade and Elio Tachizawa (Auth.),2012,,,,266,0,Spanish,,,,978-85-352-5174-6,,,,,,,,,,,0,,,,,,,1,1930127,pdf,aa68251f6b9fa0f837fdd32e71c48913,,,A:\\sciencedirect_books\\9788535251746 (15).pdf,0,2000-01-01 01:00:00,2016-04-03 02:51:08,1113000/aa68251f6b9fa0f837fdd32e71c48913-d.gif,,
22402076,Auditoria Logística,,,,Darli Vieira and Michel Roux (Auth.),2012,,,,240,0,Spanish,,,,978-85-352-5334-4,,,,,,,,,,,0,,,,,,,1,113575434,pdf,0c5c96b538c517fa56e02ca05b6a34dd,,,A:\\sciencedirect_books\\9788535253344 (19).pdf,0,2000-01-01 01:00:00,2016-04-03 02:51:08,1113000/0c5c96b538c517fa56e02ca05b6a34dd-d.gif,,
22402077,"Manual De Jornalismo Para Rádio, TV e Novas Mídias",,,,Herodoto Barbeiro and Paulo Rodolfo De Lima (Auth.),2013,,,,214,0,Spanish,,,,978-85-352-5335-1,,,,,,,,,,,0,,,,,,,1,9142664,pdf,651017d306e42fc1e9995a9391c65f59,,,A:\\sciencedirect_books\\9788535253351 (30).pdf,0,2000-01-01 01:00:00,2016-04-03 02:51:08,1113000/651017d306e42fc1e9995a9391c65f59-d.gif,,
22402078,Avaliação De Desempenho Humano,,,,Jean Pierre Marras and Marilia Tose (Auth.),2012,,,,135,0,Spanish,,,,978-85-352-5337-5,,,,,,,,,,,0,,,,,,,1,6242031,pdf,495e31e387d2cae65015d7d1bbd93b38,,,A:\\sciencedirect_books\\9788535253375 (19).pdf,0,2000-01-01 01:00:00,2016-04-03 02:51:08,1113000/495e31e387d2cae65015d7d1bbd93b38-d.gif,,
22402079,Estresse ocupacional,,,,Jean Marras and Henrique Veloso (Auth.),2012,,,,157,0,Spanish,,,,978-85-352-5338-2,,,,,,,,,,,0,,,,,,,1,7286529,pdf,97f2b777851fc17e44fea8bda6b12432,,,A:\\sciencedirect_books\\9788535253382 (12).pdf,0,2000-01-01 01:00:00,2016-04-03 02:51:08,1113000/97f2b777851fc17e44fea8bda6b12432-d.gif,,
22402080,Remuneração Estratégica,,,,Jean Pierre Marras and Pietro Neto (Auth.),2012,,,,158,0,Spanish,,,,978-85-352-5339-9,,,,,,,,,,,0,,,,,,,1,7311590,pdf,60e7365de434157f4f496cedd18f3f10,,,A:\\sciencedirect_books\\9788535253399 (17).pdf,0,2000-01-01 01:00:00,2016-04-03 02:51:08,1113000/60e7365de434157f4f496cedd18f3f10-d.gif,,
22402081,Coaching Executivo,,,,"Victoria Bloch, Luiz Visconte and João Almeida (Auth.)",2011,,,,153,0,Spanish,,,,978-85-352-5357-3,,,,,,,,,,,0,,,,,,,1,1174637,pdf,9d185abcddbbdf3a57929e27039cf3d1,,,A:\\sciencedirect_books\\9788535253573 (19).pdf,0,2000-01-01 01:00:00,2016-04-03 02:51:08,1113000/9d185abcddbbdf3a57929e27039cf3d1-d.gif,,
22402082,Lean Seis Sigma,,,,Cristina Werkema (Auth.),2012,,,,111,0,Spanish,,,,978-85-352-5384-9,,,,,,,,,,,0,,,,,,,1,14598239,pdf,cf1066de91347cf127fa557a6af6a47d,,,A:\\sciencedirect_books\\9788535253849 (19).pdf,0,2000-01-01 01:00:00,2016-04-03 02:51:08,1113000/cf1066de91347cf127fa557a6af6a47d-d.gif,,
22402083,Avaliação De Sistemas De Medição,,,,Cristina Werkema (Auth.),2012,,,,110,0,Spanish,,,,978-85-352-5386-3,,,,,,,,,,,0,,,,,,,1,14297864,pdf,4e6bf2f694c627aae2cd546cb9e86303,,,A:\\sciencedirect_books\\9788535253863 (12).pdf,0,2000-01-01 01:00:00,2016-04-03 02:51:08,1113000/4e6bf2f694c627aae2cd546cb9e86303-d.gif,,
22402084,Perguntas e Respostas Sobre o Lean Seis Sigma,,,,Cristina Werkema (Auth.),2012,,,,220,0,Spanish,,,,978-85-352-5388-7,,,,,,,,,,,0,,,,,,,1,19347128,pdf,2828c9c056cc416d8589b220f45b85dd,,,A:\\sciencedirect_books\\9788535253887 (23).pdf,0,2000-01-01 01:00:00,2016-04-03 02:51:08,1113000/2828c9c056cc416d8589b220f45b85dd-d.gif,,
22402085,Processo Penal – Série Universitária,,,,Gustavo Badaró (Auth.),2012,,,,842,0,Spanish,,,,978-85-352-5409-9,,,,,,,,,,,0,,,,,,,1,10005529,pdf,3ac8d52c3bfd7d47ba6a76683bfc1ab2,,,A:\\sciencedirect_books\\9788535254099 (24).pdf,0,2000-01-01 01:00:00,2016-04-03 02:51:08,1113000/3ac8d52c3bfd7d47ba6a76683bfc1ab2-d.gif,,
22402086,Interpretação Dos Direitos e Movimentos Sociais,,,,Celso Campilongo (Auth.),2012,,,,215,0,Portuguese,,,0,978-85-352-5410-5,,,,,,,,,,,0,,,,,,,1,10788016,pdf,5a1bcda172801ea56ce354c974130b88,,,A:/sciencedirect_books/9788535254105 (12).pdf,0,2000-01-01 01:00:00,2016-04-03 02:51:08,1113000/5a1bcda172801ea56ce354c974130b88-d.gif,,
22402087,Criando a Cultura Lean Seis Sigma,,,,Cristina Werkema (Auth.),2012,,,,253,0,Spanish,,,,978-85-352-5425-9,,,,,,,,,,,0,,,,,,,1,40568011,pdf,34bdf6dd8287fb72087bee555237d30c,,,A:\\sciencedirect_books\\9788535254259 (19).pdf,0,2000-01-01 01:00:00,2016-04-03 02:51:08,1113000/34bdf6dd8287fb72087bee555237d30c-d.gif,,
22402088,DFLSS - Design for Lean Six Sigma. Ferramentas Básicas Usadas Nas Etapas D E M Do DMADV,,,,Cristina Werkema (Auth.),2012,,,,261,0,Spanish,,,,978-85-352-5427-3,,,,,,,,,,,0,,,,,,,1,40698462,pdf,868d42e7a4e5399e234ec61ab8a7c2e4,,,A:\\sciencedirect_books\\9788535254273 (12).pdf,0,2000-01-01 01:00:00,2016-04-03 02:51:08,1113000/868d42e7a4e5399e234ec61ab8a7c2e4-d.gif,,
22402089,Métodos Pdca e Demaic e Suas Ferramentas Analíticas,,,,Cristina Werkema (Auth.),2013,,,,197,0,Spanish,,,,978-85-352-5429-7,,,,,,,,,,,0,,,,,,,1,20892336,pdf,1b8cad6b018de0645af12d6585a8b580,,,A:\\sciencedirect_books\\9788535254297 (15).pdf,0,2000-01-01 01:00:00,2016-04-03 02:51:08,1113000/1b8cad6b018de0645af12d6585a8b580-d.gif,,
22402090,"Direito Comercial. Passado, Presente E Futuro",,,,Cássio Cavalli (Auth.),2012,,,,266,0,Portuguese,,,0,978-85-352-5515-7,,,,,,,,,,,0,,,,,,,1,2424989,pdf,eed5b06997041af29506acb203e838db,,,A:/sciencedirect_books/9788535255157 (19).pdf,0,2000-01-01 01:00:00,2016-04-03 02:51:08,1113000/eed5b06997041af29506acb203e838db-d.gif,,
22402091,STF. Do Autoritarismo À Democracia,,,,Fabiana Oliveira (Auth.),2012,,,,184,0,Spanish,,,,978-85-352-5516-4,,,,,,,,,,,0,,,,,,,1,1473758,pdf,66574ce5a664231d258637807c8010f9,,,A:\\sciencedirect_books\\9788535255164 (12).pdf,0,2000-01-01 01:00:00,2016-04-03 02:51:08,1113000/66574ce5a664231d258637807c8010f9-d.gif,,
22402092,"Nazismo, Cinema e Direito",,,,Gabriel Lacerda (Auth.),2012,,,,159,0,Portuguese,,,0,978-85-352-5517-1,,,,,,,,,,,0,,,,,,,1,4029668,pdf,bfbac0f19244c88281c914e9b7245778,,,A:/sciencedirect_books/9788535255171 (23).pdf,0,2000-01-01 01:00:00,2016-04-03 02:51:08,1113000/bfbac0f19244c88281c914e9b7245778-d.gif,,
22402093,Separação De Poderes e Medidas Provisórias,,,,Pedro Abramovay (Auth.),2012,,,,107,0,Spanish,,,,978-85-352-5518-8,,,,,,,,,,,0,,,,,,,1,980464,pdf,43aff2cba13da1da2a4c172ff7937df5,,,A:\\sciencedirect_books\\9788535255188 (12).pdf,0,2000-01-01 01:00:00,2016-04-03 02:51:08,1113000/43aff2cba13da1da2a4c172ff7937df5-d.gif,,
22402094,Direito Ambiental. Doutrina E Casos Práticos,,,,Rômulo Sampaio (Auth.),2012,,,,411,0,Portuguese,,,0,978-85-352-5519-5,,,,,,,,,,,0,,,,,,,1,3005321,pdf,dc76a174bef3560d718cf1d54a9f52b8,,,A:/sciencedirect_books/9788535255195 (18).pdf,0,2000-01-01 01:00:00,2016-04-03 02:51:08,1113000/dc76a174bef3560d718cf1d54a9f52b8-d.gif,,
22402095,Direito das Famílias. Limitações Ao Poder De Tributar,,,,Adriana Maluf (Auth.),2012,,,,515,0,Portuguese,,,0,978-85-352-5520-1,,,,,,,,,,,0,,,,,,,1,23601642,pdf,aee9087778a22bc755426d2d00b4095b,,,A:/sciencedirect_books/9788535255201 (20).pdf,0,2000-01-01 01:00:00,2016-04-03 02:51:08,1113000/aee9087778a22bc755426d2d00b4095b-d.gif,,
22402096,O Novo Aviso Prévio. De Acordo Com A Lei 12.506/2001,,,,Gleibe Pretti (Auth.),2012,,,,81,0,Spanish,,,,978-85-352-5575-1,,,,,,,,,,,0,,,,,,,1,1252037,pdf,bcc7d752ea7cb506aee5dd646cf3306b,,,A:\\sciencedirect_books\\9788535255751 (9).pdf,0,2000-01-01 01:00:00,2016-04-03 02:51:08,1113000/bcc7d752ea7cb506aee5dd646cf3306b-d.gif,,
22402097,"Metrologia e Controle Dimensional. Conceitos, Normas E Aplicação",,,,Joao Neto (Auth.),2012,,,,242,0,Spanish,,,,978-85-352-5579-9,,,,,,,,,,,0,,,,,,,1,3302092,pdf,4555fe2055cdc8aa79bff9c98a54abba,,,A:\\sciencedirect_books\\9788535255799 (17).pdf,0,2000-01-01 01:00:00,2016-04-03 02:51:08,1113000/4555fe2055cdc8aa79bff9c98a54abba-d.gif,,
22402098,Imunidades Tributárias,,,,"Elizabeth Carrazza, Daniel Moreti, Roque Carrazza, Marcio Costa, Vitor Flores, Tacio Gama, Fernando Jesus, Isabela Jesus and Ricardo Jesus (Auth.)",2012,,,,268,0,Spanish,,,,978-85-352-5606-2,,,,,,,,,,,0,,,,,,,1,13543366,pdf,9c28927beed7bf3aa7ad5855a96b6288,,,A:\\sciencedirect_books\\9788535256062 (18).pdf,0,2000-01-01 01:00:00,2016-04-03 02:51:08,1113000/9c28927beed7bf3aa7ad5855a96b6288-d.gif,,
22402099,Práticas De Empreendedorismo. Casos E Planos De Negócios,,,,"Marcos Hashimoto, Rose Mary Lopes, Tales Andreassi and Vania Maria Nassif (Auth.)",2012,,,,211,0,Spanish,,,,978-85-352-5699-4,,,,,,,,,,,0,,,,,,,1,2100145,pdf,20653b84a2920ef0d75198b1b716f056,,,A:\\sciencedirect_books\\9788535256994 (16).pdf,0,2000-01-01 01:00:00,2016-04-03 02:51:08,1113000/20653b84a2920ef0d75198b1b716f056-d.gif,,
22402100,Direito Processual Empresarial,,,,"Gilberto Bruschi, Mônica Couto, Thomaz Pereira and Ruth Pereira E Silva (Auth.)",2012,,,,1013,0,Portuguese,,,0,978-85-352-5701-4,,,,,,,,,,,0,,,,,,,1,12101821,pdf,d675a1f4b43addcfc3eb29495ef68d49,,,A:/sciencedirect_books/9788535257014 (69).pdf,0,2000-01-01 01:00:00,2016-04-03 02:51:08,1113000/d675a1f4b43addcfc3eb29495ef68d49-d.gif,,
22402101,Grafos,,,,Marco Goldbarg and Elizabeth Goldbarg (Auth.),2012,,,,707,0,Spanish,,,,978-85-352-5716-8,,,,,,,,,,,0,,,,,,,1,151212308,pdf,5287d7ced26ca9c37dbc76645d9f5a08,,,A:\\sciencedirect_books\\9788535257168 (15).pdf,0,2000-01-01 01:00:00,2016-04-03 02:51:08,1113000/5287d7ced26ca9c37dbc76645d9f5a08-d.gif,,
22402102,"Poder, Cultura e Ética Nas organizações",,,,Robert Srour (Auth.),2012,,,,293,0,Spanish,,,,978-85-352-5717-5,,,,,,,,,,,0,,,,,,,1,3004530,pdf,bac7f8829dbcec464ea5a71354fd9bc8,,,A:\\sciencedirect_books\\9788535257175 (16).pdf,0,2000-01-01 01:00:00,2016-04-03 02:51:08,1113000/bac7f8829dbcec464ea5a71354fd9bc8-d.gif,,
22402103,Direito Constitucional Atual,,,,Eduardo Moreira (Auth.),2012,,,,365,0,Portuguese,,,0,978-85-352-5750-2,,,,,,,,,,,0,,,,,,,1,7883944,pdf,3e68b09ae0e908df1490a0aad103455f,,,A:/sciencedirect_books/9788535257502 (26).pdf,0,2000-01-01 01:00:00,2016-04-03 02:51:08,1113000/3e68b09ae0e908df1490a0aad103455f-d.gif,,
22402104,Direito Tributário e Direitos Fundamentais,,,,"Ives Gandra, Ricardo Castilho, Antonio Amaral, Diogo Campos, Samantha Meyer-Pflug, Mariana Neves, George Niaradi and Hugo Segundo (Auth.)",2012,,,,157,0,Portuguese,,,0,978-85-352-5915-5,,,,,,,,,,,0,,,,,,,1,1472108,pdf,a1b80693b0634aa029de17222e1595f7,,,A:/sciencedirect_books/9788535259155 (13).pdf,0,2000-01-01 01:00:00,2016-04-03 02:51:08,1113000/a1b80693b0634aa029de17222e1595f7-d.gif,,
22402105,Pesquisa De Marketing,,,,Fauze Najib Mattar (Auth.),2012,,,,321,0,Spanish,,,,978-85-352-5921-6,,,,,,,,,,,0,,,,,,,1,13565258,pdf,c31246a7c573e0aab8b4d6246e72cf4e,,,A:\\sciencedirect_books\\9788535259216 (14).pdf,0,2000-01-01 01:00:00,2016-04-03 02:51:08,1113000/c31246a7c573e0aab8b4d6246e72cf4e-d.gif,,
22402106,MáQuinas Elétricas e Acionamento,,,,Edson Bim (Auth.),2012,,,,547,0,Spanish,,,,978-85-352-5923-0,,,,,,,,,,,0,,,,,,,1,11828566,pdf,694f8d9eff921015b1bad1deeb9adb6f,,,A:\\sciencedirect_books\\9788535259230 (20).pdf,0,2000-01-01 01:00:00,2016-04-03 02:51:08,1113000/694f8d9eff921015b1bad1deeb9adb6f-d.gif,,
22402107,Teoria Geral Do Processo - Série Universitária,,,,Eduardo Lamy and Horacio Rodrigues (Auth.),2012,,,,348,0,Spanish,,,,978-85-352-5929-2,,,,,,,,,,,0,,,,,,,1,8076678,pdf,53aed1d7b543cf9715bdc3025fc6c06f,,,A:\\sciencedirect_books\\9788535259292 (26).pdf,0,2000-01-01 01:00:00,2016-04-03 02:51:08,1113000/53aed1d7b543cf9715bdc3025fc6c06f-d.gif,,
22402108,Constitucionalismo e Democracia,,,,"Eduardo Figueiredo, Alexandre Bahia, Walter Guandalini Jr., Liliana Jubilit, Elias Kallas Filho, Magalhães José, Renato Maia, Gustavo Mônaco and Dierle Nunes (Auth.)",2012,,,,243,0,Portuguese,313,,0,978-85-352-5945-2,,,,,,,,,,,0,,,,,,,1,10179451,pdf,368c7d42a979c65acc8863a10ceeb2cb,,,A:/sciencedirect_books/9788535259452 (16).pdf,0,2000-01-01 01:00:00,2016-04-03 02:51:08,1113000/368c7d42a979c65acc8863a10ceeb2cb-d.gif,,
22402109,Remuneração e Recompensas,,,,Jose Antonio Moreira Hipolito and Joel Souza Dutra (Auth.),2012,,,,133,0,Spanish,,,,978-85-352-5965-0,,,,,,,,,,,0,,,,,,,1,12311640,pdf,eb34de397a0fa4bc9c5471d2c5845089,,,A:\\sciencedirect_books\\9788535259650 (13).pdf,0,2000-01-01 01:00:00,2016-04-03 02:51:08,1113000/eb34de397a0fa4bc9c5471d2c5845089-d.gif,,
22402110,Arbitragem Nacional e Internacional,,,,"Ana Luiza Pinto, Karin Skitnevsky, Mariana Alves, Adriane Baptista, Fabio Barbosa, Larissa Basso, Ana Borja, Marcio Deluiggi and Napoleão Filho (Auth.)",2012,,,,305,0,Spanish,,,,978-85-352-6055-7,,,,,,,,,,,0,,,,,,,1,7228384,pdf,6390ee4b20ce1d4ddc82289eee2a8439,,,A:\\sciencedirect_books\\9788535260557 (23).pdf,0,2000-01-01 01:00:00,2016-04-03 02:51:08,1113000/6390ee4b20ce1d4ddc82289eee2a8439-d.gif,,
22402111,Engenharia De Software. Conceitos E Práticas,,,,Raul Wazlawick (Auth.),2013,,,,339,0,Spanish,,,,"978-85-352-6084-7,978-85-352-6120-2",,,,,,,,,,,0,,,,,,,1,11968445,pdf,098e096f0a0068e597594071a8bc7561,,,A:\\sciencedirect_books\\9788535260847 (24).pdf,0,2000-01-01 01:00:00,2016-04-03 02:51:08,1113000/098e096f0a0068e597594071a8bc7561-d.gif,,
22402112,Ações Para a Qualidade,,,,Marcus Vinicius Rodrigues (Auth.),2012,,,,331,0,Spanish,,,,978-85-352-6116-5,,,,,,,,,,,0,,,,,,,1,19894553,pdf,5eac25517020a9c5168e89fc22c610e3,,,A:\\sciencedirect_books\\9788535261165 (24).pdf,0,2000-01-01 01:00:00,2016-04-03 02:51:08,1113000/5eac25517020a9c5168e89fc22c610e3-d.gif,,
22402113,Contabilidade Social. Referencia Atualizada das Contas Nacionais do Brasil,,,,Carmen Feijo (Auth.),2013,,,,399,0,Portuguese,,,0,978-85-352-6119-6,,,,,,,,,,,0,,,,,,,1,4331390,pdf,45883ed3a42d674e33dd99fa0f82b569,,,A:/sciencedirect_books/9788535261196 (19).pdf,0,2000-01-01 01:00:00,2016-04-03 02:51:08,1113000/45883ed3a42d674e33dd99fa0f82b569-d.gif,,
22402114,Direito Do Consumidor,,,,Fabiana Luci Oliveira and Ricardo Wada (Auth.),2012,,,,107,0,Portuguese,,,0,978-85-352-6143-1,,,,,,,,,,,0,,,,,,,1,957486,pdf,67e81f70a0527a251df9fe6d648617cd,,,A:/sciencedirect_books/9788535261431 (10).pdf,0,2000-01-01 01:00:00,2016-04-03 02:51:08,1113000/67e81f70a0527a251df9fe6d648617cd-d.gif,,
22402115,Direito Penal e Economia,,,,Thiago Bottino and Diogo Malan (Auth.),2012,,,,185,0,Portuguese,,,0,978-85-352-6146-2,,,,,,,,,,,0,,,,,,,1,1751071,pdf,ab35679c0a2c9b1781a8896a62dbdfe4,,,A:/sciencedirect_books/9788535261462 (15).pdf,0,2000-01-01 01:00:00,2016-04-03 02:51:08,1113000/ab35679c0a2c9b1781a8896a62dbdfe4-d.gif,,
22402116,Gestão De Projeto Do Produto. Baseada Na Metodologia Product Lifecycle Management (PLM),,,,"Darli Vieira, Abdelazia Bouras and Denis Debaecker (Auth.)",2013,,,,220,0,Spanish,,,,978-85-352-6227-8,,,,,,,,,,,0,,,,,,,1,5728942,pdf,6d5a43c92a1b5f20a26414c65f7b7675,,,A:\\sciencedirect_books\\9788535262278 (14).pdf,0,2000-01-01 01:00:00,2016-04-03 02:51:08,1113000/6d5a43c92a1b5f20a26414c65f7b7675-d.gif,,
22402117,Português Jurídico – Série Universitária,,,,Nelson Maia (Auth.),2012,,,,304,0,Spanish,,,,978-85-352-6386-2,,,,,,,,,,,0,,,,,,,1,8219774,pdf,f3e30a0d2cc64e8cb221ca021fff7b37,,,A:\\sciencedirect_books\\9788535263862 (14).pdf,0,2000-01-01 01:00:00,2016-04-03 02:51:08,1113000/f3e30a0d2cc64e8cb221ca021fff7b37-d.gif,,
22402118,Direito De Seguro e Resseguro,,,,Ilan Goldberg (Auth.),2013,,,,202,0,Portuguese,,,0,978-85-352-6417-3,,,,,,,,,,,0,,,,,,,1,1908616,pdf,c8c248ac4d4198965dcc6ba4b6962051,,,A:/sciencedirect_books/9788535264173 (18).pdf,0,2000-01-01 01:00:00,2016-04-03 02:51:08,1113000/c8c248ac4d4198965dcc6ba4b6962051-d.gif,,
22402119,O Direito À Assistência Social No Brasil,,,,Vitor Chaves (Auth.),2013,,,,187,0,Portuguese,,,0,978-85-352-6420-3,,,,,,,,,,,0,,,,,,,1,1632623,pdf,076c4a3a3211552f96b12420ac67a299,,,A:/sciencedirect_books/9788535264203 (16).pdf,0,2000-01-01 01:00:00,2016-04-03 02:51:08,1113000/076c4a3a3211552f96b12420ac67a299-d.gif,,
22402120,Direitos Sociais Em Debate,,,,Claudia Toledo (Auth.),2013,,,,289,0,Portuguese,,,0,978-85-352-6444-9,,,,,,,,,,,0,,,,,,,1,2479756,pdf,214de5a224a278f43a22bce50f0c4e6a,,,A:/sciencedirect_books/9788535264449 (17).pdf,0,2000-01-01 01:00:00,2016-04-03 02:51:08,1113000/214de5a224a278f43a22bce50f0c4e6a-d.gif,,
22402121,Ética Empresarial,,,,Robert Srour (Auth.),2006,,,,213,0,Spanish,,,,"978-85-352-6447-0,978-85-352-6448-7",,,,,,,,,,,0,,,,,,,1,1944961,pdf,59b87683c248202d8b93a88caf0f1471,,,A:\\sciencedirect_books\\9788535264470 (18).pdf,0,2000-01-01 01:00:00,2016-04-03 02:51:08,1113000/59b87683c248202d8b93a88caf0f1471-d.gif,,
22402122,Os Estados Unidos e o Século XXI,,,,Cristina Pecequilo (Auth.),2013,,,,203,0,Spanish,,,,978-85-352-6459-3,,,,,,,,,,,0,,,,,,,1,2051274,pdf,48c8bcda4106eb09ed9f8b17a1a4d18b,,,A:\\sciencedirect_books\\9788535264593 (14).pdf,0,2000-01-01 01:00:00,2016-04-03 02:51:08,1113000/48c8bcda4106eb09ed9f8b17a1a4d18b-d.gif,,
22402123,O Novo Código De Processo Civil. O Projeto Do CPC E O Desafio Das Garantias Fundamentais,,,,"Walter Rodrigues, Marcia Souza, Alexandre Freitas Camara, Araken Assis, Milton Paulo Carvalho, Humberto Dalla and Fredie Didier Jr. (Auth.)",2013,,,,340,0,Spanish,,,,978-85-352-6477-7,,,,,,,,,,,0,,,,,,,1,3526867,pdf,731790c19489c2b6ee46bcec0e9ce7a3,,,A:\\sciencedirect_books\\9788535264777 (22).pdf,0,2000-01-01 01:00:00,2016-04-03 02:51:08,1113000/731790c19489c2b6ee46bcec0e9ce7a3-d.gif,,
22402124,A Projeção Internacional Do Brasil 1930–2012,,,,Paulo Visentini (Auth.),2013,,,,169,0,Portuguese,,,0,978-85-352-6553-8,,,,,,,,,,,0,,,,,,,1,1619392,pdf,7d1b3b69c631dea2c0153bff8f31757d,,,A:/sciencedirect_books/9788535265538 (14).pdf,0,2000-01-01 01:00:00,2016-04-03 02:51:08,1113000/7d1b3b69c631dea2c0153bff8f31757d-d.gif,,
22402125,Linguagem C. Completa E Descomplicada,,,,André Backes (Auth.),2013,,,,367,0,Spanish,,,,978-85-352-6855-3,,,,,,,,,,,0,,,,,,,1,6954063,pdf,dbd8cb831e58217512940d5c3ff6a162,,,A:\\sciencedirect_books\\9788535268553 (21).pdf,0,2000-01-01 01:00:00,2016-04-03 02:51:08,1113000/dbd8cb831e58217512940d5c3ff6a162-d.gif,,
22402126,Estudos Avançados De Direitos Humanos,,,,"Flavia Piovesan, Armin Von Bogdandy and Mariela Morales Antoniazzi (Auth.)",2013,,,,804,0,Portuguese,,,0,978-85-352-6881-2,,,,,,,,,,,0,,,,,,,1,8075797,pdf,0cc44d4df04497ddaef18a47eca1ce5e,,,A:/sciencedirect_books/9788535268812 (31).pdf,0,2000-01-01 01:00:00,2016-04-03 02:51:08,1113000/0cc44d4df04497ddaef18a47eca1ce5e-d.gif,,
22402127,Adhesion and Adhesives Technology. An Introduction,,,,Alphonsus V. Pocius (Auth.),,3,,,378,0,English,,,,978-3-446-42748-8,,,,,,,,,,,0,,,,,,,1,12611308,pdf,16a810a71182e1447b509683b5f4b27c,,,"A:\\sciencedirect_books\\Adhesion and Adhesives Technology - An Introduction, 3d Edition.pdf",0,2000-01-01 01:00:00,2016-04-03 02:51:08,1113000/16a810a71182e1447b509683b5f4b27c-d.gif,,
22402128,,,Advances in Applied Mechanics 45,,Erik van der Giessen and Hassan Aref (Eds.),2012,1,Academic Press,,1-241,0,English,,,,978-0-12-380876-9,0065-2156,,,,,,,,,,0,,,,,,,1,10616618,pdf,371d79f2410ab3f959ce41967f3750a8,,,"A:\\sciencedirect_books\\Advances in Applied Mechanics, Volume 45.pdf",0,2000-01-01 01:00:00,2016-04-03 02:51:08,1113000/371d79f2410ab3f959ce41967f3750a8-d.jpg,,
22402129,,,Advances in Radiation Biology 10,,JOHN T. LETT (Eds.),1983,,Academic Press,,1-406,0,English,,,,"978-0-12-035410-8,0-12-035410-1",0065-3292,,,,,,,,,,0,,,,,,,1,6319230,pdf,50fcde9da7ae7aa8dbf987c1860024f2,,,"A:\\sciencedirect_books\\Advances in Radiation Biology Volume 10, Pages 1-406 (1983).pdf",0,2000-01-01 01:00:00,2016-04-03 02:51:08,1113000/50fcde9da7ae7aa8dbf987c1860024f2-d.gif,,
22402130,,,Advances in Radiation Biology 11,,JOHN T. LETT (Eds.),1984,,Academic Press,,1-433,0,English,,,,"978-0-12-035411-5,0-12-035411-X",0065-3292,,,,,,,,,,0,,,,,,,1,7279986,pdf,15fa26178ed2272372149e92f5d555a5,,,"A:\\sciencedirect_books\\Advances in Radiation Biology Volume 11, Pages 1-433 (1984) .pdf",0,2000-01-01 01:00:00,2016-04-03 02:51:08,1113000/15fa26178ed2272372149e92f5d555a5-d.gif,,
22402131,,,Advances in Radiation Biology 2,,"LEROY G. AUGENSTEIN, RONALD MASON and MAX ZELLE (Eds.)",1966,,,,1-371,0,English,,,,978-1-4832-3121-1,0065-3292,,,,,,,,,,0,,,,,,,1,6006330,pdf,0ec97c72140f098cad4d01bcdd98e786,,,"A:\\sciencedirect_books\\Advances in Radiation Biology Volume 2, Pages 1-371 (1966) .pdf",0,2000-01-01 01:00:00,2016-04-03 02:51:08,1113000/0ec97c72140f098cad4d01bcdd98e786-d.gif,,
22402132,,,Advances in Radiation Biology 3,,"LEROY G. AUGENSTEIN, RONALD MASON and MAX ZELLE (Eds.)",1969,,,,1-336,0,English,,,,978-1-4832-3122-8,0065-3292,,,,,,,,,,0,,,,,,,1,5107184,pdf,6348fbf643f45e4d75f5ecf94e0f6e3c,,,"A:\\sciencedirect_books\\Advances in Radiation Biology Volume 3, Pages 1-336 (1969) .pdf",0,2000-01-01 01:00:00,2016-04-03 02:51:08,1113000/6348fbf643f45e4d75f5ecf94e0f6e3c-d.gif,,
22402133,,,Advances in Radiation Biology 4,,"JOHN T. LETT, HOWARD ADLER and MAX ZELLE (Eds.)",1974,,"Academic Press Inc.,U.S",,1-435,0,English,,,,978-0-12-035404-7,0065-3292,,,,,,,,,,0,,,,,,,1,6245681,pdf,ecf549d7b3a3b9894f560128fb205a25,,,"A:\\sciencedirect_books\\Advances in Radiation Biology Volume 4, Pages 1-435 (1974) .pdf",0,2000-01-01 01:00:00,2016-04-03 02:51:08,1113000/ecf549d7b3a3b9894f560128fb205a25-d.gif,,
22402134,,,Advances in Radiation Biology 5,,JOHN T. LETT and HOWARD ADLER (Eds.),1975,,Academic Press Inc,,1-277,0,English,,,,978-0-12-035405-4,0065-3292,,,,,,,,,,0,,,,,,,1,4169538,pdf,f0b6ae5fee547aaf9d08d8264db826b0,,,"A:\\sciencedirect_books\\Advances in Radiation Biology Volume 5, Pages 1-277 (1975) .pdf",0,2000-01-01 01:00:00,2016-04-03 02:51:08,1113000/f0b6ae5fee547aaf9d08d8264db826b0-d.gif,,
22402135,Basic Gas Chromatography – Mass Spectrometry. Principles and Techniques,,,,F.W. Karasek and R.E. Clement (Auth.),1988,1,Elsevier Science,,210,0,English,,,,"978-0-444-42760-1,0-444-42760-0",,,,,,,,,,,0,,,,,,,1,24450229,pdf,adae8db1d8842eac1e39005c665a0670,,,A:\\sciencedirect_books\\Basic Gas Chromatography-Mass Spectrometry - Principles and Techniques.pdf,0,2000-01-01 01:00:00,2016-04-03 02:51:08,1113000/adae8db1d8842eac1e39005c665a0670-d.jpg,,
22402136,Biotic Interactions and Soil-Borne Diseases,,Developments in Agricultural and Managed Forest Ecology 23,,"A.B.R. BEEMSTER, G.J. BOLLEN, M. GERLAGH, M.A. RUISSEN, B. SCHIPPERS and A. TEMPEL (Eds.)",1991,,Elsevier Science Ltd,,1-428,0,English,,,,978-0-444-88728-3,0166-2287,,,,,,,,,,0,,,,,,,1,53744182,pdf,a1e270a249c6e5c89d132ba0f00c5290,,,A:\\sciencedirect_books\\Biotic Interactions and Soil-Borne Diseases.pdf,0,2000-01-01 01:00:00,2016-04-03 02:51:08,1113000/a1e270a249c6e5c89d132ba0f00c5290-d.jpg,,
22402137,Casing and Liners for Drilling and Completion,,,,Ted G. Byrom (Auth.),2007,1,Gulf Publishing Company,,398,0,English,,,,"978-1-933762-06-7,1-933762-06-3",,,,,,,,,,,0,,,,,,,1,3495640,pdf,adcdcf0cfef26493c4de0e1822e6de5c,,,A:\\sciencedirect_books\\Casing and Liners for Drilling and Completion.pdf,0,2000-01-01 01:00:00,2016-04-03 02:51:08,1113000/adcdcf0cfef26493c4de0e1822e6de5c-d.jpg,,
22402138,"Closed Circuit Television. CCTV Installation, Maintenance and Operation",,,,Joe Cieszynski (Auth.),2003,2,,,275,0,English,,,,978-0-08-054573-8,,,,,,,,,,,0,,,,,,,1,3888449,pdf,df21f53967c5d86e9bdc9a6a8d4c7040,,,"A:\\sciencedirect_books\\Closed Circuit Television, 2nd Edition.pdf",0,2000-01-01 01:00:00,2016-04-03 02:51:08,1113000/df21f53967c5d86e9bdc9a6a8d4c7040-d.gif,,
22402139,Colt Proceedings 1990,,,,Mark A. Fulk (Eds.),1990,,Morgan Kaufmann,,405,0,English,,,,"978-1-55860-146-8,1-55860-146-5",,,,,,,,,,,0,,,,,,,1,60013720,pdf,c464d5a9a94bfc61b609784ced74ea00,,,A:\\sciencedirect_books\\COLT Proceedings 1990.pdf,0,2000-01-01 01:00:00,2016-04-03 02:51:08,1113000/c464d5a9a94bfc61b609784ced74ea00-d.jpg,,
22402140,Complete Part Design Handbook. For Injection Molding of Thermoplastics,,,,E. Alfredo Campo (Auth.),,,Hanser Fachbuchverlag,,887,0,English,,,,978-3-446-40309-3,,,,,,,,,,,0,,,,,,,1,38777184,pdf,8552570fcaaada9e1337b290cfc33ddd,,,A:\\sciencedirect_books\\Complete Part Design Handbook - For Injection Molding of Thermoplastics.pdf,0,2000-01-01 01:00:00,2016-04-03 02:51:08,1113000/8552570fcaaada9e1337b290cfc33ddd-d.jpg,,
22402141,"Computer Aided Innovation of New Materials II. Proceedings of the Second International Conference and Exhibition on Computer Applications to Materials and Molecular Science and Engineering–CAMSE '92, Pacifico Yokohama, Yokohama, Japan, September 22–25, 1992",,,,"M. Doyama, J. Kihara, Mana Tanaka and R. Yamamoto (Eds.)",1993,,North Holland,,1009,0,English,,,,978-0-444-89778-7,,,,,,,,,,,0,,,,,,,1,149817000,pdf,4776025e49aed05a2660e703b5135917,,,A:\\sciencedirect_books\\Computer Aided Innovation of New Materials.pdf,0,2000-01-01 01:00:00,2016-04-03 02:51:08,1113000/4776025e49aed05a2660e703b5135917-d.gif,,
22402142,Controlled Atmosphere and Fumigation in Grain Storages,,Developments in Agricultural Engineering 5,,B.E. RIPP (Eds.),1984,,Elsevier Science Ltd,,1-798,0,English,,,,"978-0-444-42417-4,0-444-41940-3",0167-4137,,,,,,,,,,0,,,,,,,1,47426721,pdf,45488a36950efa8227a45cb02bb7dba4,,,A:\\sciencedirect_books\\Controlled Atmosphere and Fumigation in Grain Storages.pdf,0,2000-01-01 01:00:00,2016-04-03 02:51:08,1113000/45488a36950efa8227a45cb02bb7dba4-d.jpg,,
22402143,"Creative Suite 3 Integration. Photoshop, Illustrator, In: Design, Dreamweaver, Flash Pro, Acrobat, Bridge and Version Cue",,,,Keith Martin (Eds.),2007,,Focal Press,,351,0,English,,,,978-0-240-52059-9,,,,,,,,,,,0,,,,,,,1,83899461,pdf,2c6150751575caedfcb811132d5f39f8,,,A:\\sciencedirect_books\\Creative Suite 3 Integration.pdf,0,2000-01-01 01:00:00,2016-04-03 02:51:08,1113000/2c6150751575caedfcb811132d5f39f8-d.jpg,,
22402144,,,Current Topics in Experimental Endocrinology 3,,L. MARTINI and V.H.T. JAMES (Eds.),1978,,Academic Press Inc,,1-220,0,English,,,,"978-0-12-153203-1,0-12-153203-8",0091-7397,,,,,,,,,,0,,,,,,,1,3224275,pdf,b183c725714ec2a3fda8e74e7b1a34a4,,,"A:\\sciencedirect_books\\Current Topics in Experimental Endocrinology, Volume 3 .pdf",0,2000-01-01 01:00:00,2016-04-03 02:51:08,1113000/b183c725714ec2a3fda8e74e7b1a34a4-d.jpg,,
22402145,Store-Operated Calcium Channels,,Current Topics in Membranes 71,,Murali Prakriya (Eds.),2013,1,Academic Press,,2-281,0,English,,,,"978-0-12-407870-3,978-0-12-417027-8",1063-5823,,,,,,,,,,0,,,,,,,1,19181752,pdf,de862e365f885770dce10b3b0d99b654,,,"A:\\sciencedirect_books\\Current Topics in Membranes, Volume 72.pdf",0,2000-01-01 01:00:00,2016-04-03 02:51:08,1113000/de862e365f885770dce10b3b0d99b654-d.jpg,,
22402146,Designing SQL Server 2000 Databases. for .Net ™ Enterprise Servers,,,,"Robert A. Patton, MCDBA, MCSD, MCSE+I, MCP+, Jennifer Ogle, MCSE, MCP+I, MCNE, Oracle DBA, and Travis Laird, MCSE, MCDBA, A+, Network+, i-Net+, CIW (Eds.)",2001,1,Syngress,,753,0,English,92,,,"978-1-928994-19-0,1-928994-19-9,1-928994-07-5",,,,,,,,,,,0,,,,,,,1,7482286,pdf,c024ee23ba07572b037069b1a2a2fbf8,,,A:\\sciencedirect_books\\Designing SQL Server 2000 Databases for .net Enterprise Servers.pdf,0,2000-01-01 01:00:00,2016-04-03 02:51:08,1113000/c024ee23ba07572b037069b1a2a2fbf8-d.jpg,,
22402147,"The Economics of Innovation: Incentives, Cooperation, and R&D Policy",,Contributions to Economic Analysis 286,,Roberto Cellini and Luca Lambertini (Eds.),2008,,Emerald Group Publishing Ltd,,1-216,0,English,,,,978-0-444-53255-8,0573-8555,,,,,,,,,,0,,,,,,,1,1552048,pdf,da0dd69d4eb96507e05be4d9f3b29b03,,,"A:\\sciencedirect_books\\Economics of Innovation - Incentives, Cooperation and R&D Policy.pdf",0,2000-01-01 01:00:00,2016-04-03 02:51:08,1113000/da0dd69d4eb96507e05be4d9f3b29b03-d.jpg,,
22402148,Enhanced Recovery Methods for Heavy Oil and Tar Sands,,,,James G. Speight (Auth.),2009,1,Gulf Publishing Company,,369,0,English,,,,"978-1-933762-25-8,1-933762-25-X",,,,,,,,,,,0,,,,,,,1,5331070,pdf,adb39ec3cb9681b58cee6b0549f11fdf,,,A:\\sciencedirect_books\\Enhanced Recovery Methods for Heavy Oil and Tar Sands.pdf,0,2000-01-01 01:00:00,2016-04-03 02:51:08,1113000/adb39ec3cb9681b58cee6b0549f11fdf-d.jpg,,
22402149,Environmental Managament Systems Handbook for Refinieries. Polution Prevention Through ISO 14001,,,,Nicholas Cheremisinoff (Auth.),2006,,Gulf Publishing Company,,325,0,English,,,,"978-0-9765113-8-0,0-9765113-8-X",,,,,,,,,,,0,,,,,,,1,14292626,pdf,cea9bf6afa4a082483c916c39fac8041,,,A:\\sciencedirect_books\\Environmental Managament Systems Handbook for Refinieries - Pollution Prevention Through ISO 14001.pdf,0,2000-01-01 01:00:00,2016-04-03 02:51:08,1113000/cea9bf6afa4a082483c916c39fac8041-d.jpg,,
22402150,,,Essays in Toxicology 3,,WAYLAND J. HAYES (Eds.),1972,,Academic Press,,1-108,0,English,,,,978-0-12-107603-0,0071-1446,,,,,,,,,,0,,,,,,,1,1516966,pdf,15241ec819e28f2fe2bb77953d3016bd,,,"A:\\sciencedirect_books\\Essays in Toxicology, Volume 3 .pdf",0,2000-01-01 01:00:00,2016-04-03 02:51:08,1113000/15241ec819e28f2fe2bb77953d3016bd-d.gif,,
22402151,,,Essays in Toxicology 5,,WAYLAND J. HAYES (Eds.),1974,,Academic Press Inc,,1-189,0,English,,,,978-0-12-107605-4,0071-1446,,,,,,,,,,0,,,,,,,1,3404183,pdf,885da5bbc7bd4e4ce8dacded0b4ef00c,,,"A:\\sciencedirect_books\\Essays in Toxicology, Volume 5 .pdf",0,2000-01-01 01:00:00,2016-04-03 02:51:08,1113000/885da5bbc7bd4e4ce8dacded0b4ef00c-d.gif,,
22402152,,,Essays in Toxicology 6,,WAYLAND J. HAYES (Eds.),1975,,Academic Press,,1-195,0,English,,,,"978-0-12-107606-1,0-12-107606-7",0071-1446,,,,,,,,,,0,,,,,,,1,2635113,pdf,cfe4efa600284e08f8db252eab84d2f7,,,"A:\\sciencedirect_books\\Essays in Toxicology, Volume 6 .pdf",0,2000-01-01 01:00:00,2016-04-03 02:51:08,1113000/cfe4efa600284e08f8db252eab84d2f7-d.jpg,,
22402153,,,Essays in Toxicology 7,,WAYLAND J. HAYES (Eds.),1976,,Academic Press,,1-206,0,English,,,,978-0-12-107607-8,0071-1446,,,,,,,,,,0,,,,,,,1,3082057,pdf,55d40d407e57b4440a49fdf06b4495a0,,,"A:\\sciencedirect_books\\Essays in Toxicology, Volume 7 .pdf",0,2000-01-01 01:00:00,2016-04-03 02:51:08,1113000/55d40d407e57b4440a49fdf06b4495a0-d.gif,,
22402154,Explosion Hazards in the Process Industries,,,,Rolf Eckhoff (Auth.),2006,1,Gulf Publishing Company,,451,0,English,,,,"978-0-9765113-4-2,0-9765113-4-7",,,,,,,,,,,0,,,,,,,1,28362213,pdf,6eec2552d04063dce72763c521c00697,,,A:\\sciencedirect_books\\Explosion Hazards in the Process Industries.pdf,0,2000-01-01 01:00:00,2016-04-03 02:51:08,1113000/6eec2552d04063dce72763c521c00697-d.jpg,,
22402155,Financial Management Revised Edition,,,,Elearn (Auth.),2008,Revised,Routledge,,129,0,English,,,,978-0-08-055235-4,,,,,,,,,,,0,,,,,,,1,757139,pdf,57b54147bfb67f5580a959bbd4bdb620,,,A:\\sciencedirect_books\\Financial Management.pdf,0,2000-01-01 01:00:00,2016-04-03 02:51:08,1113000/57b54147bfb67f5580a959bbd4bdb620-d.jpg,,
22402156,Finite Element Analysis and Design of Metal Structures,,,,"Ehab Ellobody, Ran Feng and Ben Young (Auth.)",2014,1,Butterworth-Heinemann,,218,0,English,,,,978-0-12-416561-8,,,,,,,10.1016/B978-0-12-416561-8.00001-9,,,,0,,,,,,,1,16453413,pdf,52be4ddee0de81f98ca4110f0cbae037,,,A:\\sciencedirect_books\\Finite Element Analysis and Design of Metal Structures.pdf,0,2000-01-01 01:00:00,2016-04-03 02:51:08,1113000/52be4ddee0de81f98ca4110f0cbae037-d.jpg,,
22402157,The Finite Element Method Set. Its Basis and Fundamentals,,,,"O.C. Zienkiewicz, CBE, FRS, R.L. Taylor and J.Z. Zhu (Auth.)",2005,6,Butterworth-Heinemann,,749,0,English,,,,978-0-7506-6431-8,,,,,,,,,,,0,,,,,,,1,7799558,pdf,a6cd712324479e6139a92de613a7ed9e,,,"A:\\sciencedirect_books\\Finite Element Method - Its Basis and Fundamentals, 6th Edition.pdf",0,2000-01-01 01:00:00,2016-04-03 02:51:08,1113000/a6cd712324479e6139a92de613a7ed9e-d.jpg,,
22402158,The Finite Element Method: its Basis and Fundamentals,,,,"O. C. Zienkiewicz, R. L. Taylor and J.Z. Zhu (Auth.)",2013,7,Butterworth-Heinemann,,753,0,English,,,,978-1-85617-633-0,,,,,,,,,,,0,,,,,,,1,26222704,pdf,51571575047a0b5ae432cc374dba5c86,,,"A:\\sciencedirect_books\\Finite Element Method - Its Basis and Fundamentals, 7th Edition.pdf",0,2000-01-01 01:00:00,2016-04-03 02:51:08,1113000/51571575047a0b5ae432cc374dba5c86-d.jpg,,
22402159,The Finite Element Method for Solid and Structural Mechanics,,,,"O. C. Zienkiewicz, R. L. Taylor and David Fox (Auth.)",2014,7,Butterworth-Heinemann,,657,0,English,,,,978-1-85617-634-7,,,,,,,,,,,0,,,,,,,1,26099069,pdf,96cc6c25dd6d3b5c7e1c48fd69c6bdc4,,,"A:\\sciencedirect_books\\Finite Element Method for Solid and Structural Mechanics, 7th Edition.pdf",0,2000-01-01 01:00:00,2016-04-03 02:51:08,1113000/96cc6c25dd6d3b5c7e1c48fd69c6bdc4-d.jpg,,
22402160,Fish Nutrition,,,,John Halver (Eds.),1972,2nd,Academic Press Inc,,726,0,English,,,,978-0-12-319650-7,,,,,,,,,,,0,,,,,,,1,141046388,pdf,97a9080fd8acea4fa456948c06317564,,,A:\\sciencedirect_books\\Fish Nutrition.pdf,0,2000-01-01 01:00:00,2016-04-03 02:51:08,1113000/97a9080fd8acea4fa456948c06317564-d.jpg,,
22402161,Flash Mobile. Developing Android and i: OS Applications,,,,Matthew David (Auth.),2011,1,Focal Press,,310,0,English,,,,978-0-240-81568-8,,,,,,,,,,,0,,,,,,,1,13336051,pdf,1a615f9fe740708ffed80ab1e9ed8726,,,A:\\sciencedirect_books\\Flash Mobile - Developing Android and iOS Applications.pdf,0,2000-01-01 01:00:00,2016-04-03 02:51:08,1113000/1a615f9fe740708ffed80ab1e9ed8726-d.jpg,,
22402162,Flight Dynamics Principles. A Linear Systems Approach to Aircraft Stability and Control,,,,Michael V. Cook (Eds.),2013,3,Butterworth-Heinemann,,401,0,English,,,,978-0-08-098242-7,,,,,,,,,,,0,,,,,,,1,115901018,pdf,fef9206c0b9324d338febc2ccacc85a7,,,A:\\sciencedirect_books\\Flight Dynamics Principles.pdf,0,2000-01-01 01:00:00,2016-04-03 02:51:08,1113000/fef9206c0b9324d338febc2ccacc85a7-d.jpg,,
22402163,Flow Visualization,,,,Wolfgang Merzkirch (Auth.),1987,2,Academic Press,,271,0,English,,,,"978-0-12-491351-6,0-12-491351-2",,,,,,,,,,,0,,,,,,,1,37641173,pdf,1ab9d4ac24c884f2b3392fcb613106b3,,,"A:\\sciencedirect_books\\Flow Visualization, 2nd Edition.pdf",0,2000-01-01 01:00:00,2016-04-03 02:51:08,1113000/1ab9d4ac24c884f2b3392fcb613106b3-d.jpg,,
22402164,Flow Visualization,,,,Wolfgang Merzkirch (Auth.),1974,,Academic Press Inc,,261,0,English,,,,"978-0-12-491350-9,0-12-491350-4",,,,,,,,,,,0,,,,,,,1,50733632,pdf,b1e3e669979f01966cd3dcf75d828beb,,,A:\\sciencedirect_books\\Flow Visualization.pdf,0,2000-01-01 01:00:00,2016-04-03 02:51:08,1113000/b1e3e669979f01966cd3dcf75d828beb-d.jpg,,
22402165,Focusing of Charged Particles part 1,,,,Albert Septier (Eds.),1967,,"Academic Press Inc.,U.S",,524,0,English,,,,978-0-12-636902-1,,,,,,,,,,,0,,,,,,,1,45464772,pdf,f3410e20105e95cd8facd1bbf271b49b,,,"A:\\sciencedirect_books\\Focusing of Charged Particles, Volume 1.pdf",0,2000-01-01 01:00:00,2016-04-03 02:51:08,1113000/f3410e20105e95cd8facd1bbf271b49b-d.jpg,,
22402166,Focusing of Charged Particles part 1,,,,Albert Septier (Eds.),1967,,"Academic Press Inc.,U.S",,487,0,English,,,,978-0-12-636901-4,,,,,,,,,,,0,,,,,,,1,44980332,pdf,f89d2b4dd97f36ad59557a122c0908ee,,,"A:\\sciencedirect_books\\Focusing of Charged Particles, Volume 2.pdf",0,2000-01-01 01:00:00,2016-04-03 02:51:08,1113000/f89d2b4dd97f36ad59557a122c0908ee-d.gif,,
22402167,From COBOL to OOP,,,,Markus Knasmüller (Auth.),2001,,Morgan Kaufmann,,361,0,English,,,,"978-1-55860-822-1,3-932588-95-9,1-55860-822-2",,,,,,,,,,,0,,,,,,,1,2721170,pdf,e01fb8c4c0ddd5fef2f6525219bf8c11,,,A:\\sciencedirect_books\\From COBOL to OOP.pdf,0,2000-01-01 01:00:00,2016-04-03 02:51:08,1113000/e01fb8c4c0ddd5fef2f6525219bf8c11-d.jpg,,
22402168,Gowned and Gloved Orthopaedics: Introduction to Common Procedures,,,,Neil P. Sheth and Jess H. Lonner (Auth.),2009,1,Saunders,,428,0,English,,,,978-1-4160-4820-6,,,,,,,,,,,0,,,,,,,1,14994552,pdf,adf63ffba9798df93f4299f4ddf5eb5e,,,A:\\sciencedirect_books\\Gowned and Gloved Orthopaedics - Introduction to Common Procedures.pdf,0,2000-01-01 01:00:00,2016-04-03 02:51:08,1113000/adf63ffba9798df93f4299f4ddf5eb5e-d.jpg,,
22402169,Gowned and Gloved Surgery: Introduction to Common Procedures,,,,"Robert E. Roses, Emily Carter Paulson, Suhail Kanchwala, Jon B. Morris, Neil P. Sheth and Jess H. Lonner (Auth.)",2010,1,Saunders,,261,0,English,,,,978-1-4160-5356-9,,,,,,,,,,,0,,,,,,,1,16816476,pdf,28d329c17cb92270a22c7368207b983b,,,A:\\sciencedirect_books\\Gowned and Gloved Surgery - Introduction to Common Procedures.pdf,0,2000-01-01 01:00:00,2016-04-03 02:51:08,1113000/28d329c17cb92270a22c7368207b983b-d.jpg,,
22402170,Adhesives and Sealants: Basic Concepts and High Tech Bonding,,Handbook of Adhesives and Sealants 1,,Philippe Cognard (Eds.),2005,1,Elsevier Science,,1-492,0,English,,,,"978-0-08-044554-0,0-7506-7757-0,0-08-044195-5,0-444-51140-7,0-08-044554-3",1874-5695,,,,,,,,,,0,,,,,,,1,11903633,pdf,bf73f4886c09e22179ae82ae239d0854,,,"A:\\sciencedirect_books\\Handbook of Adhesives and Sealants, Volume 1.pdf",0,2000-01-01 01:00:00,2016-04-03 02:51:08,1113000/bf73f4886c09e22179ae82ae239d0854-d.jpg,,
22402171,"Adhesives and Sealants: General Knowledge, Application Techniques, New Curing Techniques",,Handbook of Adhesives and Sealants 2,,Philippe Cognard (Eds.),2006,1,Elsevier Science,,1-487,0,English,,,,"978-0-08-044708-7,0-7506-7757-0,0-08-044195-5,0-444-51140-7,0-080-44708-2",1874-5695,,,,,,,,,,0,,,,,,,1,7739465,pdf,e6c08459591353e2d310199d727c6593,,,"A:\\sciencedirect_books\\Handbook of Adhesives and Sealants, Volume 2.pdf",0,2000-01-01 01:00:00,2016-04-03 02:51:08,1113000/e6c08459591353e2d310199d727c6593-d.jpg,,
22402172,Structure and Dynamics of Membranes. Generic and Specific Interactions,1B,Handbook of Biological Physics 1,,R. Lipowsky and E. Sackmann (Eds.),1995,1,North Holland,,518,0,English,,,0,978-0-444-81975-8,1383-8121,,,,,,,,,,0,,,,,,,1,35453366,pdf,afcb0339aae62adf0fe5d9b3893254d6,,,"A:/sciencedirect_books/Handbook of Biological Physics, Volume 1B.pdf",0,2000-01-01 01:00:00,2016-04-03 02:51:08,1113000/afcb0339aae62adf0fe5d9b3893254d6-d.jpg,,
22402173,Transport Processes in Eukaryotic and Prokaryotic Organisms,,Handbook of Biological Physics 2,,"W.N. Konings, H.R. Kaback and J.S. Lolkema (Eds.)",1996,1,North Holland,,1-935,0,English,,,,"978-0-444-82442-4,0-444-82442-1",1383-8121,,,,,,,,,,0,,,,,,,1,54504341,pdf,a763eaab897cd78c0aef883bf752247f,,,"A:\\sciencedirect_books\\Handbook of Biological Physics, Volume 2.pdf",0,2000-01-01 01:00:00,2016-04-03 02:51:08,1113000/a763eaab897cd78c0aef883bf752247f-d.jpg,,
22402174,Molecular Mechanisms in Visual Transduction,,Handbook of Biological Physics 3,,"D.G. Stavenga, W.J. DeGrip and E.N. Pugh (Eds.)",2000,1,North Holland,,1-581,0,English,,,,978-0-444-50102-8,1383-8121,,,,,,,,,,0,,,,,,,1,38347236,pdf,a2d4eb25d5c84ebd1bde92621a83f614,,,"A:\\sciencedirect_books\\Handbook of Biological Physics, Volume 3.pdf",0,2000-01-01 01:00:00,2016-04-03 02:51:08,1113000/a2d4eb25d5c84ebd1bde92621a83f614-d.jpg,,
22402175,Neuro-Informatics and Neural Modelling,,Handbook of Biological Physics 4,,F. Moss and S. Gielen (Eds.),2001,1,North Holland,,1-1059,0,English,,,,978-0-444-50284-1,1383-8121,,,,,,,,,,0,,,,,,,1,54457979,pdf,512bd69a69bf69a362c0e1929eec1181,,,"A:\\sciencedirect_books\\Handbook of Biological Physics, Volume 4.pdf",0,2000-01-01 01:00:00,2016-04-03 02:51:08,1113000/512bd69a69bf69a362c0e1929eec1181-d.jpg,,
22402176,Molecular Genetics; Lung and Breast Carcinomas,,Handbook of Immunohistochemistry and in Situ Hybridization of Human Carcinomas 1,,M.A. Hayat (Eds.),2002,1,Academic Press,,3-556,0,English,,,,"978-0-12-333941-6,0-12-333941-3",1874-5784,,,,,,,,,,0,,,,,,,1,42305159,pdf,36dc7e1feca73291dfab88e8ef4523bd,,,"A:\\sciencedirect_books\\Handbook of Immunohistochemistry and in situ Hybridization of Human Carcinomas, Volume 1.pdf",0,2000-01-01 01:00:00,2016-04-03 02:51:08,1113000/36dc7e1feca73291dfab88e8ef4523bd-d.jpg,,
22402177,"Molecular Pathology, Colorectal Carcinoma, and Prostate Carcinoma",,Handbook of Immunohistochemistry and in Situ Hybridization of Human Carcinomas 2,,M.A. Hayat (Eds.),2002,1,Academic Press,,3-492,0,English,,,,"978-0-12-333942-3,0-12-333942-1",1874-5784,,,,,,,,,,0,,,,,,,1,33103909,pdf,8cb086193929441ce3270c46902fc2d8,,,"A:\\sciencedirect_books\\Handbook of Immunohistochemistry and in situ Hybridization of Human Carcinomas, Volume 2.pdf",0,2000-01-01 01:00:00,2016-04-03 02:51:08,1113000/8cb086193929441ce3270c46902fc2d8-d.jpg,,
22402178,"Molecular Genetics, Liver Carcinoma, and Pancreatic Carcinoma",,Handbook of Immunohistochemistry and in Situ Hybridization of Human Carcinomas 3,,M.A. Hayat (Eds.),2005,1,Academic Press,,3-432,0,English,,,,"978-0-12-088404-9,0-12-088404-6",1874-5784,,,,,,,,,,0,,,,,,,1,8630666,pdf,2c51081a4306b8a910a748d094d4ce6b,,,"A:\\sciencedirect_books\\Handbook of Immunohistochemistry and in situ Hybridization of Human Carcinomas, Volume 3.pdf",0,2000-01-01 01:00:00,2016-04-03 02:51:08,1113000/2c51081a4306b8a910a748d094d4ce6b-d.jpg,,
22402179,"Molecular Genetics, Gastrointestinal Carcinoma, and Ovarian Carcinoma",,Handbook of Immunohistochemistry and in Situ Hybridization of Human Carcinomas 4,,M.A. Hayat (Eds.),2005,1,Academic Press,,3-564,0,English,,,,"978-0-12-369402-7,0-12-369402-7",1874-5784,,,,,,,,,,0,,,,,,,1,8773673,pdf,da8ea67d51a6b2aa20a3ac910229a5b3,,,"A:\\sciencedirect_books\\Handbook of Immunohistochemistry and in situ Hybridization of Human Carcinomas, Volume 4.pdf",0,2000-01-01 01:00:00,2016-04-03 02:51:08,1113000/da8ea67d51a6b2aa20a3ac910229a5b3-d.jpg,,
22402180,Heavy-Fermion Systems,,Handbook of Metal Physics 2,,Prasanta Misra (Eds.),2008,1,Elsevier Science,,1-338,0,English,,,,978-0-444-51503-2,1570-002X,,,,,,,,,,0,,,,,,,1,6466798,pdf,39772b9f4478be0706d0126bc662a314,,,A:\\sciencedirect_books\\Handbook of Metal Physics - Heavy-fermion Systems.pdf,0,2000-01-01 01:00:00,2016-04-03 02:51:08,1113000/39772b9f4478be0706d0126bc662a314-d.jpg,,
22402181,Metallic Chains/Chains of Metals,,Handbook of Metal Physics 1,,Michael Springborg and Yi Dong (Eds.),2006,1,Elsevier Science,,1-260,0,English,,,,"978-0-444-51380-9,0-444-51380-9",1570-002X,,,,,,,,,,0,,,,,,,1,10256077,pdf,88dc16090b056b47da4bd604635dc7ba,,,A:\\sciencedirect_books\\Handbook of Metal Physics - Metallic Chains-Chains of Metals.pdf,0,2000-01-01 01:00:00,2016-04-03 02:51:08,1113000/88dc16090b056b47da4bd604635dc7ba-d.jpg,,
22402182,"Metallic Multilayers and their Applications: Theory, Experiments, and Applications related to Thin Metallic Multilayers",,Handbook of Metal Physics 4,,Gayanath W. Fernando (Eds.),2008,1,Elsevier Science,,1-220,0,English,,,,978-0-444-51703-6,1570-002X,,,,,,,,,,0,,,,,,,1,3765910,pdf,a15f5c8beab40e3632d93055ab946a30,,,A:\\sciencedirect_books\\Handbook of Metal Physics - Metallic Multilayers and Their Applications.pdf,0,2000-01-01 01:00:00,2016-04-03 02:51:08,1113000/a15f5c8beab40e3632d93055ab946a30-d.jpg,,
22402183,Metallic Nanoparticles,,Handbook of Metal Physics 5,,John A. Blackman (Eds.),2008,1,Elsevier Science,,1-385,0,English,,,,978-0-444-51240-6,1570-002X,,,,,,,,,,0,,,,,,,1,7114428,pdf,e64c13fbba7e3a53c91f5c3c368c253a,,,A:\\sciencedirect_books\\Handbook of Metal Physics - Metallic Nanoparticles.pdf,0,2000-01-01 01:00:00,2016-04-03 02:51:08,1113000/e64c13fbba7e3a53c91f5c3c368c253a-d.jpg,,
22402184,Quasicrystals,,Handbook of Metal Physics 3,,Takeo Fujiwara and Yasushi Ishii (Eds.),2008,1,Elsevier Science,,1-359,0,English,,,,978-0-444-51418-9,1570-002X,,,,,,,,,,0,,,,,,,1,10386526,pdf,cd0fe440488fa3eb8e9313027e14e274,,,A:\\sciencedirect_books\\Handbook of Metal Physics - Quasicrystals.pdf,0,2000-01-01 01:00:00,2016-04-03 02:51:08,1113000/cd0fe440488fa3eb8e9313027e14e274-d.jpg,,
22402185,Physical Structure,,Handbook of Surface Science 1,,W.N. Unertl (Eds.),1996,1,North Holland,,3-884,0,English,,,,"978-0-444-89036-8,0-444-89036-X,0-444-82526-6",1573-4331,,,,,,,,,,0,,,,,,,1,45550837,pdf,e6bafb3bc2277d7e1741d68805b66f95,,,"A:\\sciencedirect_books\\Handbook of Surface Science, Volume 1 - Physical Structure.pdf",0,2000-01-01 01:00:00,2016-04-03 02:51:08,1113000/e6bafb3bc2277d7e1741d68805b66f95-d.jpg,,
22402186,Electronic Structure,,Handbook of Surface Science 2,,K. Horn and M. Scheffler (Eds.),2000,1,North Holland,,1-1058,0,English,,,,"978-0-444-89291-1,0-444-89291-5,0-444-82526-6",1573-4331,,,,,,,,,,0,,,,,,,1,66636848,pdf,0fa888fe0369f68b6583092e95e0bd83,,,"A:\\sciencedirect_books\\Handbook of Surface Science, Volume 2 - Electronic Structure.pdf",0,2000-01-01 01:00:00,2016-04-03 02:51:08,1113000/0fa888fe0369f68b6583092e95e0bd83-d.jpg,,
22402187,Dynamics,,Handbook of Surface Science 3,,E. Hasselbrink and B.I. Lundqvist (Eds.),2008,1,Elsevier Science,,1-1015,0,English,,,,978-0-444-52056-2,1573-4331,,,,,,,,,,0,,,,,,,1,16163822,pdf,a2a65c869188a9e1c3526851ed01e864,,,"A:\\sciencedirect_books\\Handbook of Surface Science, Volume 3 - Dynamics.pdf",0,2000-01-01 01:00:00,2016-04-03 02:51:08,1113000/a2a65c869188a9e1c3526851ed01e864-d.jpg,,
22402188,,,Handbook of the Geometry of Banach Spaces 1,,W.B. Johnson and J. Lindenstrauss (Eds.),2001,1,North Holland,,1-1005,0,English,,,,"978-0-444-82842-2,0-444-82842-7",1874-5849,,,,,,,,,,0,,,,,,,1,47138769,pdf,510a1dd522794b7b02ec9f80555345f8,,,"A:\\sciencedirect_books\\Handbook of the Geometry of Banach Spaces, Volume 1.pdf",0,2000-01-01 01:00:00,2016-04-03 02:51:08,1113000/510a1dd522794b7b02ec9f80555345f8-d.jpg,,
22402189,,,Handbook of the Geometry of Banach Spaces 2,,W.B. Johnson and J. Lindenstrauss (Eds.),2003,1,North Holland,,1007-1866,0,English,,,,"978-0-444-51305-2,0-444-51305-1",1874-5849,,,,,,,,,,0,,,,,,,1,6775953,pdf,c2e17faff5fd575161ed4b04265db35b,,,"A:\\sciencedirect_books\\Handbook of the Geometry of Banach Spaces, Volume 2.pdf",0,2000-01-01 01:00:00,2016-04-03 02:51:08,1113000/c2e17faff5fd575161ed4b04265db35b-d.jpg,,
22402190,Principles and Practic,,Handbook of Thermal Analysis and Calorimetry 1,,Michael E. Brown (Eds.),1998,,Elsevier Science,,1-691,0,English,,,,"978-0-444-82085-3,0-444-82085-X",1573-4374,,,,,,,,,,0,,,,,,,1,37242761,pdf,0ce28c88d366462127b134dbe501c55b,,,"A:\\sciencedirect_books\\Handbook of Thermal Analysis and Calorimetry, Volume 1.pdf",0,2000-01-01 01:00:00,2016-04-03 02:51:08,1113000/0ce28c88d366462127b134dbe501c55b-d.jpg,,
22402191,Applications to Inorganic and Miscellaneous Materials,,Handbook of Thermal Analysis and Calorimetry 2,,Michael E. Brown and Patrick K. Gallagher (Eds.),2003,1,Elsevier Science,,1-905,0,English,,,,978-0-444-82086-0,1573-4374,,,,,,,,,,0,,,,,,,1,41822364,pdf,8a079debbda0db36fa305998a59ba1be,,,"A:\\sciencedirect_books\\Handbook of Thermal Analysis and Calorimetry, Volume 2.pdf",0,2000-01-01 01:00:00,2016-04-03 02:51:08,1113000/8a079debbda0db36fa305998a59ba1be-d.jpg,,
22402192,Applications to Polymers and Plastics,,Handbook of Thermal Analysis and Calorimetry 3,,Stephen Z.D. Cheng (Eds.),2002,1,Elsevier Science,,1-828,0,English,,,,"978-0-444-51286-4,0-444-51286-1",1573-4374,,,,,,,,,,0,,,,,,,1,43274689,pdf,f0a0dac54138652ff2858b0eba41148e,,,"A:\\sciencedirect_books\\Handbook of Thermal Analysis and Calorimetry, Volume 3.pdf",0,2000-01-01 01:00:00,2016-04-03 02:51:08,1113000/f0a0dac54138652ff2858b0eba41148e-d.jpg,,
22402193,From Macromolecules to Man,,Handbook of Thermal Analysis and Calorimetry 4,,R.B. Kemp (Eds.),1999,1,Elsevier Science,,1-1032,0,English,,,,"978-0-444-82088-4,0-444-82088-4",1573-4374,,,,,,,,,,0,,,,,,,1,50296943,pdf,6266f60e7457b25ddfb269556f806975,,,"A:\\sciencedirect_books\\Handbook of Thermal Analysis and Calorimetry, Volume 4.pdf",0,2000-01-01 01:00:00,2016-04-03 02:51:08,1113000/6266f60e7457b25ddfb269556f806975-d.jpg,,
22402194,"Recent Advances, Techniques and Applications",,Handbook of Thermal Analysis and Calorimetry 5,,Michael E. Brown and Patrick K. Gallagher (Eds.),2008,1,Elsevier Science,,1-755,0,English,,,,978-0-444-53123-0,1573-4374,,,,,,,,,,0,,,,,,,1,95950833,pdf,dcd5c8c7e6ce45986d912d788725dfbf,,,"A:\\sciencedirect_books\\Handbook of Thermal Analysis and Calorimetry, Volume 5.pdf",0,2000-01-01 01:00:00,2016-04-03 02:51:08,1113000/dcd5c8c7e6ce45986d912d788725dfbf-d.jpg,,
22402195,Organic Compounds C to C,,Handbook of Thermal Conductivity 1,,Carl L. Yaws (Eds.),1995,1,Gulf Professional Publishing,,1-356,0,English,,,,"978-0-88415-382-5,0-88415-382-7,0-88415-383-5,0-88415-384-3",1874-8783,,,,,,,,,,0,,,,,,,1,12826177,pdf,d33ed87ccdf6bb7c329c56e12a5bf7fa,,,"A:\\sciencedirect_books\\Handbook of Thermal Conductivity, Volume 1.pdf",0,2000-01-01 01:00:00,2016-04-03 02:51:08,1113000/d33ed87ccdf6bb7c329c56e12a5bf7fa-d.jpg,,
22402196,Organic Compounds C to C,,Handbook of Thermal Conductivity 2,,Carl L. Yaws (Eds.),1995,1,Gulf Professional Publishing,,1-402,0,English,,,,"978-0-88415-383-2,0-88415-382-7,0-88415-383-5,0-88415-384-3",1874-8783,,,,,,,,,,0,,,,,,,1,17323430,pdf,43f822c9316464a6a40122ab242afa8b,,,"A:\\sciencedirect_books\\Handbook of Thermal Conductivity, Volume 2.pdf",0,2000-01-01 01:00:00,2016-04-03 02:51:08,1113000/43f822c9316464a6a40122ab242afa8b-d.jpg,,
22402197,Organic Compounds C to C,,Handbook of Thermal Conductivity 3,,Carl L. Yaws (Eds.),1995,1,Gulf Professional Publishing,,1-398,0,English,,,,"978-0-88415-384-9,0-88415-382-7,0-88415-383-5,0-88415-384-3",1874-8783,,,,,,,,,,0,,,,,,,1,18445535,pdf,dc4bfe29b341b92ceb05158ac62e05f9,,,"A:\\sciencedirect_books\\Handbook of Thermal Conductivity, Volume 3.pdf",0,2000-01-01 01:00:00,2016-04-03 02:51:08,1113000/dc4bfe29b341b92ceb05158ac62e05f9-d.jpg,,
22402198,Organic Compounds C to C,,Handbook of Thermodynamic Diagrams 1,,,1996,,,,1-355,0,English,,,,"978-0-08-050784-2,0-88415-857-8,0-88415-858-6,0-88415-859-4,0-88415-860-8",1874-8805,,,,,,,,,,0,,,,,,,1,33817084,pdf,7726057ac2eaed837607c40d89d1d435,,,"A:\\sciencedirect_books\\Handbook of Thermodynamic Diagrams, Volume 1.pdf",0,2000-01-01 01:00:00,2016-04-03 02:51:08,1113000/7726057ac2eaed837607c40d89d1d435-d.gif,,
22402199,Organic Compounds C to C,,Handbook of Thermodynamic Diagrams 2,,,1996,,,,1-400,0,English,,,,"978-0-08-050785-9,0-88415-857-8,0-88415-858-6,0-88415-859-4,0-88415-860-8",1874-8805,,,,,,,,,,0,,,,,,,1,37465187,pdf,d4f683769962d52a03b4ef3efb38099e,,,"A:\\sciencedirect_books\\Handbook of Thermodynamic Diagrams, Volume 2.pdf",0,2000-01-01 01:00:00,2016-04-03 02:51:08,1113000/d4f683769962d52a03b4ef3efb38099e-d.gif,,
22402200,Inorganic Compounds and Elements,,Handbook of Thermodynamic Diagrams 4,,,1996,1,Gulf Professional Publishing,,1-369,0,English,,,,"978-0-88415-860-8,0-88415-857-8,0-88415-858-6,0-88415-859-4,0-88415-860-8",1874-8805,,,,,,,,,,0,,,,,,,1,24216825,pdf,49bcffca5242a352094ea141d3681cbf,,,"A:\\sciencedirect_books\\Handbook of Thermodynamic Diagrams, Volume 4.pdf",0,2000-01-01 01:00:00,2016-04-03 02:51:08,1113000/49bcffca5242a352094ea141d3681cbf-d.jpg,,
22402201,Inorganic Compounds and Elements,,Handbook of Vapor Pressure 4,,Carl L. Yaws (Eds.),1995,1,Gulf Professional Publishing,,1-363,0,English,,,,"978-0-88415-394-8,0-88415-394-0,0-88415-189-1,0-88415-190-5,0-88415-191-3",1874-8813,,,,,,,,,,0,,,,,,,1,23061676,pdf,d5558da8a3f3d9a0cb6d17cfefc56bf2,,,"A:\\sciencedirect_books\\Handbook of Vapor Pressure, Volume 4.pdf",0,2000-01-01 01:00:00,2016-04-03 02:51:08,1113000/d5558da8a3f3d9a0cb6d17cfefc56bf2-d.jpg,,
22402202,Including Actinides,,Handbook on the Physics and Chemistry of Rare Earths 44,,Jean-Claude G. Bünzli and Vitalij K. Pecharsky (Eds.),2014,1,North Holland,,2-459,0,English,,,,978-0-444-62711-7,0168-1273,,,,,,,,,,0,,,,,,,1,18026170,pdf,ed94a34f638af2260f4cca81f4d1af4e,,,"A:\\sciencedirect_books\\Handbook on the Physics and Chemistry of Rare Earths, Volume 44.pdf",0,2000-01-01 01:00:00,2016-04-03 02:51:08,1113000/ed94a34f638af2260f4cca81f4d1af4e-d.jpg,,
22402203,Hot Isostatic Pressing '93,,,,L. Delaey and H. Tas (Eds.),1994,,Elsevier Science,,621,0,English,,,,978-0-444-89959-0,,,,,,,,,,,0,,,,,,,1,80219343,pdf,52e0d8a1bb5a29b642b5b53a184c8f13,,,A:\\sciencedirect_books\\Hot Isostatic Pressing 93.pdf,0,2000-01-01 01:00:00,2016-04-03 02:51:08,1113000/52e0d8a1bb5a29b642b5b53a184c8f13-d.jpg,,
22402204,Molecular Cell Pathology,,International Review of Experimental Pathology 32,,G.W. Richter and Kim Solez (Eds.),1991,,Academic Press,,1-285,0,English,,,,"978-0-12-364932-4,0-12-364932-3",0074-7718,,,,,,,,,,0,,,,,,,1,7333660,pdf,286f18f55bbfcb1ab23b77a2c521f39b,,,A:\\sciencedirect_books\\International Review of Experimental Pathology  Volume 32.pdf,0,2000-01-01 01:00:00,2016-04-03 02:51:08,1113000/286f18f55bbfcb1ab23b77a2c521f39b-d.gif,,
22402205,"Cytokine-Induced Pathology: Part B: Inflammatory Cytokines, Receptors, and Disease",,"International Review of Experimental Pathology 34, Part B",,G.W. Richter and Kim Solez (Eds.),1993,,Academic Press,,3-232,0,English,,,,"978-0-12-364935-5,0-12-364935-8",0074-7718,,,,,,,,,,0,,,,,,,1,5804370,pdf,56bed324650a5c1a994f2ceea78d2bed,,,"A:\\sciencedirect_books\\International Review of Experimental Pathology, Volume 34, Part B.pdf",0,2000-01-01 01:00:00,2016-04-03 02:51:08,1113000/56bed324650a5c1a994f2ceea78d2bed-d.jpg,,
22402206,Neurobiology of Acupuncture,,International Review of Neurobiology 111,,"Bai-Yun Zeng, Kaicun Zhao and Fan-Rong Liang (Eds.)",2013,1,Academic Press,,2-344,0,English,,,,978-0-12-411545-3,0074-7742,,,,,,,,,,0,,,,,,,1,5337186,pdf,37d9c43ed40b747342396c628f1d32ab,,,"A:\\sciencedirect_books\\International Review of Neurobiology, Volume 111.pdf",0,2000-01-01 01:00:00,2016-04-03 02:51:08,1113000/37d9c43ed40b747342396c628f1d32ab-d.jpg,,
22402207,Introduction to Health and Safety in Construction. The handbook for construction professionals and students on NEBOSH and other construction courses,,,,Phil Hughes and Ed Ferrett (Auth.),2008,3,taylor & francis,,531,0,English,,,,978-1-85617-521-0,,,,,,,,,,,0,,,,,,,1,40139511,pdf,6ebf6d767e31077521749043087b05d5,,,"A:\\sciencedirect_books\\Introduction to Health and Safety in Construction, 2nd Edition.pdf",0,2000-01-01 01:00:00,2016-04-03 02:51:08,1113000/6ebf6d767e31077521749043087b05d5-d.jpg,,
22402208,ISO 9000: 2000: an A–Z Guide,,,,David Hoyle (Eds.),2004,,,,176,0,English,,,,978-0-08-050946-4,,,,,,,,,,,0,,,,,,,1,1625885,pdf,49a802bbce64662aeda6c569b51a8fde,,,A:\\sciencedirect_books\\ISO 9000-2000 - An A-Z Guide.pdf,0,2000-01-01 01:00:00,2016-04-03 02:51:08,1113000/49a802bbce64662aeda6c569b51a8fde-d.gif,,
22402209,Machinery Failure Analysis Handbook. Sustain Your Operations and Maximize Uptime,,,,Luiz Octavio Amaral Affonso (Auth.),2007,,Gulf Publishing Company,,321,0,English,,,,"978-1-933762-08-1,1-933762-08-X",,,,,,,,,,,0,,,,,,,1,27588782,pdf,f84d92abb2bac8ac6c57bfc1153acd46,,,A:\\sciencedirect_books\\Machinery Failure Analysis Handbook - Sustain Your Operations and Maximize Uptime.pdf,0,2000-01-01 01:00:00,2016-04-03 02:51:08,1113000/f84d92abb2bac8ac6c57bfc1153acd46-d.jpg,,
22402210,Managed Pressure Drilling,,Gulf Drilling,,"Bill Rehm, Arash Hagshenas, Amir Paknejad, W. James Hughes",2008,1,Gulf Professional Publishing,,400,0,English,,,0,"1933762241,9781933762241",,,,,,,,,,,0,,,,,,,1,14827035,pdf,63a4d1861b23e6b6eaf82894a2e5598f,,,A:/sciencedirect_books/Managed Pressure Drilling.pdf,0,2000-01-01 01:00:00,2016-04-03 02:51:08,1113000/63a4d1861b23e6b6eaf82894a2e5598f-d.jpg,,
22402211,Mechanics of Offshore Pipelines. Vol. I Buckling and Collapse,,,,Stelios Kyriakides and Edmundo Corona (Auth.),2007,1,Elsevier Science,,415,0,English,,,,978-0-08-046732-0,,,,,,,,,,,0,,,,,,,1,13589797,pdf,c67ef75dd63f4130892e7c56114699da,,,"A:\\sciencedirect_books\\Mechanics of Offshore Pipelines, Volume 1 - Buckling and Collapse.pdf",0,2000-01-01 01:00:00,2016-04-03 02:51:08,1113000/c67ef75dd63f4130892e7c56114699da-d.jpg,,
22402212,"Mobile Broadcasting with Wi: MAX. Principles, Technology and Applications",,,,Amitabh Kumar (Auth.),2008,1,Focal Press,,619,0,English,,,,978-0-240-81040-9,,,,,,,,,,,0,,,,,,,1,19526260,pdf,cdb95a62316f26842d52be5fb368aea5,,,"A:\\sciencedirect_books\\Mobile Broadcasting With WiMAX - Principles, Technology and Applications.pdf",0,2000-01-01 01:00:00,2016-04-03 02:51:08,1113000/cdb95a62316f26842d52be5fb368aea5-d.jpg,,
