5451157,La grande revolution culturelle proletarienne en Chine 6,,,,"Éditions en langues étrangères, 1966",,,,,16,0,French ,,,,,,,,,,,,,,,0,,,,,1,,,1947623,pdf,11d5436d532ef4ea6749c0e0b56aadd3,,,_304070.11d5436d532ef4ea6749c0e0b56aadd3.pdf,0,2000-01-01 01:00:00,2016-04-03 02:51:08,828000/11d5436d532ef4ea6749c0e0b56aadd3-g.jpg,,
5451158,A Treatise on the Calculus of Finite Differences (Cambridge Library Collection - Mathematics),,Cambridge Library Collection - Mathematics ,,George Boole,2009,1,Cambridge University Press,,261,0,English ,,,,"1108000924,9781108000925",,,,,,,,h4vJPwAACAAJ,,,300,,,,0,1,1,1,2068817,djvu,11d8c71e9656d8fc1fff7ae6fea5e3fb,,,_398663.11d8c71e9656d8fc1fff7ae6fea5e3fb.djvu,0,2000-01-01 01:00:00,2016-04-03 02:51:08,828000/11d8c71e9656d8fc1fff7ae6fea5e3fb-d.jpg,,
5451155,"Gute Kinder schlechter Eltern?: Familienleben, Jugendfürsorge und Sorgerechtsentzug in Hamburg, 1884-1914",,,,Johannes Richter,2011,2011,Vs Verlag,,667,0,German ,,,,"3531176250,9783531176253",,,,,,,,,,,0,,,,1,0,1,1,4290368,pdf,11cbcde8997bff66645b9d8f513eadd4,,,_290605.11cbcde8997bff66645b9d8f513eadd4.pdf,0,2000-01-01 01:00:00,2016-04-03 02:51:08,828000/11cbcde8997bff66645b9d8f513eadd4-d.jpg,,
5451156,"Co-operative Structures in Global Business: Communicating, Transferring Knowledge and Learning across the Corporate Frontier (Routledge International Studies in Business History)",,,,Gordon H. Boyce,2000,1,Routledge,,258,0,English ,,,,"0415216443,9780415216449",,,,,,,,,OL16997675M,,0,,,,1,0,0,1,3660365,pdf,11cd0b95e9b31d403cd12b8ee2670e2e,,,_300100.11cd0b95e9b31d403cd12b8ee2670e2e.pdf,0,2000-01-01 01:00:00,2016-04-03 02:51:08,828000/11cd0b95e9b31d403cd12b8ee2670e2e-d.jpg,,
5451154,"Linguistic Theories of Humor (Humor Research, No. 1)",,,,Salvatore Attardo,1994,,Mouton De Gruyter,,426,0,English ,,,,"3110142554,9783110142556",,,,,809.7,P302.5 .A9 1994,,,OL1432184M,,0,,,,,1,,,22323636,pdf,11c5c48f3eb959a853f800bd61af265d,,,_177462.11c5c48f3eb959a853f800bd61af265d.pdf,0,2000-01-01 01:00:00,2016-04-03 02:51:08,828000/11c5c48f3eb959a853f800bd61af265d-d.jpg,,
5451152,Esistenza e regolarità di soluzioni di alcuni problemi ellittici,,Quaderni dell'Unione Matematica Italiana ,,"L. Boccardo, G. Croce",2010,,Pitagora,,112,0,Italian ,,,,"883711804X,9788837118044",,,,,,,,,,,0,,,,,1,,,697211,pdf,11c1b6adfa53f11ddb97637ed6fa5819,,,_304272.11c1b6adfa53f11ddb97637ed6fa5819.pdf,0,2000-01-01 01:00:00,2016-04-03 02:51:08,828000/11c1b6adfa53f11ddb97637ed6fa5819-g.jpg,,
5451153,Theoretical Foundations and Numerical Methods for Sparse Recovery (Radon Series on Computational and Applied Mathematics),,Radon Series on Computational and Applied Mathematics volume 9,,Massimo Fornasier,2010,1,De Gruyter,,357,0,English ,,,,"3110226146,9783110226140,9783110226157",,,,,,,,,,,0,,,,,0,1,1,7394604,pdf,11c32d4d72788582568e4b45ddcb2d8b,,,_315426.11c32d4d72788582568e4b45ddcb2d8b.pdf,0,2000-01-01 01:00:00,2016-04-03 02:51:08,828000/11c32d4d72788582568e4b45ddcb2d8b-d.jpg,,
5451151,How to Read and do Proofs,,,,Daniel Solow,1982,,John Wiley & Sons,,186,0,English ,,,,"0471866458,9780471866459",,,,,511.3,QA9 .S577 1982,,,OL3045289M,,0,,,,0,1,0,0,1872403,pdf,11c06af7b0e838b808de4351c09cdd8b,,,_298094.11c06af7b0e838b808de4351c09cdd8b.pdf,0,2000-01-01 01:00:00,2016-04-03 02:51:08,828000/11c06af7b0e838b808de4351c09cdd8b-d.jpg,,
5451149,Materials Chemistry,,,,Bradley D. Fahlman,2008,1st ed. 2007. Corr. 2nd printing,Springer,,496,0,English ,,,,"1402061196,9781402061196",,,,,,,,,OL11634363M,,0,,,,,1,,,18260176,pdf,11bd3747d99ad84d7b590e500e5061a9,,,_296614.11bd3747d99ad84d7b590e500e5061a9.pdf,0,2000-01-01 01:00:00,2016-04-03 02:51:08,828000/11bd3747d99ad84d7b590e500e5061a9-d.jpg,,
5451150,"Control, Computation and Information Systems",,Communications in Computer and Information Science volume 140,,P. Balasubramaniam,2011,1st Edition.,Springer,,342,0,English ,,,,"3642192629,9783642192623",1865-0929,,,,,,10.1007/978-3-642-19263-0,Yca1ayeEwHcC,,,0,,,,1,0,1,1,7514568,pdf,11be6a92e44de632b000fe9330e74e53,,,_303526.11be6a92e44de632b000fe9330e74e53.pdf,0,2000-01-01 01:00:00,2016-04-03 02:51:08,828000/11be6a92e44de632b000fe9330e74e53-d.jpg,,
5451148,Competition and Variation in Natural Languages: The Case for Case (Perspectives on Cognitive Science),,,,"Mengistu Amberber, Helen de Hoop",2005,1,Elsevier Science,,374,0,English ,,,,"0080446515,9780080446516",,,,,415.5,P240.6 .C65 2005,,,OL22734414M,,0,,,,,1,,,1876084,pdf,11bc94a9ce9c5a9d7982287e6d37ed22,,,_288821.11bc94a9ce9c5a9d7982287e6d37ed22.pdf,0,2000-01-01 01:00:00,2016-04-03 02:51:08,828000/11bc94a9ce9c5a9d7982287e6d37ed22-d.jpg,,
5451146,Die ersten Christen. Am Anfang war die Liebe,,,,Eberhard Arnold,2007,,Plough Publishing House,,196,0,German ,,,,,,,,,,,,,,,0,,,,1,0,1,1,1323492,pdf,11af34ab5106882d4884782d50f4b8a2,,,_303616.11af34ab5106882d4884782d50f4b8a2.pdf,0,2000-01-01 01:00:00,2016-04-03 02:51:08,828000/11af34ab5106882d4884782d50f4b8a2-g.jpg,,
5451147,Die neue Inquisition. Irrationaler Rationalismus und die Zitadelle der Wissenschaft,,,,Robert Anton Wilson,1992,2.,"Zweitausendeins, Frankfurt am Main",,320,0,German ,,,,,,,,,,,,,,,0,,,,1,0,1,1,1305141,pdf,11b119be7ce255b17f4df6de48394e82,,,_308499.11b119be7ce255b17f4df6de48394e82.pdf,0,2000-01-01 01:00:00,2016-04-03 02:51:08,828000/11b119be7ce255b17f4df6de48394e82-g.jpg,,
5451144,A Reader's Guide to Wallace Stevens,,,,Eleanor Cook,,,,,371,0,English ,,,,0691141088,,,,,,,,,,,0,,,,,1,,,1178174,pdf,11aecc94e69e753b5e3b3699d1207b30,,,_291542.11aecc94e69e753b5e3b3699d1207b30.pdf,0,2000-01-01 01:00:00,2016-04-03 02:51:08,828000/11aecc94e69e753b5e3b3699d1207b30-g.jpg,,
5451145,Oxidants and Antioxidants in Cutaneous Biology (Current Problems in Dermatology),,,,"Jens Thiele, Peter Elsner",2001,1,S. Karger AG (Switzerland),,203,0,English ,,,,"3805571321,9783805571326",,,,,,,,,OL12931197M,,0,,,,,1,,1,3788112,pdf,11af05c4c3d10e2fe55015865e6de235,,,_288621.11af05c4c3d10e2fe55015865e6de235.pdf,0,2000-01-01 01:00:00,2016-04-03 02:51:08,828000/11af05c4c3d10e2fe55015865e6de235-d.jpg,,
5451142,"Etat, qu'as-tu fait de notre monnaie ?",,,,Murray N. Rothbard,2011,,Institut Coppet,,194,0,French ,,,,,,,,,,,,,,,0,,,,1,0,1,1,780429,pdf,11abf7ee488186d1a4f9831c334759cb,,,_313996.11abf7ee488186d1a4f9831c334759cb.pdf,0,2000-01-01 01:00:00,2016-04-03 02:51:08,828000/11abf7ee488186d1a4f9831c334759cb-g.jpg,,
5451143,A Glossary of Phonology (Glossaries in Linguistics),,,,Philip Carr,2009,,Edinburgh University Press,,216,0,English ,,,,"074862404X,9780748624041",,,,,,,,,,,0,,,,,1,,1,811059,pdf,11ac394f871383cf5196280f3f1d0524,,,_289667.11ac394f871383cf5196280f3f1d0524.pdf,0,2000-01-01 01:00:00,2016-04-03 02:51:08,828000/11ac394f871383cf5196280f3f1d0524-d.jpg,,
5451141,Strange Case of Dr Jekyll and Mr Hyde and Other Tales (Oxford World's Classics),,,,Robert Louis Stevenson,2008,,"Oxford University Press, USA",,256,0,English ,,,,"0199536228,9780199536221",,,,,,,,,,,0,,,,,1,0,1,1073638,pdf,11a7b2f83d07b4138219feb2d887f2d2,,,_289771.11a7b2f83d07b4138219feb2d887f2d2.pdf,0,2000-01-01 01:00:00,2016-04-03 02:51:08,828000/11a7b2f83d07b4138219feb2d887f2d2-d.jpg,,
5451140,The Midnight Eye Guide to New Japanese Film,,,,"Tom Mes, Jasper Sharp",2004,,Stone Bridge Press,,376,0,English ,,,,"1880656892,9781880656891",,,,,791.43/0952,PN1993.5.J3 M47 2005,,,OL3297353M,,0,,,,,1,,1,110242256,pdf,11995fda0e0a6117fb9ec5dd84a82042,,,_304915.11995fda0e0a6117fb9ec5dd84a82042.pdf,0,2000-01-01 01:00:00,2016-04-03 02:51:08,828000/11995fda0e0a6117fb9ec5dd84a82042-d.jpg,,
5451138,,,,New Left Review 5 (1960)  ,New Left Review,1960,,,,72,0,English ,,,,,,,,,,,,,,,0,,,,,0,,1,2299474,pdf,11965b3e7dba5e57cfe010f38727544e,,,_302802.11965b3e7dba5e57cfe010f38727544e.pdf,0,2000-01-01 01:00:00,2016-04-03 02:51:08,828000/11965b3e7dba5e57cfe010f38727544e-g.jpg,,
5451139,"The Mahabharata, Volume 2: Book 2:  The Book of Assembly; Book 3: The Book of the Forest",,,,J. A. B. van Buitenen,1981,,University Of Chicago Press,,871,0,English ,,,,"0226846644,9780226846644",,,,,,,,,OL18331579M,,0,,,,,1,,,27134081,pdf,11990887e5d1d9133eeee1c59abbdd8e,,,_315034.11990887e5d1d9133eeee1c59abbdd8e.pdf,0,2000-01-01 01:00:00,2016-04-03 02:51:08,828000/11990887e5d1d9133eeee1c59abbdd8e-d.jpg,,
5451137,I Chose Liberty: Autobiographies of Contemporary Libertarians,,,,Walter Block,2010,,Ludwig von Mises Institute,,442,0,English ,,,,"1610160029,9781610160025",,,,,,,,,,,0,,,,1,0,1,1,4240238,pdf,119633177cb5dec1cd36583d70d7cf73,,,_312397.119633177cb5dec1cd36583d70d7cf73.pdf,0,2000-01-01 01:00:00,2016-04-03 02:51:08,828000/119633177cb5dec1cd36583d70d7cf73-d.jpg,,
5451135,Introduccion al Control de Calidad,,,,Kaoru Ishikawa,1997,,Diaz de Santos,,252,0,Spanish,,,,"8479781726,9788479781729",,,,,,,,,OL13314927M,,0,,,,,1,,,7299285,pdf,1190a53866b7670b812aaf84a3c77a15,,,_309208.1190a53866b7670b812aaf84a3c77a15.pdf,0,2000-01-01 01:00:00,2016-04-03 02:51:08,828000/1190a53866b7670b812aaf84a3c77a15-d.jpg,,
5451136,Adobe Premiere Elements 9 Classroom in a Book,,,,Adobe Creative Team,,,,,322,0,English ,,,,0321749723,,,,,,,,,,,0,,,,,1,,,26248750,pdf,1194df2a29e3793b141c04bfe2facd02,,,_291341.1194df2a29e3793b141c04bfe2facd02.pdf,0,2000-01-01 01:00:00,2016-04-03 02:51:08,828000/1194df2a29e3793b141c04bfe2facd02-g.jpg,,
5451134,Öffentliches Gedenken: Deutsche Erinnerungskulturen seit der Weimarer Republik,,,,Insa Eschebach,2005,,Campus Verlag,,226,0,German ,,,,"359337630X,9783593376301",,,,,940.54/6543,D838.G3 E73 2005,,,OL16294589M,,0,,,,1,0,1,1,10312730,pdf,118be0d9cdc50d7692c1e2c07cb95fe6,,,_313762.118be0d9cdc50d7692c1e2c07cb95fe6.pdf,0,2000-01-01 01:00:00,2016-04-03 02:51:08,828000/118be0d9cdc50d7692c1e2c07cb95fe6-d.jpg,,
5451132,Зеркало Ревизионистов,,,,ИЗДАТЕЛЬСТВО ЛИТЕРАТУРЫ IIA ИНОСТРАННЫХ ЯЗЫКАХ,,,,,12,0,Russian ,,,,,,,,,,,,,,,0,,,,,1,,,22447053,pdf,1189833b94e00093442e993ecb5a66ef,,,_311158.1189833b94e00093442e993ecb5a66ef.pdf,0,2000-01-01 01:00:00,2016-04-03 02:51:08,828000/1189833b94e00093442e993ecb5a66ef-g.jpg,,
5451133,Concise Dictionary of Middle Egyptian (Egyptology: Griffith Institute),,,,Raymond Faulkner,1970,,Griffith Institute,,349,0,English ,,,,"0900416327,9780900416323",,,,,493/.1,PJ1425 .F3,,,OL19476311M,,0,,,,,1,,,15194673,pdf,118a5ba63d84d7903453d4a077465e37,,,_288728.118a5ba63d84d7903453d4a077465e37.pdf,0,2000-01-01 01:00:00,2016-04-03 02:51:08,828000/118a5ba63d84d7903453d4a077465e37-d.jpg,,
5451131,Architecture and Nihilism: On the Philosophy of Modern Architecture (Theoretical Perspectives in Architectura),,Theoretical Perspectives in Architectural History and Criticism ,,Mr. Massimo Cacciari,1995,,Yale University Press,,308,0,English ,,,,"0300063040,9780300063042",,,,,720.1,,,,OL22076655M,,0,,,,0,1,0,0,26751206,pdf,11854dbcdc937a98f53c07de90cf6ae1,,,_293288.11854dbcdc937a98f53c07de90cf6ae1.pdf,0,2000-01-01 01:00:00,2016-04-03 02:51:08,828000/11854dbcdc937a98f53c07de90cf6ae1-d.jpg,,
5451129,Audio Coding: Theory and Applications,,,,Yuli You,2010,1st Edition.,Springer,,362,0,English ,,,,"1441917535,9781441917539",,,,,,,10.1007/978-1-4419-1754-6,fDhb_MzPhFIC,,,0,,,,1,0,1,1,22855773,pdf,117bdde57cab3794af223a3474b6ec79,,,_308496.117bdde57cab3794af223a3474b6ec79.pdf,0,2000-01-01 01:00:00,2016-04-03 02:51:08,828000/117bdde57cab3794af223a3474b6ec79-d.jpg,,
5451130,"Generating Hardware Assertion Checkers: For Hardware Verification, Emulation, Post-Fabrication Debugging and On-Line Monitoring",,,,"Marc Boulé, Zeljko Zilic",2008,1,Springer,,279,0,English ,,,,"1402085850,9781402085857",,,,,,,,,,,0,,,,,0,1,1,3918400,pdf,1182881200cd7ebe5943b72c52529d99,,,_290009.1182881200cd7ebe5943b72c52529d99.pdf,0,2000-01-01 01:00:00,2016-04-03 02:51:08,828000/1182881200cd7ebe5943b72c52529d99-d.jpg,,
5451128,The Genius and the Goddess: Arthur Miller and Marilyn Monroe,,,,Jeffrey Meyers,2009,,Hutchinson,,368,0,English ,,,,9780091925499,,,,,,,,,,,0,,,,,0,,1,1234486,pdf,1171b7352feebf90550e2ae9101e5db5,,,_300542.1171b7352feebf90550e2ae9101e5db5.pdf,0,2000-01-01 01:00:00,2016-04-03 02:51:08,828000/1171b7352feebf90550e2ae9101e5db5-d.jpg,,
5451126,"les quartre livres 1:LA GRANDE ETUDE(Ta hio,Daxue)",,,,Seraphin COUVREUR,,,,,24,0,French ,,,,,,,,,,,,,,,0,,,,,1,,,336843,pdf,116bd3a80371606a614684abb499647f,,,_315198.116bd3a80371606a614684abb499647f.pdf,0,2000-01-01 01:00:00,2016-04-03 02:51:08,828000/116bd3a80371606a614684abb499647f-g.jpg,,
5451127,"Physique quantique, 2e édition",,Savoirs actuels ,,Michel Le Bellac,2007,2e édition,EDP Sciences,,767,0,French ,,,,"2868839983,9782868839985,9782759803132",,,,,,,,,,,0,,,,,0,1,1,4811265,pdf,116f0d28aabc5b6d06cfe34cb1b97b36,,,_382178.116f0d28aabc5b6d06cfe34cb1b97b36.pdf,0,2000-01-01 01:00:00,2016-04-03 02:51:08,828000/116f0d28aabc5b6d06cfe34cb1b97b36-d.jpg,,
5451124,Tibetan Tantric Manuscripts from Dunhuang (Brill's Tibetan Studies Library),,,,"Jacob Dalton, Sam van Schaik",2006,,BRILL,,390,0,English ,,,,"9004154221,9789004154223",,,,,,,,,OL9085759M,,0,,,,0,1,,,1613537,pdf,11661287b3a8caa0812243986b91b154,,,_302603.11661287b3a8caa0812243986b91b154.pdf,0,2000-01-01 01:00:00,2016-04-03 02:51:08,828000/11661287b3a8caa0812243986b91b154-d.jpg,,
5451125,OECD Reviews of Labour Market and Social Policies: Chile,,,,OECD Organisation for Economic Co-operation and Development,2009,,OECD Publishing,,186,0,English ,,,,"926406060X,9789264060609",,,,,,,,,OL23742058M,,0,,,,1,1,0,1,3118100,pdf,1167518d6aca68c51a2471299ca232c2,,,_315339.1167518d6aca68c51a2471299ca232c2.pdf,0,2000-01-01 01:00:00,2016-04-03 02:51:08,828000/1167518d6aca68c51a2471299ca232c2-d.jpg,,
5451122,"Advanced Treatise on Physical Chemistry, Volume 1: Fundamental Principles  and  the Properties of Gases",,,,J R Partington,1949,,LONGMANS GREEN & CO,,982,0,English ,,,,,,,,,,,,,,,0,,,,0,1,0,0,14255337,djvu,115cf9b295eda013b5a3f47da524f0c6,,,_298977.115cf9b295eda013b5a3f47da524f0c6.djvu,0,2000-01-01 01:00:00,2016-04-03 02:51:08,828000/115cf9b295eda013b5a3f47da524f0c6-g.jpg,,
5451123,The Almighty Latin King and Queen Nation: Street Politics and the Transformation of a New York City Gang,,,,"David C. Brotherton PhD, Luis Barrios PhD",2004,,Columbia University Press,,464,0,English ,,,,"0231114184,9780231114189",,,,,,,,,OL9653983M,,0,,,,,1,1,1,11734505,pdf,115d1c40ffe8bc59d73411922c4a4e6e,,,_314191.115d1c40ffe8bc59d73411922c4a4e6e.pdf,0,2000-01-01 01:00:00,2016-04-03 02:51:08,828000/115d1c40ffe8bc59d73411922c4a4e6e-d.jpg,,
5451120,Fuzzy Stochastic Multiobjective Programming,,International Series in Operations Research & Management Science volume 159,,"Masatoshi Sakawa, Ichiro Nishizaki, Hideki Katagiri",2011,1st Edition.,Springer,,278,0,English ,,,,"1441984011,9781441984012",0884-8289,,,,519.3,QA402.5 .S2468 2011,10.1007/978-1-4419-8402-9,SozYbKVZPWgC,OL25166165M,,0,,,,1,0,1,1,1617006,pdf,115909e4291b70018905e9d725488c9a,,,_298389.115909e4291b70018905e9d725488c9a.pdf,0,2000-01-01 01:00:00,2016-04-03 02:51:08,828000/115909e4291b70018905e9d725488c9a-d.jpg,,
5451121,(تفسیر صديقى (جلد 29,,,,محمد عبدالقدير صديقى,,,,,120,0,Urdu ,,,,,,,,,,,,,,,0,,,,,1,,,4783280,pdf,115bf8d70a27d3ec1adc5efb5bd48b9f,,,_300315.115bf8d70a27d3ec1adc5efb5bd48b9f.pdf,0,2000-01-01 01:00:00,2016-04-03 02:51:08,828000/115bf8d70a27d3ec1adc5efb5bd48b9f-g.jpg,,
5451118,Emocionalni razvoj ličnosti,,,,Tatjana Stefanović stanojević,,,,,95,0,Serbian ,,,,,,,,,,,,,,,0,,,,0,0,0,1,960077,pdf,11563954371caffefec15f096d414b7c,,,_300757.11563954371caffefec15f096d414b7c.pdf,0,2000-01-01 01:00:00,2016-04-03 02:51:08,828000/11563954371caffefec15f096d414b7c-g.jpg,,
5451119,Insectivorous Plants (Cambridge Library Collection - Life Sciences),,Cambridge Library Collection - Life Sciences ,,Charles Darwin,2009,1,Cambridge University Press,,475,0,English ,,,,"9780511694127,9781108004848",,,,,,,10.1017/CBO9780511694127,CZ3gPwAACAAJ,,,0,,,,1,1,1,1,8383170,pdf,1158ff8301c9e3b5e48257fede18bcad,,,_397200.1158ff8301c9e3b5e48257fede18bcad.pdf,0,2000-01-01 01:00:00,2016-04-03 02:51:08,828000/1158ff8301c9e3b5e48257fede18bcad-d.jpg,,
5451116,Sony Clie for Dummies,,For dummies ,,Denny Atkin,2004,1,For Dummies,,387,0,English ,,,,"0764571990,9780764571992",,,,,004.165,QA76.8.S645 A85 2004,,9JucrIx6UtkC,OL3313807M,,0,,,,1,0,1,1,6451525,pdf,115571410d107639e2c0fabd18fe4eb7,,,_315793.115571410d107639e2c0fabd18fe4eb7.pdf,0,2000-01-01 01:00:00,2016-04-03 02:51:08,828000/115571410d107639e2c0fabd18fe4eb7-d.jpg,,
5451117,Fondues : Plaisir et convivialité,,,,Angelika Ilies,2005,Carnets de cuisine,Editions Vigot,,65,0,French ,,,,"271141731X,9782711417315",,,,,,,,,,,0,,,,,1,,,5573081,pdf,1155908137592999d886c41b8f25723d,,,_295706.1155908137592999d886c41b8f25723d.pdf,0,2000-01-01 01:00:00,2016-04-03 02:51:08,828000/1155908137592999d886c41b8f25723d-d.jpg,,
5451114,Subwavelength light confinement with surface plasmon polaritons,,,,Ewold Verhagen,,,,,186,0,English ,,,,9789077209370,,,,,,,,,,,0,,,,,1,,,7067971,pdf,114f7e8d33e2bfa22165a9de3a52e1c2,,,_302580.114f7e8d33e2bfa22165a9de3a52e1c2.pdf,0,2000-01-01 01:00:00,2016-04-03 02:51:08,828000/114f7e8d33e2bfa22165a9de3a52e1c2-g.jpg,,
5451115,词学新诠,,,,叶嘉莹,2010,,Peking University Press,,199,0,Chinese (PRC),,,,9787301132784,,,,,,,,,OL23212023M,,0,,,,,1,,,12059949,pdf,11529874c40f98d28ad888f7f1c6db00,,,_292922.11529874c40f98d28ad888f7f1c6db00.pdf,0,2000-01-01 01:00:00,2016-04-03 02:51:08,828000/11529874c40f98d28ad888f7f1c6db00-d.jpg,,
5451112,101 Law Forms for Personal Use,,,,"Ralph E. Warner, Robin Leonard",2007,6,NOLO,,394,0,English ,,,,"1413307124,9781413307122",,,,,,,,XLTrQhgCWqoC,OL9893712M,,0,,,,1,0,1,1,1864069,pdf,11439e1a80bc4e54c65e6b3e04a1f0c6,,,_310634.11439e1a80bc4e54c65e6b3e04a1f0c6.pdf,0,2000-01-01 01:00:00,2016-04-03 02:51:08,828000/11439e1a80bc4e54c65e6b3e04a1f0c6-d.jpg,,
5451113,Return on Investment in Meetings & Events: tools and techniques to measure the success of all types of meetings and events,,,,"Jack J. Phillips, M. Theresa Breining, Patricia Pulliam Phillips",2008,,Butterworth-Heinemann,,302,0,English ,,,,"0750683384,9780750683388",,,,,,,,,OL10809539M,,0,,,,,1,1,1,1666752,pdf,114ea20340d445dec2432e8a72f62c68,,,_306185.114ea20340d445dec2432e8a72f62c68.pdf,0,2000-01-01 01:00:00,2016-04-03 02:51:08,828000/114ea20340d445dec2432e8a72f62c68-d.jpg,,
5451111,Digitale Signalverarbeitung 2: Entwurf diskreter Systeme,,,,Hans W. Schüßler,2009,2010,Springer,,547,0,German ,,,,"3642011187,9783642011184",,,,,,,10.1007/978-3-642-01119-1,,,,0,,,,1,0,1,1,7392843,pdf,1142ba751d9fcf036b14dece6692ff3b,,,_299206.1142ba751d9fcf036b14dece6692ff3b.pdf,0,2000-01-01 01:00:00,2016-04-03 02:51:08,828000/1142ba751d9fcf036b14dece6692ff3b-d.jpg,,
5451109,The Trigger Point Therapy Workbook: Your Self-Treatment Guide for Pain Relief,,,,Clair Davies,2001,2nd,New Harbinger Publications,,276,0,English ,,,,"1572242507,9781572242500",,,,,616.0472,,,,OL15517835M,,0,,,,,1,,1,5697461,djvu,1138ea3be253744a739f704f4e8a68ff,,,_305147.1138ea3be253744a739f704f4e8a68ff.djvu,0,2000-01-01 01:00:00,2016-04-03 02:51:08,828000/1138ea3be253744a739f704f4e8a68ff-d.jpg,,
5451110,机器岛(儒勒·凡尔纳选集),, 儒勒·凡尔纳选集 ,,"儒勒·凡尔纳(Jules Verne)著, 联星译",1958,1,中国青年出版社 ,,423,0,Chinese (PRC),,,,"7500609892,9787500609896",,,,,,,,x1pXAAAACAAJ,,,0,,,,,0,1,1,25127489,pdf,113e7e181c403757eed9692f3329477b,,,_297680.113e7e181c403757eed9692f3329477b.pdf,0,2000-01-01 01:00:00,2016-04-03 02:51:08,828000/113e7e181c403757eed9692f3329477b-g.jpg,,
5451108,"Geographic Information Science: 6th International Conference, GIScience 2010, Zurich, Switzerland, September 14-17, 2010. Proceedings (Lecture Notes ... Applications, incl. Internet Web, and HCI)",,Lecture Notes in Computer Science volume 6292,,"Sara Irina Fabrikant, Tumasch Reichenbacher, Marc van Kreveld, Christoph Schlieder",2010,1st Edition.,Springer,,336,0,English ,,,,"3642152996,9783642152993",,,,,,,,,OL25202206M,,0,,,,0,0,1,1,10686819,pdf,1135124260ba23866842f7a3277b66c0,,,_313564.1135124260ba23866842f7a3277b66c0.pdf,0,2000-01-01 01:00:00,2016-04-03 02:51:08,828000/1135124260ba23866842f7a3277b66c0-d.jpg,,
5451106,"Evolution's Rainbow: Diversity, Gender, and Sexuality in Nature and People",,,,Joan Roughgarden,2004,1,University of California Press,,485,0,English ,,,,"0520240731,9780520240735",,,,,,,,,OL7711834M,,0,,,,0,0,1,1,2700306,pdf,112f0373a00bfca6f3f7f887b004ba13,,,_295462.112f0373a00bfca6f3f7f887b004ba13.pdf,0,2000-01-01 01:00:00,2016-04-03 02:51:08,828000/112f0373a00bfca6f3f7f887b004ba13-d.jpg,,
5451107,Smart Alliance: How a Global Corporation and Environmental Activists Transformed a Tarnished Brand (Yale Agrarian Studies),,Yale Agrarian Studies ,,"J. Gary Taylor, Patricia J. Scharlin",2004,,Yale University Press,,301,0,English ,,,,"030010233X,9780300102338",,,,,,,,,OL9633096M,,0,,,,1,1,1,1,2602646,pdf,11316c70b41c66d4e6874b9e98bf9b75,,,_311317.11316c70b41c66d4e6874b9e98bf9b75.pdf,0,2000-01-01 01:00:00,2016-04-03 02:51:08,828000/11316c70b41c66d4e6874b9e98bf9b75-d.jpg,,
5451104,Transformations: Thinking after Heidegger,,New Studies Phenomenology/Hermeneutics ,,Gail Stenstad,2006,1,University of Wisconsin Press,,248,0,English ,,,,"029921544X,9780299215446",,,,,193,B3279.H49 S696 2005,,MjahIUXoKu0C,OL10317266M,,0,,,,1,0,1,1,1600187,pdf,11293d82be2eff3a879819d175b0988b,,,_309724.11293d82be2eff3a879819d175b0988b.pdf,0,2000-01-01 01:00:00,2016-04-03 02:51:08,828000/11293d82be2eff3a879819d175b0988b-d.jpg,,
5451105,Cross-Lingual Annotation Projection Models for Role-Semantic Information,,,,Eingereicht von Sebastian Pado,,,,,229,0,English ,,,,,,,,,,,,,,,0,,,,,1,,,1764250,pdf,112b071b21f4dae4b0aa8c6a6eeee813,,,_304847.112b071b21f4dae4b0aa8c6a6eeee813.pdf,0,2000-01-01 01:00:00,2016-04-03 02:51:08,828000/112b071b21f4dae4b0aa8c6a6eeee813-g.jpg,,
5451103,"Visual Agnosia, Second Edition (Bradford Books)",,,,Martha J. Farah,2004,second edition,The MIT Press,,176,0,English ,,,,"0262562030,9780262562034",,,,,,,,,OL17132384M,,0,,,,,1,1,,1192379,pdf,11293bcb8421c3142cba1fdf1dcd6118,,,_289244.11293bcb8421c3142cba1fdf1dcd6118.pdf,0,2000-01-01 01:00:00,2016-04-03 02:51:08,828000/11293bcb8421c3142cba1fdf1dcd6118-d.jpg,,
5451101,Das Geheimnis der Schnallenschuhe (Hachette Collections - Band 27),,,,Agatha Christie,2009,,Hachette Collections,,201,0,German ,,,,,,,,,,,,,,,0,,,,1,0,1,1,1331301,pdf,1121996674382e06a8a31d90127cac1f,,,_305410.1121996674382e06a8a31d90127cac1f.pdf,0,2000-01-01 01:00:00,2016-04-03 02:51:08,828000/1121996674382e06a8a31d90127cac1f-g.jpg,,
5451102,Feynmana wyklady z fizyki 2 Czesc 1,,,,Richard P. Feynman,2001,,Wydawnictwo Naukowe Pwn,,425,0,Polish ,,,,"8301134879,9788301134877",,,,,,,,,,,0,,,,,1,,0,4492684,djvu,1126a52e89f3fe0a98a251dd56e9b8bb,,,_356900.1126a52e89f3fe0a98a251dd56e9b8bb.djvu,0,2000-01-01 01:00:00,2016-04-03 02:51:08,828000/1126a52e89f3fe0a98a251dd56e9b8bb-g.jpg,,
5451099,Grammar Practice Book: Grade 6,,,,Houghton Mifflin Company,,,,,172,0,English ,,,,0153499133,,,,,,,,,,,0,,,,,1,,,5034263,pdf,111a588b7c89a32b9a7a2374d2ae8336,,,_315520.111a588b7c89a32b9a7a2374d2ae8336.pdf,0,2000-01-01 01:00:00,2016-04-03 02:51:08,828000/111a588b7c89a32b9a7a2374d2ae8336-g.jpg,,
5451100,"Nano Materials: in Architecture, Interior Architecture and Design",,,,Sylvia Leydecker,2008,1,Birkhäuser Architecture,,192,0,English ,,,,"3764379952,9783764379957",,,,,,,,,OL16899425M,,0,,,,1,1,1,1,14145798,pdf,111bb066f8adb47a13f009a3b67eeace,,,_312869.111bb066f8adb47a13f009a3b67eeace.pdf,0,2000-01-01 01:00:00,2016-04-03 02:51:08,828000/111bb066f8adb47a13f009a3b67eeace-d.jpg,,
5451098,"Principles of Geology, Volume 2: An Attempt to Explain the Former Changes of the Earth&#39;s Surface, by Reference to Causes now in Operation (Cambridge Library Collection - Life Sciences)",,Cambridge Library Collection - Life Sciences volume 2,,Charles Lyell,2009,1,Cambridge University Press,,352,0,English ,,,,"9780511701566,9781108001366",,,,,,,10.1017/CBO9780511701566,icrzhSRhs3YC,,,0,,,,1,1,1,1,9425707,pdf,11172fd843c4988615016d71fc94f520,,,_404645.11172fd843c4988615016d71fc94f520.pdf,0,2000-01-01 01:00:00,2016-04-03 02:51:08,828000/11172fd843c4988615016d71fc94f520-d.jpg,,
5451097,The Facts on File Companion to British Poetry: 19th Century (Companion to Literature Series),,,,William Flesch,2009,1,Facts on File,,480,0,English ,,,,"0816058962,9780816058969",,,,,821/.809,PR591 .F54 2009,,,OL11360125M,,0,,,,1,0,0,1,5364118,pdf,1114065158219c330a724a76430923e2,,,_288461.1114065158219c330a724a76430923e2.pdf,0,2000-01-01 01:00:00,2016-04-03 02:51:08,828000/1114065158219c330a724a76430923e2-d.jpg,,
5451095,Frequency of Sternal Variations and Anomalies Evaluated by MDCT,,,,E. Yekeler,,,,,5,0,English ,,,,,,,,,,,,,,,0,,,,,1,,,1253156,pdf,110e8b3e8d34f1aa7fe3e45a1ef66c4d,,,_292974.110e8b3e8d34f1aa7fe3e45a1ef66c4d.pdf,0,2000-01-01 01:00:00,2016-04-03 02:51:08,828000/110e8b3e8d34f1aa7fe3e45a1ef66c4d-g.jpg,,
5451096,"MTTC English 02 Teacher Certification, 2nd Edition (XAM MTTC)",,XAM MTTC ,,Sharon Wynne,2007,2,XAMOnline.com,,321,0,English ,,,,9781607878506,,,,,,,,,,,0,,,,1,0,1,1,2888186,pdf,110f7e52f2ea16dd502bcdcef47c4bfa,,,_294417.110f7e52f2ea16dd502bcdcef47c4bfa.pdf,0,2000-01-01 01:00:00,2016-04-03 02:51:08,828000/110f7e52f2ea16dd502bcdcef47c4bfa-g.jpg,,
5451092,"Profiles of Wisconsin, 1st Edition",,,,David Garoogian,2007,1st Edition,Grey House Publishing,,748,0,English ,,,,"1592372120,9781592372126",,,,,,,,,OL12377227M,,0,,,,0,0,0,1,13709655,pdf,10f9ad0410db96ffd5edb9fc13e4f6ab,,,_308234.10f9ad0410db96ffd5edb9fc13e4f6ab.pdf,0,2000-01-01 01:00:00,2016-04-03 02:51:08,828000/10f9ad0410db96ffd5edb9fc13e4f6ab-d.jpg,,
5451093,Why's (poignant) Guide to Ruby,,,,why the lucky stiff,,,,,176,0,English ,,,,,,,,,,,,,,,0,,,,0,0,0,1,8854899,pdf,10fa31c105f19f4fd8f0259b16850d3b,,,_289949.10fa31c105f19f4fd8f0259b16850d3b.pdf,0,2000-01-01 01:00:00,2016-04-03 02:51:08,828000/10fa31c105f19f4fd8f0259b16850d3b-g.jpg,,
5451094,Heidegger and ''the jews'',,,,Jean-Francois Lyotard,1990,1,Univ Of Minnesota Press,,138,0,English ,,,,"0816618577,9780816618576",,,,,193,B3279.H49 L9613 1990,,,OL1874385M,,0,,,,1,1,1,1,5510511,pdf,10fdcb0bb5bb5a3b3ff1da94d4fc45d2,,,_303644.10fdcb0bb5bb5a3b3ff1da94d4fc45d2.pdf,0,2000-01-01 01:00:00,2016-04-03 02:51:08,828000/10fdcb0bb5bb5a3b3ff1da94d4fc45d2-d.jpg,,
5451091,"Languages, Methodologies, and Development Tools for Multi-Agent Systems: Second International Workshop, LADS 2009, Torino, Italy, September 7-9, 2009, ...   Lecture Notes in Artificial Intelligence)",,Lecture Notes in Computer Science volume 6039,,"Mehdi Dastani, Amal El Fallah Seghrouchni, Joao Leite, Paolo Torroni",2010,1st Edition.,Springer,,191,0,English ,,,,"3642133371,9783642133374",,,,,006.3,QA76.76.I58 L37 2009,,,OL25066272M,,0,,,,0,0,1,1,2964083,pdf,10f6cf94622e5d5ea89ea2908f2a5383,,,_313314.10f6cf94622e5d5ea89ea2908f2a5383.pdf,0,2000-01-01 01:00:00,2016-04-03 02:51:08,828000/10f6cf94622e5d5ea89ea2908f2a5383-d.jpg,,
5451090,Il filo nero,,,,Giorgio Bocca,1995,,Mondadori,,229,0,Italian ,,,,8804400927,,,,,320.53/3/094509045,DG577 .B66 1995,,,OL934231M,,0,,,,,1,,1,558467,pdf,10f3285f2f3a086e3f6b2b01a50e1712,,,_313528.10f3285f2f3a086e3f6b2b01a50e1712.pdf,0,2000-01-01 01:00:00,2016-04-03 02:51:08,828000/10f3285f2f3a086e3f6b2b01a50e1712-g.jpg,,
5451088,Евхаристија,,,,Александар Шмеман,2002,,Манастир Хиландар,,190,0,Serbian ,,,,,,,,,,,,,,,0,,,,1,1,,0,13666883,pdf,10f0d5237ef75e08ef3b8f7cc367569b,,,_307510.10f0d5237ef75e08ef3b8f7cc367569b.pdf,0,2000-01-01 01:00:00,2016-04-03 02:51:08,828000/10f0d5237ef75e08ef3b8f7cc367569b-g.jpg,,
5451089,"Pro Silverlight 4 in VB, 3rd Ed",,,,Matthew MacDonald,2010,3,Apress,,882,0,English ,,,,"1430235489,9781430235484",,,,,,,,,,,0,,,,,1,,,22412457,pdf,10f31d9b64149742e3e9915c03b6be38,,,_297577.10f31d9b64149742e3e9915c03b6be38.pdf,0,2000-01-01 01:00:00,2016-04-03 02:51:08,828000/10f31d9b64149742e3e9915c03b6be38-d.jpg,,
5451087,Sixth International Congress on Industrial and Applied Mathematics (European Mathematical Society),,,,Rolf Jeltsch and Gerhard Wanner,2009,,European Mathematical Society,,530,0,English ,,,,"3037190566,9783037190562",,,,,,,,,,,300,,,,,1,1,1,6190961,djvu,10f02987ed5f8e712c4c1d4857f30aef,,,_296578.10f02987ed5f8e712c4c1d4857f30aef.djvu,0,2000-01-01 01:00:00,2016-04-03 02:51:08,828000/10f02987ed5f8e712c4c1d4857f30aef-d.jpg,,
5451086,"The Chloroplast: Interactions with the Environment (Plant Cell Monographs, Volume 13)",,Plant Cell Monographs volume 13,,"Anna Stina Sandelius, Henrik Aronsson",2008,1,Springer,,307,0,English ,,,,"3540686924,9783540686927,9783540686965",,,,,,,,aQR__H2XBnUC,,,0,,,,1,0,1,1,5240890,pdf,10ed86e7ee4efca56e011d977f000b12,,,_299397.10ed86e7ee4efca56e011d977f000b12.pdf,0,2000-01-01 01:00:00,2016-04-03 02:51:08,828000/10ed86e7ee4efca56e011d977f000b12-d.jpg,,
5451084,Power Electronic Control in Electrical Systems (Newnes Power Engineering Series),,Newnes Power Engineering Series ,,"Enrique Acha, Vassilios Agelidis, Olimpo Anaya, TJE Miller",2002,1,Newnes,,452,0,English ,,,,"0750651261,9780750651264",,,,,621.317,TK1007 .P64 2002,,O_T81gC-GzcC,OL3439727M,,0,,,,1,0,1,1,6950837,pdf,10eaa90b597f8b554d009d171a8c5e9c,,,_306383.10eaa90b597f8b554d009d171a8c5e9c.pdf,0,2000-01-01 01:00:00,2016-04-03 02:51:08,828000/10eaa90b597f8b554d009d171a8c5e9c-d.jpg,,
5451085,La musique Française Classique,,,,Jean François Paillard,,,,,132,0,French ,,,,,,,,,,,,,,,0,,,,,1,,,4949111,pdf,10ed06d79112da4d4639d25a12fa228f,,,_303044.10ed06d79112da4d4639d25a12fa228f.pdf,0,2000-01-01 01:00:00,2016-04-03 02:51:08,828000/10ed06d79112da4d4639d25a12fa228f-g.jpg,,
5451083,Selected Papers on Automath (Studies in Logic and the Foundations of Mathematics),,Studies in Logic and the Foundations of Mathematics volume Vol. 133,,"R.P. Nederpelt, J.H. Geuvers, R.C. de Vrijer (editors)",1994,,North-Holland,,1045,0,English ,,,,"0444898220,9780444898227,9780080887180",,,,,511.3,QA267.3 .S45 1994,,,OL1108681M,,0,,,,1,1,1,1,52180400,pdf,10e49e3a847517955ccfd44bb28c271d,,,_305617.10e49e3a847517955ccfd44bb28c271d.pdf,0,2000-01-01 01:00:00,2016-04-03 02:51:08,828000/10e49e3a847517955ccfd44bb28c271d-d.jpg,,
5451080,Invitation to the Life Span 1e,,,,Kathleen Stassen Berger,2009,First Edition,Worth Publishers,,600,0,English ,,,,"0716754665,9780716754664",,,,,155,,,,,,0,,,,,1,,,26772282,pdf,10d836644461a8f6b30c02906f62ee43,,,_304874.10d836644461a8f6b30c02906f62ee43.pdf,0,2000-01-01 01:00:00,2016-04-03 02:51:08,828000/10d836644461a8f6b30c02906f62ee43-d.jpg,,
5451081,中国史纲,,,,张荫麟,1999,,Shanghai Chinese Classics Publishing House,,279,0,Chinese (PRC),,,,"7532526747,9787532526741",,,,,,,,,OL21262462M,,0,,,,0,1,0,0,6959590,pdf,10dc3410d6cafaf1c19a57eacf2c8b4c,,,_315349.10dc3410d6cafaf1c19a57eacf2c8b4c.pdf,0,2000-01-01 01:00:00,2016-04-03 02:51:08,828000/10dc3410d6cafaf1c19a57eacf2c8b4c-g.jpg,,
5451082,Careers in professional basketball: your dream can come true,,,,Institute for Career Research Editors,2003,,Institute for Career Research,,39,0,English ,,,,"1585110299,9781585110292",,,,,,,,TBRQAAAACAAJ,,,0,,,,1,0,1,1,480835,pdf,10e2f03e454a42f4ec17bdb9b83b5c24,,,_302244.10e2f03e454a42f4ec17bdb9b83b5c24.pdf,0,2000-01-01 01:00:00,2016-04-03 02:51:08,828000/10e2f03e454a42f4ec17bdb9b83b5c24-g.jpg,,
5451078,The Varieties of Psychedelic Experience. The First Comprehensive Guide to the Effects of LSD on Human Personality,,,,"R. E. L. Masters, Jean Houston",1966,,Dell Publishing,,242,0,English ,,,,,,B000IY727M,,,,,,,,,0,,,,,0,1,1,1168939,pdf,10cd68ce2ed69d994e01336a645fc2d4,,,_302246.10cd68ce2ed69d994e01336a645fc2d4.pdf,0,2000-01-01 01:00:00,2016-04-03 02:51:08,828000/10cd68ce2ed69d994e01336a645fc2d4-g.jpg,,
5451079,Quantum Electronics for Atomic Physics (Oxford Graduate Texts),,,,Warren Nagourney,2010,,"Oxford University Press, USA",,400,0,English ,,,,"9780191576287,019157628X,9780199532629,0199532621",,,,,537.5,QC689.5.L37 N34 2010,,,OL24882177M,,0,,,,,1,,,5397835,pdf,10d2e4283fe517e0c9a812353c2d5660,,,_197765.10d2e4283fe517e0c9a812353c2d5660.pdf,0,2000-01-01 01:00:00,2016-04-03 02:51:08,828000/10d2e4283fe517e0c9a812353c2d5660-d.jpg,,
5451077,Comprehensive Organic Functional Group Transformations II: v. 5(Carbon with Two Attached Heteroatoms with at Least One Carbon-to-Heteroatom Multiple Link ),,,,"Alan R. Katritzky, Richard J. K. Taylor and Ray Jones",2004,,Elsevier,,1111,0,English ,,,,"0080442579,9780080442570",,,,,,,,,,,0,,,,,1,1,1,15262293,pdf,10cafa1601dfc921fc0af70ab6c5b274,,,_309451.10cafa1601dfc921fc0af70ab6c5b274.pdf,0,2000-01-01 01:00:00,2016-04-03 02:51:08,828000/10cafa1601dfc921fc0af70ab6c5b274-g.jpg,,
5451075,Livable Cities?: Urban Struggles for Livelihood and Sustainability,,,,"Peter Evans, ed.",2002,,University of California Press,,291,0,English ,,,,"0520230256,9780520230255",,,,,,,,,OL17034913M,,0,,,,1,1,1,1,1476906,pdf,10b9d6c7b88436528b8b47a704e4948a,,,_301778.10b9d6c7b88436528b8b47a704e4948a.pdf,0,2000-01-01 01:00:00,2016-04-03 02:51:08,828000/10b9d6c7b88436528b8b47a704e4948a-d.jpg,,
5451076,Fundamentals of Algorithmics,,,,"Gilles Brassard, Paul Bratley",1995,1,Prentice Hall,,524,0,English ,,,,"0133350681,9780133350685",,,,,511/.8,QA9.58 .B73 1996,,,OL1119294M,,0,,,,,1,,,28947898,pdf,10caa250f51701131d72d12d4ba36b4c,,,_257099.10caa250f51701131d72d12d4ba36b4c.pdf,0,2000-01-01 01:00:00,2016-04-03 02:51:08,828000/10caa250f51701131d72d12d4ba36b4c-d.jpg,,
5451074,"Global Analysis of Minimal Surfaces, Revised and enlarged 2nd edition (Grundlehren der mathematischen Wissenschaften 341)",,Grundlehren der mathematischen Wissenschaften volume 341,,"Ulrich Dierkes, Stefan Hildebrandt, Anthony J. Tromba",2010,Revised and enlarged 2nd edition,Springer,,554,0,English ,,,,"3642117058,9783642117053",,,,,516.362,QA644 .D54 2010,,,OL25086246M,,0,,,,1,0,1,1,4518288,pdf,10ad59733e4a4573ccc190df418b5ab0,,,_197282.10ad59733e4a4573ccc190df418b5ab0.pdf,0,2000-01-01 01:00:00,2016-04-03 02:51:08,828000/10ad59733e4a4573ccc190df418b5ab0-d.jpg,,
5451072,Ultimate French Advanced (Coursebook),,,,Living Language,2003,Bilingual,Living Language,,401,0,English ,,,,"1400020557,9781400020553",,,,,448.2/421,PC2129.E5 H4526 2003,,,OL3323357M,,0,,,,,1,,0,113741957,pdf,10a73ce36ffa493512036e1ae9d9533b,,,_314450.10a73ce36ffa493512036e1ae9d9533b.pdf,0,2000-01-01 01:00:00,2016-04-03 02:51:08,828000/10a73ce36ffa493512036e1ae9d9533b-d.jpg,,
5451073,Secrets from Inside the Pizzeria,,,,Beverly Collins,2007,2nd,,,78,0,English ,,,,,,,,,,,,,,,0,,,,0,1,,,12620223,pdf,10ab325a4cd57ddf5f05a1c75c413b5c,,,_305102.10ab325a4cd57ddf5f05a1c75c413b5c.pdf,0,2000-01-01 01:00:00,2016-04-03 02:51:08,828000/10ab325a4cd57ddf5f05a1c75c413b5c-g.jpg,,
5451070,Von Revolution bis Koalition: Linke Parteien in Europa,,Texte (Rosa-Luxemburg-Stiftung) volume 52,,"Birgit Daiber, Cornelia Hildebrandt, Anna Striethorst",2010,,"Dietz, Berlin",,354,0,German ,,,,"3320022407,9783320022402",,,,,,,,,,,0,,,,0,0,0,1,1348291,pdf,10a2992221db334b113600eaadff7d59,,,_296958.10a2992221db334b113600eaadff7d59.pdf,0,2000-01-01 01:00:00,2016-04-03 02:51:08,828000/10a2992221db334b113600eaadff7d59-g.jpg,,
5451071,BASICS Neurochirurgie,,,,Stephan Dützmann,2008,,Urban & Fischer Verlag/Elsevier,,137,0,German ,,,,"3437424866,9783437424861",,,,,,,,,,,0,,,,0,1,0,1,23595655,pdf,10a52f6c6307f8a5cf3a9fe955d004d1,,,_296766.10a52f6c6307f8a5cf3a9fe955d004d1.pdf,0,2000-01-01 01:00:00,2016-04-03 02:51:08,828000/10a52f6c6307f8a5cf3a9fe955d004d1-d.jpg,,
5451067,Natural Heritage from East to West: Case studies from 6 EU countries,,,,"Niki Evelpidou, Tomás de Figueiredo, Francesco Mauro, Vahap Tecim, Andreas Vassilopoulos",2010,1st Edition.,Springer,,376,0,English ,,,,"364201576X,9783642015762",,,,,,,,,,,0,,,,,0,1,1,57177682,pdf,109c1215d1de6b3ab521a1e5c38c98ea,,,_294227.109c1215d1de6b3ab521a1e5c38c98ea.pdf,0,2000-01-01 01:00:00,2016-04-03 02:51:08,828000/109c1215d1de6b3ab521a1e5c38c98ea-d.jpg,,
5451068,Die Organisation der brasilianischen Grenzsicherheitspolitik : Eine transaktionskostenökonomische Analyse,,,,Anatol Adam,2011,2011,Vs Verlag,,231,0,German ,,,,"3531180657,9783531180656",,,,,,,,v55y-lyfmX8C,,,0,,,,1,0,1,1,1031449,pdf,109c49867025950c76d30a4e5df4876a,,,_299107.109c49867025950c76d30a4e5df4876a.pdf,0,2000-01-01 01:00:00,2016-04-03 02:51:08,828000/109c49867025950c76d30a4e5df4876a-d.jpg,,
5451069,V. I. Lenin : Collected Works : Volume 13 : June 1907 - April 1908,,,,V. I. Lenin,1962,,Foreign Language Press,,558,0,English ,,,,,,B001UFQ5M6,,,,,,,,,0,,,,,1,,1,3236400,pdf,109eb15a7da198edea38ba238f9c655b,,,_302778.109eb15a7da198edea38ba238f9c655b.pdf,0,2000-01-01 01:00:00,2016-04-03 02:51:08,828000/109eb15a7da198edea38ba238f9c655b-g.jpg,,
5451066,昂蒂费尔师傅奇遇记(儒勒·凡尔纳选集),, 儒勒·凡尔纳选集 ,,"儒勒·凡尔纳(Jules Verne)著, ﻿﻿孔昭宇&马河清译",1981,1,中国青年出版社 ,,437,0,Chinese (PRC),,,,"7500609876,9787500609872",,,,,,,,JSM9OwAACAAJ,,,0,,,,,0,1,1,16068615,pdf,109a89a4052351dbcd39928b6cdc6f56,,,_297743.109a89a4052351dbcd39928b6cdc6f56.pdf,0,2000-01-01 01:00:00,2016-04-03 02:51:08,828000/109a89a4052351dbcd39928b6cdc6f56-g.jpg,,
5451065,Chemical Library Design (Methods in Molecular Biology 685),,,,Joe Zhongxiang Zhou,2010,2011,Humana Press,,630,0,English ,,,,"160761930X,9781607619307",,,,,,,,,,,0,,,,,0,1,1,15106267,pdf,109837cdc4c64f65eb27889b735ba718,,,_295832.109837cdc4c64f65eb27889b735ba718.pdf,0,2000-01-01 01:00:00,2016-04-03 02:51:08,828000/109837cdc4c64f65eb27889b735ba718-d.jpg,,
5451063,Organization Theory: From Chester Barnard to the Present and Beyond,,,,Oliver E. Williamson,1995,Expanded,"Oxford University Press, USA",,279,0,English ,,,,"0195098307,9780195098303",,,,,302.3/5/01,HD31 .O753 1995,,,OL1276354M,,0,,,,0,1,0,1,17972407,pdf,108ee86d4475ec3129fa36d82a5c19e1,,,_309657.108ee86d4475ec3129fa36d82a5c19e1.pdf,0,2000-01-01 01:00:00,2016-04-03 02:51:08,828000/108ee86d4475ec3129fa36d82a5c19e1-d.jpg,,
5451064,Felsefe Sorunları,,,,Bertrand Russell,1994,,Kabalcı,,131,0,Turkish ,,,,9757942065,,,,,,,,,,,0,,,,0,1,0,1,3701500,pdf,10922d8a320129226c75ac922dcb1d18,,,_299609.10922d8a320129226c75ac922dcb1d18.pdf,0,2000-01-01 01:00:00,2016-04-03 02:51:08,828000/10922d8a320129226c75ac922dcb1d18-g.jpg,,
5451062,High Germans in the Low Countries: German Merchants and Commerce in Golden Age Antwerp (The Northern World),,The Northern World volume 14,,Donald J. Harreld,2004,,Brill Academic Publishers,,227,0,English ,,,,"9004141049,9789004141049",,,,,,,,,OL9085051M,,0,,,,0,1,0,1,1446937,pdf,108edda35217c92ebd5f6aed48a5dc41,,,_294665.108edda35217c92ebd5f6aed48a5dc41.pdf,0,2000-01-01 01:00:00,2016-04-03 02:51:08,828000/108edda35217c92ebd5f6aed48a5dc41-d.jpg,,
5451060,"Catalogue Des Manuscrits Mazdéens: Zends, Pehlvis, Parsis Et Persans de la Bibliotheque Nationale",,,,Edgar Blochet,1900,,Besançon,,140,0,French ,,,,,,,,,,,,,,,0,,,,1,1,0,0,2746024,djvu,10867a4debd2c42964998750a60cc423,,,_291804.10867a4debd2c42964998750a60cc423.djvu,0,2000-01-01 01:00:00,2016-04-03 02:51:08,828000/10867a4debd2c42964998750a60cc423-g.jpg,,
5451061,Contentious Traditions: The Debate on Sati in Colonial India,,,,Lata Mani,1998,1,University of California Press,,259,0,English ,,,,"0520214064,9780520214064",,,,,393/.9,GT3370 .M36 1998,,,OL360909M,,0,,,,0,1,0,0,28388382,pdf,108833d120a39eda1c3fe4174f316522,,,_312286.108833d120a39eda1c3fe4174f316522.pdf,0,2000-01-01 01:00:00,2016-04-03 02:51:08,828000/108833d120a39eda1c3fe4174f316522-d.jpg,,
5451058,Going After Cacciato,,,,Tim O'Brien,1999,,Broadway,,183,0,English ,,,,"0767904427,9780767904421",,,,,813/.54,PS3565.B75 G6 1999,,,OL20930698M,,0,,,,,1,0,1,711004,pdf,108380a8db827ce82fb1732f79767314,,,_304491.108380a8db827ce82fb1732f79767314.pdf,0,2000-01-01 01:00:00,2016-04-03 02:51:08,828000/108380a8db827ce82fb1732f79767314-d.jpg,,
5451059,Emotion: A Very Short Introduction (Very Short Introductions),,,,Dylan Evans,2003,,Oxford University Pr,,156,0,English ,,,,"0192804618,9780192804617",,,,,152.4,,,,OL7383358M,,0,,,,,1,,,14150748,pdf,10839ca7ec665ba142d59264c686ab98,,,_296244.10839ca7ec665ba142d59264c686ab98.pdf,0,2000-01-01 01:00:00,2016-04-03 02:51:08,828000/10839ca7ec665ba142d59264c686ab98-d.jpg,,
5451057,"Reproduction in Education, Society and Culture",,,,"Professor Pierre Bourdieu, Jean Claude Passeron",1990,2nd,Sage Publications Ltd,,288,0,English ,,,,"0803983190,9780803983199",,,,,,,,,OL1891342M,,0,,,,,1,,,10769138,pdf,107c5e03a55be644f72e2aa8ba6ef4d8,,,_297972.107c5e03a55be644f72e2aa8ba6ef4d8.pdf,0,2000-01-01 01:00:00,2016-04-03 02:51:08,828000/107c5e03a55be644f72e2aa8ba6ef4d8-g.jpg,,
5451055,Learning from Common Mistakes,,,,Guy Brook-Hart,,,,,16,0,English ,,,,"9781107900400,1107900409",,,,,,,,,,,0,,,,,1,0,1,2980735,pdf,10785fba511fe270add35b688f6a34c7,,,_207445.10785fba511fe270add35b688f6a34c7.pdf,0,2000-01-01 01:00:00,2016-04-03 02:51:08,828000/10785fba511fe270add35b688f6a34c7-g.jpg,,
5451056,Job Hunting A to Z: Landing the Job You Want (WetFeet Insider Guide)(Second Edition),,,,WetFeet,2004,2nd Edition,"WetFeet, Inc.",,146,0,English ,,,,1582074275,,,,,,,,,OL8785508M,,0,,,,1,0,,1,11856210,pdf,10797912b64336d91faa9ae07e6ca4c4,,,_306840.10797912b64336d91faa9ae07e6ca4c4.pdf,0,2000-01-01 01:00:00,2016-04-03 02:51:08,828000/10797912b64336d91faa9ae07e6ca4c4-d.jpg,,
5451053,"Historical Dictionary of Feminist Philosophy (Historical Dictionaries of Religions, Philosophies and Movements)",,,,Catherine Villanueva Gardner,2006,,"The Scarecrow Press, Inc.",,275,0,English ,,,,"0810853469,9780810853461",,,,,108.2/03,HQ1190 .G36 2006,,,OL3410547M,,0,,,,1,0,0,1,2858973,pdf,10748ae8d96437014172f79d0bb31819,,,_298106.10748ae8d96437014172f79d0bb31819.pdf,0,2000-01-01 01:00:00,2016-04-03 02:51:08,828000/10748ae8d96437014172f79d0bb31819-d.jpg,,
5451054,Narrative and Discursive Approaches in Entrepreneurship: A Second Movements in Entrepreneurship Book,,,,"Daniel Hjorth, Chris Steyaert",2004,,Edward Elgar Publishing,,328,0,English ,,,,"1843765896,9781843765899",,,,,,,,,OL22593743M,,0,,,,,1,,,1127939,pdf,10779d766467ef206d34cf240cdc9ac5,,,_294982.10779d766467ef206d34cf240cdc9ac5.pdf,0,2000-01-01 01:00:00,2016-04-03 02:51:08,828000/10779d766467ef206d34cf240cdc9ac5-d.jpg,,
5451052,Қытай тілі. 5-сынып,,,,Нұрсаидов Мәди,,,,,115,0,Kazakh ,,,,,,,,,,,,,,,0,,,,,1,,,2685235,pdf,10717fdccff20cd8c907abb747d75c4e,,,_288832.10717fdccff20cd8c907abb747d75c4e.pdf,0,2000-01-01 01:00:00,2016-04-03 02:51:08,828000/10717fdccff20cd8c907abb747d75c4e-g.jpg,,
5451050,Easy StarOffice 7. Mit kleinem Computerlexikon,,,,Beate Majetschak,2003,,Markt + Technik Verlag,,339,0,German ,,,,"3827266688,9783827266682",,,,,,,,,,,0,,,,,1,,,13944590,pdf,106ca5bf50ee3dd29b21ed123ed5ba0d,,,_379846.106ca5bf50ee3dd29b21ed123ed5ba0d.pdf,0,2000-01-01 01:00:00,2016-04-03 02:51:08,828000/106ca5bf50ee3dd29b21ed123ed5ba0d-d.jpg,,
5451051,The Formation of the Scientific Mind: A Contribution to a Psychoanalysis of Objective Knowledge (Clinamen Series on Philosophy of Science),,Philosophy of Science ,,Gaston Bachelard,2002,1,Clinamen Press,,266,0,English ,,,,"1903083206,1903083230",,,,,501,Q175 .B1213 2002,,,OL18490147M,,0,,,,,1,,,2939404,pdf,106fc38911ba872a3f34b2ea7259150c,,,_315545.106fc38911ba872a3f34b2ea7259150c.pdf,0,2000-01-01 01:00:00,2016-04-03 02:51:08,828000/106fc38911ba872a3f34b2ea7259150c-d.jpg,,
5451049,"Charmed, Zauberhafte Schwestern, Bd. 25: Die Söhne Satans",,,,Marc Hillefeld,2003,,Vgs,,188,0,German ,,,,"3802532139,9783802532139",,,,,,,,,OL12926316M,,0,,,,1,0,1,1,484846,pdf,10686b1d490790204854e5bba2dfe7c4,,,_299962.10686b1d490790204854e5bba2dfe7c4.pdf,0,2000-01-01 01:00:00,2016-04-03 02:51:08,828000/10686b1d490790204854e5bba2dfe7c4-d.jpg,,
5451047,Brill's Companion to Ovid,,,,Barbara Weiden Boyd,2002,,Brill Academic Publishers,,550,0,English ,,,,"9004121560,9789004121560",,,,,871/.01,PA6537 .B66 2002,,ZWR0AAAAIAAJ,OL3584441M,,0,,,,1,0,1,1,28568728,pdf,1067e97297fb9bf8cf618e21d67ba04f,,,_313867.1067e97297fb9bf8cf618e21d67ba04f.pdf,0,2000-01-01 01:00:00,2016-04-03 02:51:08,828000/1067e97297fb9bf8cf618e21d67ba04f-d.jpg,,
5451048,Introduction to Special Relativity,,,,Wolfgang Rindler,1989,,Oxford University Press,,192,0,English ,,,,"0198531818,9780198531814",,,,,530.1/1,QC173.65 .R56 1982,,,OL4272520M,,0,,,,,1,,1,3776711,djvu,10685036fe1847caff0055d90ab52ddc,,,_294729.10685036fe1847caff0055d90ab52ddc.djvu,0,2000-01-01 01:00:00,2016-04-03 02:51:08,828000/10685036fe1847caff0055d90ab52ddc-g.jpg,,
5451045,"The Talkies: American Cinema's Transition to Sound, 1926-1931 (History of the American Cinema)",,,,Donald Crafton,1999,1,University of California Press,,651,0,English ,,,,"0520221281,9780520221284",,,,,791.43/0973,"PN1993.5.U6 H55 1994 vol. 4,PN1995.7 H55 1994",,,OL35424M,,0,,,,,1,,0,5128643,djvu,106778c4870eb83e180f389d16eda4e2,,,_292684.106778c4870eb83e180f389d16eda4e2.djvu,0,2000-01-01 01:00:00,2016-04-03 02:51:08,828000/106778c4870eb83e180f389d16eda4e2-d.gif,,
5451046,Signals and Systems Made Ridiculously Simple,,,,Zoher Z. Karu,1995,1,Zizi Press,,139,0,English ,,,,"0964375214,9780964375215",,,,,621.382/23,TK5102.9 .K37 1995,,,OL1133003M,,0,,,,,1,,1,2830320,djvu,106785aca420c64d8febabf7028a7456,,,_296622.106785aca420c64d8febabf7028a7456.djvu,0,2000-01-01 01:00:00,2016-04-03 02:51:08,828000/106785aca420c64d8febabf7028a7456-d.jpg,,
5451044,Gardens of Prehistory: The Archaeology of Settlement Agriculture in Greater Mesoamerica,,,,Thomas W. Killion,1992,,University Alabama Press,,358,0,English ,,,,"0817305653,9780817305659,0585140936,9780585140933",,,,,630/.972/0901,E59.A35 G37 1992,,,OL1702450M,,0,,,,0,1,0,1,3614112,pdf,106664cf115d8b7c6a5363630ca52d2a,,,_292596.106664cf115d8b7c6a5363630ca52d2a.pdf,0,2000-01-01 01:00:00,2016-04-03 02:51:08,828000/106664cf115d8b7c6a5363630ca52d2a-d.jpg,,
5451043,"A Panorama of Hungarian Mathematics in the Twentieth Century, I (Bolyai Society Mathematical Studies Volume 14)",,,,János Horváth,2005,1,Springer,,642,0,English ,,,,"3540289453,9783540289456,9639453048,9789639453043",,,,,510.94390904,,,EWm4WzSaG3IC,OL22721913M,,0,,,,1,1,1,1,20130414,pdf,1065215807a2b3982860ae87c9abe156,,,_169548.1065215807a2b3982860ae87c9abe156.pdf,0,2000-01-01 01:00:00,2016-04-03 02:51:08,828000/1065215807a2b3982860ae87c9abe156-d.jpg,,
5451040,Secrets of Chess Endgame Strategy,,,,Lars Bo Hansen,2006,,Gambit Publications,,176,0,English ,,,,"1904600441,9781904600442",,,,,,,,,OL8772519M,,0,,,,,1,,,8046681,pdf,1052dc894cb437a49ef474cf32071e2f,,,_289546.1052dc894cb437a49ef474cf32071e2f.pdf,0,2000-01-01 01:00:00,2016-04-03 02:51:08,828000/1052dc894cb437a49ef474cf32071e2f-d.jpg,,
5451041,El Zarco,,,,Ignacio Manuel Altamirano,,,Ignacio Manuel Altamirano,,151,0,Spanish,,,,,,,,,,,,,,,0,,,,1,0,1,1,5353617,pdf,10576a388cdb6f6fa9ac378cb54064d0,,,_294889.10576a388cdb6f6fa9ac378cb54064d0.pdf,0,2000-01-01 01:00:00,2016-04-03 02:51:08,828000/10576a388cdb6f6fa9ac378cb54064d0-g.jpg,,
5451042,Ambiguities in Literature and Film: Selected Papers from the Seventh Annual Florida State University Conference on Literature and Film (Florida State University ... on Literature and Film  Selected Papers),,,,"Florida State University Conference on Literature and Film (7th : 1982), Hans P. Braendlin",1988,,Univ Pr of Florida,,154,0,English ,,,,"081300893X,9780813008936,0813019192,9780813019192",,,,,809,PN56.A55 F55 1987,,,OL2401402M,,0,,,,0,1,0,1,677091,pdf,105afcf6cd0c24e0d85f45ddbaa1ff01,,,_294752.105afcf6cd0c24e0d85f45ddbaa1ff01.pdf,0,2000-01-01 01:00:00,2016-04-03 02:51:08,828000/105afcf6cd0c24e0d85f45ddbaa1ff01-g.jpg,,
5451039,"The Cost of Free Speech: Pornography, Hate Speech, and their Challenge to Liberalism",,,,Abigail Levin,2010,,Palgrave Macmillan,,213,0,English ,,,,"0230237681,9780230237681",,,,,,,,,,,0,,,,1,1,1,1,999828,pdf,1052928c309777d54c9755bc49b4cb07,,,_315023.1052928c309777d54c9755bc49b4cb07.pdf,0,2000-01-01 01:00:00,2016-04-03 02:51:08,828000/1052928c309777d54c9755bc49b4cb07-d.jpg,,
5451038,Muscle Manual,,,,Dr. Nikita A. Vizniak,2008,,Professional Health Systems Inc.,,420,0,English ,,,,"0973274220,9780973274226",,,,,,,,,,,0,,,,,1,1,,59851438,pdf,104c547d426e78ba8aa485da8e2c1b36,,,_310158.104c547d426e78ba8aa485da8e2c1b36.pdf,0,2000-01-01 01:00:00,2016-04-03 02:51:08,828000/104c547d426e78ba8aa485da8e2c1b36-g.jpg,,
5451036,"CISSP All-in-One Exam Guide, Fifth Edition",,,,Shon Harris,2010,5,McGraw-Hill Osborne Media,,1164,0,English ,,,,"0071602178,9780071602174",,,,,005.8,QA76.3 .H368 2010,,,OL24002809M,,0,,,,,1,1,1,35371818,pdf,10434cf1a026a43d25903722e112d4ba,,,_312762.10434cf1a026a43d25903722e112d4ba.pdf,0,2000-01-01 01:00:00,2016-04-03 02:51:08,828000/10434cf1a026a43d25903722e112d4ba-d.jpg,,
5451037,"Fetal Radiology: A Diagnostic Atlas, Second Edition",,,,"Reinhard Schumacher, Laurie H. Seaver, Jürgen Spranger",2010,2nd Edition,Springer,,223,0,English ,,,,"3642035590,9783642035593,3642035604,9783642035609",,,,,,,10.1007/978-3-642-03560-9,,,,0,,,,1,0,1,1,7234019,pdf,1049922fcb8aead9ebd421bb949c99ea,,,_304408.1049922fcb8aead9ebd421bb949c99ea.pdf,0,2000-01-01 01:00:00,2016-04-03 02:51:08,828000/1049922fcb8aead9ebd421bb949c99ea-d.jpg,,
5451035,Visions of Struggle in Women's Filmmaking in the Mediterranean (Comparative Feminist Studies),,Comparative Feminist Studies ,,"Flavia Laviosa, Laura Mulvey",2010,,Palgrave Macmillan,,257,0,English ,,,,"0230617360,9780230617360",,,,,791.43/63522091822,PN1995.9.W6 V57 2009,,,OL23392498M,,0,,,,1,0,1,1,1563166,pdf,103c355adcc1020c9a01a7f1c69370a3,,,_292838.103c355adcc1020c9a01a7f1c69370a3.pdf,0,2000-01-01 01:00:00,2016-04-03 02:51:08,828000/103c355adcc1020c9a01a7f1c69370a3-d.jpg,,
5451034,Viruses in Foods (Food Microbiology and Food Safety),,Food Microbiology and Food Safety ,,Sagar Goyal,2006,1,Springer,,355,0,English ,,,,"0387289356,9780387289359",,,,,,,,,OL7445122M,,0,,,,,1,0,,2458754,pdf,103b75105c8ef47761b0a47998dddca9,,,_294091.103b75105c8ef47761b0a47998dddca9.pdf,0,2000-01-01 01:00:00,2016-04-03 02:51:08,828000/103b75105c8ef47761b0a47998dddca9-d.jpg,,
5451032,Catalog of Chess Mistakes,,,,Andrew Soltis,1981,,Three Rivers Press,,216,0,English ,,,,"0679141510,9780679141518",,,,,,,,,OL7698104M,,0,,,,,1,,,3101860,djvu,1035382c9fd984c923ac0d3a351e86e6,,,_293841.1035382c9fd984c923ac0d3a351e86e6.djvu,0,2000-01-01 01:00:00,2016-04-03 02:51:08,828000/1035382c9fd984c923ac0d3a351e86e6-g.jpg,,
5451033,Conquest of Self,,,,M.K. Gandhi,1945,,Thacker & Co. - Rampart Library,,298,0,English ,,,,,,,,,,,,,,,0,,,,1,1,0,1,16707050,pdf,1039984e2fb7839a49dec4016d068393,,,_309865.1039984e2fb7839a49dec4016d068393.pdf,0,2000-01-01 01:00:00,2016-04-03 02:51:08,828000/1039984e2fb7839a49dec4016d068393-g.jpg,,
5451030,Функция и поле речи и языка в психоанализе,,Феноменология.Герменевтика.Философия языка ,,Жак Лакан (Jacques Lacan),1995,,Гнозис,,192,0,Russian ,,,,5733304693,,,,,,,,,,,0,,,,1,1,0,0,3604092,djvu,10288f47798854095c7dc360c019b780,,,_296085.10288f47798854095c7dc360c019b780.djvu,0,2000-01-01 01:00:00,2016-04-03 02:51:08,828000/10288f47798854095c7dc360c019b780-g.jpg,,
5451031,The Taimanov Sicilian,,,,Graham Burgess,2000,,Gambit Publications,,212,0,English ,,,,"1901983331,9781901983333",,,,,,,,,OL8764323M,,0,,,,,1,,0,10561142,pdf,102f728078150cb513afc47a6a0ab9d6,,,_288953.102f728078150cb513afc47a6a0ab9d6.pdf,0,2000-01-01 01:00:00,2016-04-03 02:51:08,828000/102f728078150cb513afc47a6a0ab9d6-d.jpg,,
5451029,"Italians to America, Volume 13 May 1899 -Nov. 1899: List of Passengers Arriving at U.S. Ports",,,,P. William Filby,,,,,540,0,English ,,,,0842028439,,,,,,,,,,,0,,,,,1,,,34592323,pdf,10218285e60238a13ece120984ac0c22,,,_315533.10218285e60238a13ece120984ac0c22.pdf,0,2000-01-01 01:00:00,2016-04-03 02:51:08,828000/10218285e60238a13ece120984ac0c22-g.jpg,,
5451026,Sistemas de especulación en bolsa,,,,"Cava, Jose Luis",2001,1,Cava Romero,,250,0,Spanish,,,,,,,,,,,,,,,0,,,,1,1,0,1,53766189,pdf,1019b686f4c4524655aa9347f1f5de87,,,_301550.1019b686f4c4524655aa9347f1f5de87.pdf,0,2000-01-01 01:00:00,2016-04-03 02:51:08,828000/1019b686f4c4524655aa9347f1f5de87-g.jpg,,
5451027,,,,Paint & Coatings Industry 2010.12  ,BNP Media,2010,,,,78,0,English ,,,,,,,,,,,,,,,0,,,,,1,,1,9375906,pdf,101ddce2f1c2a8157625be3a5b937e98,,,_305470.101ddce2f1c2a8157625be3a5b937e98.pdf,0,2000-01-01 01:00:00,2016-04-03 02:51:08,828000/101ddce2f1c2a8157625be3a5b937e98-g.jpg,,
5451028,Numerical Solution of Boundary Value Problems for Ordinary Differential Equations (Classics in Applied Mathematics),,,,"Uri M. Ascher, Robert M. M. Mattheij, Robert D. Russell",1987,,Society for Industrial and Applied Mathematics,,621,0,English ,,,,"0898713544,9780898713541",,,,,515/.352,QA379 .A83 1995,,,OL797378M,,0,,,,,1,,,26422375,pdf,10200bfa19b86b730bbb6d33e93ddc51,,,_305683.10200bfa19b86b730bbb6d33e93ddc51.pdf,0,2000-01-01 01:00:00,2016-04-03 02:51:08,828000/10200bfa19b86b730bbb6d33e93ddc51-d.jpg,,
5451025,"New Product Development: An Empirical Approach to Study of the Effects of Innovation Strategy, Organization Learning and Market Conditions",,,,"Sameer Kumar, Promma Phrommathed",2005,1,Springer,,212,0,English ,,,,"0387232710,9780387232713",,,,,658.5/75,HF5415.153 .K85 2005,,,OL3310941M,,0,,,,,1,0,,13794184,pdf,10182a40e3396d0d8e64cf3ba062f942,,,_308153.10182a40e3396d0d8e64cf3ba062f942.pdf,0,2000-01-01 01:00:00,2016-04-03 02:51:08,828000/10182a40e3396d0d8e64cf3ba062f942-d.jpg,,
5451023,Student Solutions Manual to accompany Principles of General Chemistry,,,,Martin Silberberg,2006,1,McGraw-Hill Science/Engineering/Math,,354,0,English ,,,,"0073107212,9780073107219",,,,,,,,,OL7306888M,,0,,,,0,1,0,1,26527640,pdf,100c6bcaf5c06ed6ae527a2a48c135b4,,,_289237.100c6bcaf5c06ed6ae527a2a48c135b4.pdf,0,2000-01-01 01:00:00,2016-04-03 02:51:08,828000/100c6bcaf5c06ed6ae527a2a48c135b4-d.jpg,,
5451024,"Winning the Loser's Game, Fifth Edition: Timeless Strategies for Successful Investing",,,,Charles Ellis,2009,5th,McGraw-Hill,,240,0,English ,,,,"0071545492,9780071545495",,,,,,,,,,,0,,,,1,1,1,1,1168260,pdf,100f0ce363c9ba8431071c22cb1ad86f,,,_307103.100f0ce363c9ba8431071c22cb1ad86f.pdf,0,2000-01-01 01:00:00,2016-04-03 02:51:08,828000/100f0ce363c9ba8431071c22cb1ad86f-d.jpg,,
5451022,Indrumar pentru management general,,,,Maria Gaf-Deac,,,,,182,0,"Romanian, Moldavian, Moldovan ",,,,9789737259004,,,,,,,,,,,0,,,,,1,,,2538695,pdf,10053f2ca7261c3a3c1df7bb8d36362a,,,_289960.10053f2ca7261c3a3c1df7bb8d36362a.pdf,0,2000-01-01 01:00:00,2016-04-03 02:51:08,828000/10053f2ca7261c3a3c1df7bb8d36362a-g.jpg,,
5451020,Rules for Growth - Promoting Innovation and Growth Through Legal Reform,,,,Ewing Marion Kauffman Foundation,,,,,513,0,English ,,,,,,,,,,,,,,,0,,,,,1,,,6174304,pdf,09f7d5065f8be8382195f45c56dc15e2,,,_298817.09f7d5065f8be8382195f45c56dc15e2.pdf,0,2000-01-01 01:00:00,2016-04-03 02:51:08,828000/09f7d5065f8be8382195f45c56dc15e2-g.jpg,,
5451021,"Ergonomic Checkpoints: Practical and Easy-to-Implement Solutions for Improving Safety, Health and Working Conditions",,,,International Labour Organisation,2010,second edition,International Labour Office,,350,0,English ,,,,"9221226662,9789221226666",,,,,,,,,OL25024097M,,0,,,,,1,,,8106437,pdf,09fef74ccfdba122e33081b92abd2f79,,,_314182.09fef74ccfdba122e33081b92abd2f79.pdf,0,2000-01-01 01:00:00,2016-04-03 02:51:08,828000/09fef74ccfdba122e33081b92abd2f79-d.jpg,,
5451019,子流形几何(Geometry of Submanifolds),,,,"吴传喜, 李光汉(Chuanxi Wu, Guanghan Li)",2002,,科学出版社,,224,0,Chinese (PRC),,,,7030110145,,,,,,,,KbZxAAAACAAJ,,,400,,,,,1,,,2879121,djvu,09f7b4594fc021916181499eb8c237ec,,,_308473.09f7b4594fc021916181499eb8c237ec.djvu,0,2000-01-01 01:00:00,2016-04-03 02:51:08,828000/09f7b4594fc021916181499eb8c237ec-g.jpg,,
5451017,501 Reading Comprehension Questions,,,,LearningExpress Editors,2010,4th Edition,"LearningExpress, LLC",,224,0,English ,,,,"1576857476,9781576857472",,,,,372.47,LB1050.45 .A15 2010,,,OL23668301M,,0,,,,,1,,,3407982,pdf,09f0cdaa2554397210c6f62db9c84742,,,_280495.09f0cdaa2554397210c6f62db9c84742.pdf,0,2000-01-01 01:00:00,2016-04-03 02:51:08,828000/09f0cdaa2554397210c6f62db9c84742-d.jpg,,
5451018,Filamentous Fungi (Living Resources for Biotechnology),,Living Resources for Biotechnology ,,"D. L. Hawksworth (editor), B. E. Kirsop (editor)",2008,,Cambridge University Press,,221,0,English ,,,,"9780511752278,9780521352260,9780521051828",,,,,,,10.1017/CBO9780511752278,4_aKIQAACAAJ,OL10435260M,,0,,,,1,1,1,1,11770867,pdf,09f5875d50788e4467c878c5a25010c7,,,_406421.09f5875d50788e4467c878c5a25010c7.pdf,0,2000-01-01 01:00:00,2016-04-03 02:51:08,828000/09f5875d50788e4467c878c5a25010c7-d.jpg,,
5451016,"Active Learning Through Drama, Podcasting, and Puppetry",,,,Kristin Fontichiaro,2007,,Libraries Unlimited,,241,0,English ,,,,"1591584027,9781591584025",,,,,,,,Q_8KgzWC7esC,OL8856044M,,0,,,,1,0,1,1,2057039,pdf,09e7368d78a4f30e0a3479e9c07b7ada,,,_313969.09e7368d78a4f30e0a3479e9c07b7ada.pdf,0,2000-01-01 01:00:00,2016-04-03 02:51:08,828000/09e7368d78a4f30e0a3479e9c07b7ada-d.jpg,,
5451014,Maths Homework for Key Stage 2: Activity-Based Learning (Active Homework),,Active Homework ,,"Vicki Parfitt, Colin Forster, Andrea McGowan",2010,,Routledge,,103,0,English ,,,,"041549625X,9780415496254,0203842316,9780203842317",,,,,372.7,QA135.6 .P35 2011,,,OL24580238M,,0,,,,1,0,1,1,3303311,pdf,09e279d3781b95a604f79a3d79653e9b,,,_294164.09e279d3781b95a604f79a3d79653e9b.pdf,0,2000-01-01 01:00:00,2016-04-03 02:51:08,828000/09e279d3781b95a604f79a3d79653e9b-d.jpg,,
5451015,The Hebrew Bible Reborn: From Holy Scripture to the Book of Books: A History of Biblical Culture and the Battles over the Bible in Modern Judaism (Studia Judaica 38),,,,Yaacov Shavit; Mordechai Eran,2007,,Walter de Gruyter,,566,0,English ,,,,"3110191415,9783110191417",,,,,221.6/09034,BS1186 .S43 2007,,lotp-Coz5_YC,OL12664867M,,0,,,,,1,1,1,7003876,pdf,09e55bc5bbe897840033d23d4c65db18,,,_309552.09e55bc5bbe897840033d23d4c65db18.pdf,0,2000-01-01 01:00:00,2016-04-03 02:51:08,828000/09e55bc5bbe897840033d23d4c65db18-d.jpg,,
5451013,Use of Satellite and In-Situ Data to Improve Sustainability,,NATO Science for Peace and Security Series C: Environmental Security ,,"Felix Kogan, Alfred Powell, Oleg Fedorov",2010,1st Edition.,Springer,,327,0,English ,,,,"9048196175,9789048196173",,,,,,,,-ck7CXebDOcC,,,0,,,,1,0,1,1,11747679,pdf,09df45e390173fd8b0e4981cf6b010e6,,,_307449.09df45e390173fd8b0e4981cf6b010e6.pdf,0,2000-01-01 01:00:00,2016-04-03 02:51:08,828000/09df45e390173fd8b0e4981cf6b010e6-d.jpg,,
5451012,The Particle Century,,,,Gordon Fraser,1998,1,Taylor & Francis / Institute of Physics Publishing,,252,0,English ,,,,"0750305436,9780750305433",,,,,539.7/09,QC773 .P37 1998,,,OL379517M,,0,,,,,1,,1,23111306,pdf,09de45127c6bf0c95323df2eb1c73745,,,_309444.09de45127c6bf0c95323df2eb1c73745.pdf,0,2000-01-01 01:00:00,2016-04-03 02:51:08,828000/09de45127c6bf0c95323df2eb1c73745-d.jpg,,
5451010,"Carbonate Platforms: Facies, Sequences and Evolution (IAS Special Publication 9)",,IAS Special Publications volume 9,,"Maurice E. Tucker, James Lee Wilson, Paul D. Crevello, J. Rick Sarg, J. Fred Read",1991,1,Wiley-Blackwell,,328,0,English ,,,,"0632027584,9780632027583",,,,,551.7/5,,10.1002/9781444303834,,OL21578707M,,300,,,,1,1,1,1,51219090,pdf,09d828c25eb6b6b6fcbf053f461f5a75,,,_294901.09d828c25eb6b6b6fcbf053f461f5a75.pdf,0,2000-01-01 01:00:00,2016-04-03 02:51:08,828000/09d828c25eb6b6b6fcbf053f461f5a75-g.jpg,,
5451011,"Frontiers in Algorithmics: Third International Workshop, FAW 2009, Hefei, China, June 20-23, 2009, Proceedings (Lecture Notes in Computer Science   Theoretical Computer Science and General Issues)",,Lecture Notes in Computer Science volume 5598,,"Xiaotie Deng, John E. Hopcroft, Jinyun Xue",2009,1,Springer,,382,0,English ,,,,"3642022693,9783642022692",,,,,005.1,QA76.9.A43 F39 2009,,,OL25248807M,,0,,,,0,0,1,1,6676647,pdf,09d9652a58041e3d718a74fd7934b848,,,_309079.09d9652a58041e3d718a74fd7934b848.pdf,0,2000-01-01 01:00:00,2016-04-03 02:51:08,828000/09d9652a58041e3d718a74fd7934b848-d.jpg,,
5451009,Handbook of Biomineralization: Medical and Clinical Aspects (v. 3),,,,"Matthias Epple, Edmund Bäuerlein, Wolfgang Pompe",2009,1,Wiley-VCH,,424,0,English ,,,,"3527318062,9783527318063",,,,,,,,,OL12767597M,,0,,,,1,0,1,1,34690898,pdf,09d7fb49d62a54bfe01608f16c2f8494,,,_289273.09d7fb49d62a54bfe01608f16c2f8494.pdf,0,2000-01-01 01:00:00,2016-04-03 02:51:08,828000/09d7fb49d62a54bfe01608f16c2f8494-d.jpg,,
5451007,Hellenic Philosophy: Origin And Character,,,,Christos C. Evangeliou,2006,,Ashgate Publishing,,223,0,English ,,,,"0754658473,9780754658474",,,,,,,,,OL22741983M,Missing pages 220-231,0,,,,0,0,0,1,1091215,pdf,09d4edf418c5cbc69cd450461e48b6ee,,,_302540.09d4edf418c5cbc69cd450461e48b6ee.pdf,0,2000-01-01 01:00:00,2016-04-03 02:51:08,828000/09d4edf418c5cbc69cd450461e48b6ee-d.jpg,,
5451008,"Approximation and Online Algorithms, 8th International Workshop, WAOA 2010, Liverpool, UK, September 9-10, 2010, Revised Papers",,Lecture Notes in Computer Science volume 6534,,"Klaus Jansen, Roberto Solis-Oba",2011,1st Edition.,Springer,,286,0,English ,,,,"3642183174,9783642183171",0302-9743,,,,,,10.1007/978-3-642-18318-8,WEz3XCTu-kgC,,,0,,,,1,0,1,1,2726041,pdf,09d69fa9246c4d7356080b73e9316481,,,_307445.09d69fa9246c4d7356080b73e9316481.pdf,0,2000-01-01 01:00:00,2016-04-03 02:51:08,828000/09d69fa9246c4d7356080b73e9316481-d.jpg,,
5451006,The Cooperative Game Theory of Networks and Hierarchies,,Theory and Decision Library C volume 44,,Robert P. Gilles,2010,1st Edition.,Springer,,268,0,English ,,,,"3642052819,9783642052811,9783642052828",0924-6126,,,,,,10.1007/978-3-642-05282-8,g2dqS42F7skC,,,0,,,,1,0,1,1,1961177,pdf,09d390ec1fffed5990f35c2baefc038c,,,_293961.09d390ec1fffed5990f35c2baefc038c.pdf,0,2000-01-01 01:00:00,2016-04-03 02:51:08,828000/09d390ec1fffed5990f35c2baefc038c-d.jpg,,
5451005,"An Arabic-English Vocabulary of the Colloquial Arabic of Egypt: Containing the Vernacular Idioms and Expressions, Slang Phrases, Etc., Etc., Used by the Native Egyptians",,,,Socrates Spiro,1895,,"Cairo, Al-Mokattam Prtg. Off.",,688,0,English ,,,,"114675583X,9781146755832",,,,,,,,,,,0,,,,,1,0,1,29741116,pdf,09ce52e62c22e5435f437a44e0a87965,,,_314751.09ce52e62c22e5435f437a44e0a87965.pdf,0,2000-01-01 01:00:00,2016-04-03 02:51:08,828000/09ce52e62c22e5435f437a44e0a87965-d.jpg,,
5451003,法律史解释,,,,美 罗斯科·庞德,0,,,,170,0,Chinese,,,0,,,,,,,,,,,,0,,,,,1,,,9394741,pdf,09cc1d4e773edf7d3119ff026d06421f,,,_306714.09cc1d4e773edf7d3119ff026d06421f.pdf,0,2000-01-01 01:00:00,2016-04-03 02:51:08,828000/09cc1d4e773edf7d3119ff026d06421f-g.jpg,,
5451004,Librarianship - Quo Vadis?: Opportunities and Dangers As We Face the New Millennium,,,,Herbert S. White,2000,1,Libraries Unlimited,,437,0,English ,,,,"156308807X,9781563088070",,,,,20,Z665 .W59 2000,,N6740WI7Y6cC,OL6786318M,,0,,,,1,0,1,1,1694767,pdf,09cdd898b6d49b05acada8840b10caf6,,,_304110.09cdd898b6d49b05acada8840b10caf6.pdf,0,2000-01-01 01:00:00,2016-04-03 02:51:08,828000/09cdd898b6d49b05acada8840b10caf6-d.jpg,,
5451001,"Principles of Aeroelasticity, 2nd Ed.",,,,"Raymond L. Bisplinghoff, Holt Ashley",1975,2nd,"Dover Publications, Inc., New York",,538,0,English ,,,,"0486613496,9780486613499",,,,,629.132/362,TL574.A37 B54 1975,,,OL5057318M,,0,,,,,1,0,,32538416,pdf,09c909ca280b9622e0a33ee36cd7ebd9,,,_295800.09c909ca280b9622e0a33ee36cd7ebd9.pdf,0,2000-01-01 01:00:00,2016-04-03 02:51:08,828000/09c909ca280b9622e0a33ee36cd7ebd9-d.jpg,,
5451002,PCI Compliance: Understand and Implement Effective PCI Data Security Standard Compliance,,,,"Dr. Anton Chuvakin, Branden R. Williams",2010,2,"Elsevier, Syngress",,348,0,English ,,,,"1597494992,9781597494992,9781597494991,1597491659,9781597491655",,B003XT5SZ2,,,,,,,OL8894074M,,0,,,,,0,1,1,4935240,pdf,09c9948e1e80a2aa6f06ef71d86560b6,,,_308947.09c9948e1e80a2aa6f06ef71d86560b6.pdf,0,2000-01-01 01:00:00,2016-04-03 02:51:08,828000/09c9948e1e80a2aa6f06ef71d86560b6-d.jpg,,
5451000,Introduction to Engineering Experimentation (3rd Edition),,,,"Anthony J. Wheeler, Ahmad R. Ganji",2009,3,Prentice Hall,,479,0,English ,,,,"0131742760,9780131742765",,,,,620.0078,TA153 .W47 2004,,crppr4QT068C,OL23862664M,,0,,,,0,1,1,1,8016506,pdf,09c37704acd7d89b9af722dbe798fc1c,,,_298512.09c37704acd7d89b9af722dbe798fc1c.pdf,0,2000-01-01 01:00:00,2016-04-03 02:51:08,828000/09c37704acd7d89b9af722dbe798fc1c-d.jpg,,
5450999,Cohesion in English (English Language Series),,,,"M. A. K. Halliday, Ruqaiya Hasan",1976,,Longman Group Ltd.,,389,0,English ,,,,"0582550319,9780582550315",,,,,425,PE1421 .H34,,,OL4610807M,,0,,,,0,1,1,0,21994020,pdf,09be1fcf48eb8519fdfef85bbcab36d9,,,_299818.09be1fcf48eb8519fdfef85bbcab36d9.pdf,0,2000-01-01 01:00:00,2016-04-03 02:51:08,828000/09be1fcf48eb8519fdfef85bbcab36d9-g.jpg,,
5450998,"Data and Applications Security and Privacy XXIV: 24th Annual IFIP WG 11.3 Working Conference, Rome, Italy, June 21-23, 2010, Proceedings (Lecture ... Applications, incl. Internet Web, and HCI)",,Lecture Notes in Computer Science volume 6166,,"Sara Foresti, Sushil Jajodia",2010,1st Edition.,Springer,,385,0,English ,,,,"3642137385,9783642137389",,,,,,,,,,,0,,,,0,0,1,1,5394937,pdf,09bd6d77b3d896185a9294ba61d70cb6,,,_313367.09bd6d77b3d896185a9294ba61d70cb6.pdf,0,2000-01-01 01:00:00,2016-04-03 02:51:08,828000/09bd6d77b3d896185a9294ba61d70cb6-d.jpg,,
5450996,Early Irish Metrics,,,,Gerard Murphy,,,,,138,0,English ,,,,,,,,,,,,,,,0,,,,,1,,,5716161,pdf,09aa3f4a98c787da2b38426fb0a31f07,,,_304712.09aa3f4a98c787da2b38426fb0a31f07.pdf,0,2000-01-01 01:00:00,2016-04-03 02:51:08,828000/09aa3f4a98c787da2b38426fb0a31f07-g.jpg,,
5450997,Comparing Religions: Possibilities and Perils? (Numen Book Series),,Numen volume 113,,"Idinopulos, Th. A. (ed.), Wilson, B.C. (ed.), Hanges, J.C. (ed.)",2006,,BRILL,,339,0,English ,,,,"9004152679,9789004152670",,,,,,,,,OL9085670M,,0,,,,0,1,0,1,1983261,pdf,09bc47650affbe333424174aec199d3c,,,_294178.09bc47650affbe333424174aec199d3c.pdf,0,2000-01-01 01:00:00,2016-04-03 02:51:08,828000/09bc47650affbe333424174aec199d3c-d.jpg,,
5450994,Efficiency Wage Models of the Labor Market,,,,"George A. Akerlof (editor), Janet L. Yellen (editor)",1986,,Cambridge University Press,,190,0,English ,,,,"9780511559594,9780521321563,9780521312844",,,,,,,10.1017/CBO9780511559594,zSfP-8iT_TAC,,,0,,,,1,1,1,1,3299900,pdf,09a68cb121dab148869378ba9a2782fe,,,_401648.09a68cb121dab148869378ba9a2782fe.pdf,0,2000-01-01 01:00:00,2016-04-03 02:51:08,828000/09a68cb121dab148869378ba9a2782fe-g.jpg,,
5450995,Say What You Mean Get What You Want: A Businessperson's Guide to Direct Communication,,,,Judith C. Tingley Ph.D.,1996,1,AMACOM,,157,0,English ,,,,"0814479049,9780814479049,9780814424339",,,,,658.4/5,HF5718 .T56 1996,,,OL814141M,,0,,,,,1,,,934309,pdf,09a7ab8674b19f34a173fe83de2e06d3,,,_293923.09a7ab8674b19f34a173fe83de2e06d3.pdf,0,2000-01-01 01:00:00,2016-04-03 02:51:08,828000/09a7ab8674b19f34a173fe83de2e06d3-d.jpg,,
5450991,Kingdom of Shadows,,,,Alan Furst,2001,First edition.,Random House Trade Paperbacks,,272,0,English ,,,,"0375758267,9780375758263",,,,,813/.54,PS3556.U76 K56 2001c,,,OL3950086M,,0,,,,,1,,,937981,pdf,099d2159cfe52e56b006da1c7d948764,,,_310462.099d2159cfe52e56b006da1c7d948764.pdf,0,2000-01-01 01:00:00,2016-04-03 02:51:08,828000/099d2159cfe52e56b006da1c7d948764-d.jpg,,
5450992,Introduction à la théorie des groupes,,,,Paul S. Alexandroff,,,,,138,0,French ,,,,,,,,,,,,,,,0,,,,,1,,,2091061,djvu,09a02aef217413a75afe0685efd3a064,,,_115516.09a02aef217413a75afe0685efd3a064.djvu,0,2000-01-01 01:00:00,2016-04-03 02:51:08,828000/09a02aef217413a75afe0685efd3a064-g.jpg,,
5450993,The Nature of Biological Systems as Revealed by Thermal Methods (Hot Topics in Thermal Analysis and Calorimetry),,,,L. Rinczy Denes,2004,,Kluwer Academic Publishers,,358,0,English ,,,,"1402022190,9781402022197",,,,,,,,,,,0,,,,,1,,,7979164,pdf,09a341f1f5c509307c8e3a5db458a228,,,_300707.09a341f1f5c509307c8e3a5db458a228.pdf,0,2000-01-01 01:00:00,2016-04-03 02:51:08,828000/09a341f1f5c509307c8e3a5db458a228-d.jpg,,
5450990,Molecular Theory of Evolution: Outline of a Physico-Chemical Theory of the Origin of Life,,,,Bernd-Olaf Küppers,1985,2,Springer-Verlag,,321,0,English ,,,,"0387155287,9780387155289,3540155287,9783540155287,0387120807,9780387120805,3540120807,9783540120803",,,,,575.01/6,QH325,,,OL21340397M,,0,,,,,1,,,17459003,pdf,0995c5ee30d7bd71ffe1ca6ab4f1a160,,,_385410.0995c5ee30d7bd71ffe1ca6ab4f1a160.pdf,0,2000-01-01 01:00:00,2016-04-03 02:51:08,828000/0995c5ee30d7bd71ffe1ca6ab4f1a160-g.jpg,,
5450988,"Current Topics in Artificial Intelligence: 13th Conference of the Spanish Association for Artificial Intelligence, CAEPIA 2009, Seville, Spain, ...   Lecture Notes in Artificial Intelligence)",,Lecture Notes in Computer Science volume 5988,,"Pedro Meseguer, Lawrence Mandow, Rafael M. Gasca",2010,1st Edition.,Springer,,312,0,English ,,,,"364214263X,9783642142635",,,,,,,,,,,0,,,,0,0,1,1,6535104,pdf,098c9db2b9721bbde0e2a70f616836b5,,,_313426.098c9db2b9721bbde0e2a70f616836b5.pdf,0,2000-01-01 01:00:00,2016-04-03 02:51:08,828000/098c9db2b9721bbde0e2a70f616836b5-d.jpg,,
5450989,"Air War Over Spain: Aviators, Aircraft and Air Units of the Nationalist and Republican Air Forces 1936-1939",,,,Rafael A. Permuy Lopez,2009,,Classic Publications,,99,0,English ,,,,"1906537100,9781906537104",,,,,,,,,,,0,,,,0,1,1,0,34746837,pdf,098e4bb16f72df7c069c8791496c8f4d,,,_295306.098e4bb16f72df7c069c8791496c8f4d.pdf,0,2000-01-01 01:00:00,2016-04-03 02:51:08,828000/098e4bb16f72df7c069c8791496c8f4d-d.jpg,,
5450987,Memoirs: A Twentieth-Century Journey in Science and Politics,,,,"Edward Teller, Judith Schoolery, Judith Shoolery",2002,,Basic Books,,628,0,English ,,,,"0738207780,9780738207780",,,,,,,,,OL7899626M,,600,,,,0,1,0,0,27356605,djvu,098c6ed690f95bd51710086f123eb3e0,,,_298874.098c6ed690f95bd51710086f123eb3e0.djvu,0,2000-01-01 01:00:00,2016-04-03 02:51:08,828000/098c6ed690f95bd51710086f123eb3e0-d.jpg,,
5450986,Strategic Maneuvering in Argumentative Discourse: Extending the pragma-dialectical theory of argumentation (Argumentation in Context),,,,Prof.Dr. Frans H. van Eemeren,2010,,John Benjamins Publishing Company,,323,0,English ,,,,"9027211191,9789027211194,9789027288271",1877-6884,,,,808/.042,P301.5.P47 E35 2010,,,OL24069516M,,0,,,,1,0,1,1,1520387,pdf,098c0ac8c9cdae098d9dad59ffa53c06,,,_315641.098c0ac8c9cdae098d9dad59ffa53c06.pdf,0,2000-01-01 01:00:00,2016-04-03 02:51:08,828000/098c0ac8c9cdae098d9dad59ffa53c06-d.jpg,,
5450984,Heart Failure (Fundamental and Clinical Cardiology),,Fundamental and Clinical Cardiology ,,G. William Dec,2004,1,Informa Healthcare,,602,0,English ,,,,"0824758277,9780824758271",,,,,616.1/29,RC685.C53 H434 2005,,MZ8cbBqjrlMC,OL19150977M,,0,,,,1,0,1,1,7237591,pdf,098aa6a5290fe2e80d237815d8c5befd,,,_297355.098aa6a5290fe2e80d237815d8c5befd.pdf,0,2000-01-01 01:00:00,2016-04-03 02:51:08,828000/098aa6a5290fe2e80d237815d8c5befd-d.jpg,,
5450985,语法答问,,,,朱德熙,1991,,Unknown,,91,0,Chinese (PRC),,,,7100028493,,,,,,,,,,,0,,,,,1,,,2837685,pdf,098aaef417ac300bc85b6a5ebd5c075c,,,_289951.098aaef417ac300bc85b6a5ebd5c075c.pdf,0,2000-01-01 01:00:00,2016-04-03 02:51:08,828000/098aaef417ac300bc85b6a5ebd5c075c-d.jpg,,
5450982,"The United Nations, 4th Edition: Reality and Ideal",,,,"Peter R. Baehr, Leon Gordenker",2006,4th,Palgrave Macmillan,,215,0,English ,,,,"1403949042,9781403949042",,,,,341.23,JZ4984.5 .B34 2005,,,OL3423938M,,0,,,,,1,1,0,622575,pdf,098575c21af8d46727077d14e97cdd98,,,_293983.098575c21af8d46727077d14e97cdd98.pdf,0,2000-01-01 01:00:00,2016-04-03 02:51:08,828000/098575c21af8d46727077d14e97cdd98-d.jpg,,
5450983,Screwcutting in the Lathe,,,,Martin Cleeve,1984,,"Trans-Atlantic Publications, Inc.",,176,0,English ,,,,"0852428383,9780852428382",,,,,,,,,OL8281526M,,0,,,,,1,,,131859699,pdf,09865f0c012f95512d661af48cfd3a2c,,,_301882.09865f0c012f95512d661af48cfd3a2c.pdf,0,2000-01-01 01:00:00,2016-04-03 02:51:08,828000/09865f0c012f95512d661af48cfd3a2c-d.jpg,,
5450981,The Coming Financial Revolution,,,,Buck Stephens,2005,,Destiny Image Publishers,,256,0,English ,,,,"0768423007,9780768423006",,,,,,,,,OL8065627M,,0,,,,,1,1,1,1543202,pdf,098439b8426ea03d916a9d2d85f9d410,,,_306207.098439b8426ea03d916a9d2d85f9d410.pdf,0,2000-01-01 01:00:00,2016-04-03 02:51:08,828000/098439b8426ea03d916a9d2d85f9d410-d.jpg,,
5450979,Fast-Talking Dames,,,,Professor Maria DiBattista,2003,,Yale University Press,,382,0,English ,,,,"0300099037,9780300099034",,,,,,,,,,,0,,,,1,1,1,1,1809622,pdf,09812ab52257fa6de9877bc55c406a5c,,,_302575.09812ab52257fa6de9877bc55c406a5c.pdf,0,2000-01-01 01:00:00,2016-04-03 02:51:08,828000/09812ab52257fa6de9877bc55c406a5c-d.jpg,,
5450980,"Audio and Hi-Fi Handbook, Third Edition",,,,Ian Sinclair,1998,3,Newnes,,455,0,English ,,,,"075063636X,9780750636360",,,,,621.389/3,TK7881.7 .N476 1998,,,OL470671M,,0,,,,1,0,1,1,5418046,pdf,09823cd696cf2ae309a1ceb253bd38fb,,,_313000.09823cd696cf2ae309a1ceb253bd38fb.pdf,0,2000-01-01 01:00:00,2016-04-03 02:51:08,828000/09823cd696cf2ae309a1ceb253bd38fb-d.jpg,,
5450978,Practical General Practice: Guidelines for Effective Clinical Management 4th Edition,,,,"Alex Khot, Andrew Polmear",2003,4th,Butterworth-Heinemann,,530,0,English ,,,,"0750649119,9780750649117",,,,,,,,ideQSf488igC,OL9679867M,,0,,,,,1,1,1,54794763,pdf,097fb50c575d9a0ff474edaad5668d00,,,_290555.097fb50c575d9a0ff474edaad5668d00.pdf,0,2000-01-01 01:00:00,2016-04-03 02:51:08,828000/097fb50c575d9a0ff474edaad5668d00-d.jpg,,
5450976,Integrated Product Design and Manufacturing Using Geometric Dimensioning and Tolerancing (Manufacturing Engineering and Materials Processing) (v. 60),,,,Bob Campbell,2002,1,CRC Press,,352,0,English ,,,,"0824788907,9780824788902",,,,,,,,,OL17059674M,,0,,,,1,0,,1,7541526,pdf,097e978bcbe28303b33f11f8b67dcb9c,,,_296654.097e978bcbe28303b33f11f8b67dcb9c.pdf,0,2000-01-01 01:00:00,2016-04-03 02:51:08,828000/097e978bcbe28303b33f11f8b67dcb9c-d.jpg,,
5450977,Predictive Astrology (Practical Guide),,,,Christine Shaw,2001,1st,Llewellyn Publications,,228,0,English ,,,,"0738700452,9780738700458",,,,,,,,,OL7902831M,,0,,,,,1,,,6845572,pdf,097ec61911a7a6af2d36485e9fbb5164,,,_376613.097ec61911a7a6af2d36485e9fbb5164.pdf,0,2000-01-01 01:00:00,2016-04-03 02:51:08,828000/097ec61911a7a6af2d36485e9fbb5164-d.jpg,,
5450974,SM Torpedo Boat B110 (Warship Profile 27),,,,F. Ruge,1972,,Profile Publications Ltd,,26,0,English ,,,,,,,,,,,,,,,0,,,,,1,,,4770603,pdf,0979b8458f569505f079ae0a309b950d,,,_312765.0979b8458f569505f079ae0a309b950d.pdf,0,2000-01-01 01:00:00,2016-04-03 02:51:08,828000/0979b8458f569505f079ae0a309b950d-g.jpg,,
5450975,人道主义哲学,,,,（美）科利斯·拉蒙特,,,,,314,0,Chinese (PRC),,,,,,,,,,,,,,,0,,,,,1,,,8329905,pdf,097a081aede8ee396f63f3552688c25e,,,_302212.097a081aede8ee396f63f3552688c25e.pdf,0,2000-01-01 01:00:00,2016-04-03 02:51:08,828000/097a081aede8ee396f63f3552688c25e-g.jpg,,
5450972,Farmacología Básica 2008,,,,"Pascuzzo - Lima, Carmine",2008,,,,927,0,Spanish,,,,9789801232469,,,,,,,,,,,0,,,,1,1,1,1,10366855,pdf,097439a9153ad1b151abfe63e5f41735,,,_311609.097439a9153ad1b151abfe63e5f41735.pdf,0,2000-01-01 01:00:00,2016-04-03 02:51:08,828000/097439a9153ad1b151abfe63e5f41735-g.jpg,,
5450973,The Many-Headed Hydra: The Hidden History of the Revolutionary Atlantic,,,,"Marcus Rediker, Peter Linebaugh",2001,,Beacon Press,,442,0,English ,,,,"0807050075,9780807050071",,,,,909/.0971/24106,HC254.5 .L715 2000,,,OL23006511M,,0,,,,0,0,0,1,7307573,pdf,097917395f5bbaca1a17a61a629bea8f,,,_293805.097917395f5bbaca1a17a61a629bea8f.pdf,0,2000-01-01 01:00:00,2016-04-03 02:51:08,828000/097917395f5bbaca1a17a61a629bea8f-d.jpg,,
5450971,Expansions and Asymptotics for Statistics (Chapman & Hall CRC Monographs on Statistics & Applied Probability),,,,Christopher G. Small,2010,1,Chapman and Hall/CRC,,357,0,English ,,,,"1584885904,9781584885900",,,,,519.5,QA273.6 .S63 2010,,,OL12313745M,"missing Index, pages from 331 to 343",0,,,,,1,,,6029341,pdf,096d7a26f01959c774fc8da1a95e4387,,,_181714.096d7a26f01959c774fc8da1a95e4387.pdf,0,2000-01-01 01:00:00,2016-04-03 02:51:08,828000/096d7a26f01959c774fc8da1a95e4387-d.jpg,,
5450969,The Stele of Yhwh in Egypt. The Prophecies of Isaiah 18–20 Concerning Egypt and Kush -  De Stèle van Jhwh in Egypte. De Profetieën in Jesaja 18–20 over Egypte en Koesj,,,,Csaba Balogh,,,,,501,0,English ,,,,,,,,,,,,,,,0,,,,0,1,1,1,7114473,pdf,096a48081aadd3b568b445bff0aa7529,,,_307611.096a48081aadd3b568b445bff0aa7529.pdf,0,2000-01-01 01:00:00,2016-04-03 02:51:08,828000/096a48081aadd3b568b445bff0aa7529-g.jpg,,
5450970,"Du féodalisme au capitalisme : Problèmes de la transition, tome 2",,,,"Maurice Dobb, Paul M. Sweezy",,,,,195,0,French ,,,,"2707109835,9782707109835",,,,,,,,,,,0,,,,,1,,,3118149,pdf,096cb0f6cf98b71777dbf9c6537febee,,,_369850.096cb0f6cf98b71777dbf9c6537febee.pdf,0,2000-01-01 01:00:00,2016-04-03 02:51:08,828000/096cb0f6cf98b71777dbf9c6537febee-g.jpg,,
5450968,Introvert Power: Why Your Inner Life Is Your Hidden Strength,,,,Laurie A. Helgoe,2008,1,"Sourcebooks, Inc.",,283,0,English ,,,,"1402211171,9781402211171,9781402220005",,,,,155.2/32,BF698.35.I59 H45 2008,,,OL11636274M,,0,,,,,1,1,1,1550625,pdf,0965fd677ef98d029263a652d68d1651,,,_207384.0965fd677ef98d029263a652d68d1651.pdf,0,2000-01-01 01:00:00,2016-04-03 02:51:08,828000/0965fd677ef98d029263a652d68d1651-d.jpg,,
5450967,Lectures on Complex Analytic Varieties: The Local Parametrization Theorem (Princeton mathematical notes),,,,Robert C. Gunning,1971,1st,Princeton University Press,,175,0,English ,,,,"0691080291,9780691080291",,,,,517/.8,QA331 .G784,,4iFwQgAACAAJ,OL5446806M,,400,,,,1,1,1,1,1700806,djvu,0964e3dcf4b96401c745d75cbc833760,,,_288641.0964e3dcf4b96401c745d75cbc833760.djvu,0,2000-01-01 01:00:00,2016-04-03 02:51:08,828000/0964e3dcf4b96401c745d75cbc833760-g.jpg,,
5450965,Close to Critical,,,,Hal Clement,1980,,Del Rey,,79,0,English ,,,,,,,,,,,,,,,0,,,,,1,,,502315,pdf,096043a9d640d89598fb6607cc603d95,,,_302857.096043a9d640d89598fb6607cc603d95.pdf,0,2000-01-01 01:00:00,2016-04-03 02:51:08,828000/096043a9d640d89598fb6607cc603d95-g.jpg,,
5450966,A Concise English-Interlingua Dictionary + Short Interlingua Grammar and Vocabulary,,,,Woodruff W. Bryne + British Interlingua Society,1958,,Storm Publishers + British Interlingua Society,,84,0,English ,,,,,,,,,,,,,,,0,,,,0,1,0,0,13390172,pdf,096057764a64011a36fe4fcc407f9b69,,,_308701.096057764a64011a36fe4fcc407f9b69.pdf,0,2000-01-01 01:00:00,2016-04-03 02:51:08,828000/096057764a64011a36fe4fcc407f9b69-g.jpg,,
5450963,Metrology for Engineers Fifth Edition,,,,"Galyer, J. F. W., Shotbolt, C. R.",,,,,296,0,English ,,,,,,,,,,,,,,,0,,,,,1,,,8555438,djvu,095aabdc7b5aefe82b2a45791fa9c2bf,,,_303495.095aabdc7b5aefe82b2a45791fa9c2bf.djvu,0,2000-01-01 01:00:00,2016-04-03 02:51:08,828000/095aabdc7b5aefe82b2a45791fa9c2bf-g.jpg,,
5450964,The Tin Man,,,,Dale Brown,1999,mass market,Bantam,,127,0,English ,,,,"0553580000,9780553580006",,,,,813,PS3552.R68543 T5 1999,,,OL24960599M,,0,,,,0,1,0,1,1254937,pdf,095ab4ebe49d0d462450ae8adaceb840,,,_290424.095ab4ebe49d0d462450ae8adaceb840.pdf,0,2000-01-01 01:00:00,2016-04-03 02:51:08,828000/095ab4ebe49d0d462450ae8adaceb840-d.jpg,,
5450962,,,,Byte - October 1976 volume 1 issue 14,Virginia Williamson,1976,,CMP Media,,148,0,English ,,,,,0360-5280,,,,,,,,,,0,,,,0,1,1,1,87059411,pdf,09599ed1a0c69d808364411ec212357c,,,_305994.09599ed1a0c69d808364411ec212357c.pdf,0,2000-01-01 01:00:00,2016-04-03 02:51:08,828000/09599ed1a0c69d808364411ec212357c-g.jpg,,
5450960,Schach aktuell. Schottisch. Schottische Partie und Schottisches Gambit,,,,Anatoli Karpow,1992,,Sportverlag,,160,0,German ,,,,"3328004769,9783328004769",,,,,,,,,,,0,,,,,1,,0,1864727,djvu,09572216392bc876dd8ec6478220ada0,,,_289117.09572216392bc876dd8ec6478220ada0.djvu,0,2000-01-01 01:00:00,2016-04-03 02:51:08,828000/09572216392bc876dd8ec6478220ada0-g.jpg,,
5450961,For the Comfort of Zion: The Geographical and Theological Location of Isaiah 40-55 (Supplements to Vetus Testamentum),,Supplements to Vetus Testamentum ,,Lena-sofia Tiemeyer,2010,,Brill Academic Pub,,431,0,English ,,,,"9004189300,9789004189300",,,,,,,,,,,0,,,,1,0,1,1,2277383,pdf,09582063def98921effc1adbb913b328,,,_296684.09582063def98921effc1adbb913b328.pdf,0,2000-01-01 01:00:00,2016-04-03 02:51:08,828000/09582063def98921effc1adbb913b328-d.jpg,,
5450958,Septuaginta 2. Iisus Nave. Judecatorii. Ruth. 1-4 Regi,,,,"Cristian Bădiliţă, Francisca Băltăceanu, Monica Broşteanu, Dan Slusanschi",2004,,Polirom,,652,0,"Romanian, Moldavian, Moldovan ",,,,,,,,,,,,,,,300,,,,0,1,0,0,4254309,djvu,09530fdb4369edbb72fccab3758effb4,,,_303697.09530fdb4369edbb72fccab3758effb4.djvu,0,2000-01-01 01:00:00,2016-04-03 02:51:08,828000/09530fdb4369edbb72fccab3758effb4-g.jpg,,
5450959,Metalanguage in Interaction: Hebrew discourse markers (Pragmatics & Beyond New Series),,,,Yael Maschler,2009,,John Benjamins Publishing Company,,258,0,English ,,,,9027254265,,,,,,,,,,,0,,,,,1,,,1355467,pdf,0955faae4f44fbcb82790a9e00111971,,,_291284.0955faae4f44fbcb82790a9e00111971.pdf,0,2000-01-01 01:00:00,2016-04-03 02:51:08,828000/0955faae4f44fbcb82790a9e00111971-d.jpg,,
5450957,"The Complete Marching Band Resource Manual: Techniques and Materials for Teaching, Drill Design, and Music Arranging",,,,"Wayne Bailey, Thomas Caneva",1994,,University of Pennsylvania Press,,279,0,English ,,,,"0812215087,9780812215083",,,,,784.8/314,MT733.4 .B35 1994,,,OL1083377M,,0,,,,,1,,1,8858203,pdf,094c2d6c586df4a1aa620e07f129a9b8,,,_293021.094c2d6c586df4a1aa620e07f129a9b8.pdf,0,2000-01-01 01:00:00,2016-04-03 02:51:08,828000/094c2d6c586df4a1aa620e07f129a9b8-d.jpg,,
5450956,Cooking The Mediterranean Way: Culturally Authentic Foods Including Low-Fat And Vegetarian Recipes (Easy Menu Ethnic Cookbooks),,,,"Alison Behnke, Anna Christoforides, Lazaros Christoforides",2005,,Lerner Publications,,73,0,English ,,,,"0822512378,9780822512370",,,,,641.59/1822,TX725.M35 B44 2005,,,OL3292686M,,0,,,,1,1,0,0,4320906,pdf,094829b0a14761256d38b40e34ff6d71,,,_300421.094829b0a14761256d38b40e34ff6d71.pdf,0,2000-01-01 01:00:00,2016-04-03 02:51:08,828000/094829b0a14761256d38b40e34ff6d71-d.jpg,,
5450954,"Investment Management: Portfolio Diversification, Risk, and Timing--Fact and Fiction (Wiley Finance)",,,,Robert L. Hagin,2003,1,Wiley,,319,0,English ,,,,"0471469203,9780471469209",,,,,,,,,OL7617736M,,0,,,,,1,1,1,3356402,pdf,093df6db5e71a0e4df1478d03cee5245,,,_303111.093df6db5e71a0e4df1478d03cee5245.pdf,0,2000-01-01 01:00:00,2016-04-03 02:51:08,828000/093df6db5e71a0e4df1478d03cee5245-d.jpg,,
5450955,Photo Etching (Workshop Practice; v. 36),,,,Brian King,2005,,"Trans-Atlantic Publications, Inc.",,112,0,English ,,,,"1854862375,9781854862372",,,,,,,,,OL11996257M,,0,,,,,1,,,12701655,pdf,093e384dd2e297ab0b6785fa6fb63eb1,,,_303933.093e384dd2e297ab0b6785fa6fb63eb1.pdf,0,2000-01-01 01:00:00,2016-04-03 02:51:08,828000/093e384dd2e297ab0b6785fa6fb63eb1-d.jpg,,
5450952,"Happiness, Economics and Public Policy",,,,Paul Ormerod,2007,,Institute of Economic Affairs (IEA),,60,0,English ,,,,"0255366000,9780255366007",,,,,330.01,,,,OL17634550M,,0,,,,,0,0,1,385835,pdf,0932568c2a1c20821f05b8329c337b6a,,,_293674.0932568c2a1c20821f05b8329c337b6a.pdf,0,2000-01-01 01:00:00,2016-04-03 02:51:08,828000/0932568c2a1c20821f05b8329c337b6a-d.jpg,,
5450953,Vulcan's Hammer,,,,Philip K. Dick,2004,,Vintage,,97,0,English ,,,,,,,,,,,,,,,0,,,,,1,,,309058,pdf,0932740ae2f2990167ebb494ab5a1fd3,,,_302848.0932740ae2f2990167ebb494ab5a1fd3.pdf,0,2000-01-01 01:00:00,2016-04-03 02:51:08,828000/0932740ae2f2990167ebb494ab5a1fd3-g.jpg,,
5450951,Codes: An Introduction to Information Communication and Cryptography (Springer Undergraduate Mathematics Series),,Springer Undergraduate Mathematics Series ,,Norman L. Biggs,2008,1st Edition.,Springer,,284,0,English ,,,,"1848002726,9781848002722",,,,,003.54,QA268 .B496 2008,,6XCA_Nt8H2sC,OL23169678M,,0,,,,1,0,1,1,2096568,pdf,0931c912f0791c9c69d1d60f52801e0c,,,_312655.0931c912f0791c9c69d1d60f52801e0c.pdf,0,2000-01-01 01:00:00,2016-04-03 02:51:08,828000/0931c912f0791c9c69d1d60f52801e0c-d.jpg,,
5450950,Como Funciona La Mente,,,,Steve Pinker,2001,1st.,Destino,,717,0,Spanish,,,,"8423332691,9788423332694",,,,,,,,,OL13218470M,,0,,,,,1,,,4012643,pdf,092cfd2a0bc6f6b83067b7b230b2f0b9,,,_295667.092cfd2a0bc6f6b83067b7b230b2f0b9.pdf,0,2000-01-01 01:00:00,2016-04-03 02:51:08,828000/092cfd2a0bc6f6b83067b7b230b2f0b9-d.jpg,,
5450948,Trademark: Legal Care for Your Business & Product Name (6th edition),,,,Stephen Elias,2003,6th,Nolo,,336,0,English ,,,,"0873379454,9780873379458",,,,,,,,,OL8377556M,,0,,,,,1,,,4129468,pdf,09283894f67276cc79316e5b89de7022,,,_291549.09283894f67276cc79316e5b89de7022.pdf,0,2000-01-01 01:00:00,2016-04-03 02:51:08,828000/09283894f67276cc79316e5b89de7022-d.jpg,,
5450949,Radioactive Waste in Perspective: Nuclear Development,,Nuclear Development ,,NEA - Organization for Economic Cooperation and Development,2010,,Organization for Economic Cooperation and Development,,203,0,English ,,,,"9264092617,9789264092617",,,,,,,,,,,0,,,,,1,1,1,4159991,pdf,0929543c24dc849ba11504a0efd448a0,,,_261943.0929543c24dc849ba11504a0efd448a0.pdf,0,2000-01-01 01:00:00,2016-04-03 02:51:08,828000/0929543c24dc849ba11504a0efd448a0-d.jpg,,
5450947,Democracy in the Family: Insights from India,,,,Joy Deshmukh-Ranadive,2008,,Sage Publications Pvt. Ltd,,251,0,English ,,,,"0761936319,9780761936312",,,,,,,,,,,0,,,,1,0,1,1,1573216,pdf,092767199beaca9050d7da1eff1937d3,,,_289001.092767199beaca9050d7da1eff1937d3.pdf,0,2000-01-01 01:00:00,2016-04-03 02:51:08,828000/092767199beaca9050d7da1eff1937d3-d.jpg,,
5450945,Ecrire un discours,,,,Patrick Jusseaux,2008,,Eyrolles,,155,0,French ,,,,"2212540396,9782212540390",,,,,,,,,,,0,,,,,1,,,1267347,pdf,0926e0664ab73f5172b8345d7e70a724,,,_290276.0926e0664ab73f5172b8345d7e70a724.pdf,0,2000-01-01 01:00:00,2016-04-03 02:51:08,828000/0926e0664ab73f5172b8345d7e70a724-d.jpg,,
5450946,ASP.NET MVC 2 Cookbook,,,,"Andrew Siemer, Richard Kimber",2011,,Packt Publishing,,332,0,English ,,,,"1849690308,9781849690300",,,,,,,,,,,0,,,,,1,1,1,8566101,pdf,092754ea7fb7105060cc924af058ad80,,,_300340.092754ea7fb7105060cc924af058ad80.pdf,0,2000-01-01 01:00:00,2016-04-03 02:51:08,828000/092754ea7fb7105060cc924af058ad80-d.jpg,,
5450943,Photoshop-Basiswissen. Perspektive. Band 5 (Edition DOCMA),,Edition DOCMA volume 5,,Doc Baumann,2006,,Addison-Wesley,,128,0,German ,,,,"3827323150,9783827323156",,,,,,,,,,,0,,,,,1,0,1,9691502,pdf,0923d57116df9441a38408a51a57f70d,,,_308646.0923d57116df9441a38408a51a57f70d.pdf,0,2000-01-01 01:00:00,2016-04-03 02:51:08,828000/0923d57116df9441a38408a51a57f70d-d.jpg,,
5450944,The foundations of quantum theory,,,,Landé Alfred,1955,,,,112,0,English ,,,,,,,,,,,,,,,0,,,,0,1,0,,2327444,djvu,09260ef05490e4a81cd5e69d1d180c4f,,,_305011.09260ef05490e4a81cd5e69d1d180c4f.djvu,0,2000-01-01 01:00:00,2016-04-03 02:51:08,828000/09260ef05490e4a81cd5e69d1d180c4f-g.jpg,,
5450942,Cimbizin Cektikleri,,,,Muge Iplikci,,,,,113,0,Turkish ,,,,,,,,,,,,,,,0,,,,,1,,,414055,pdf,09235905d5be11f4447a0f98ddee6646,,,_306644.09235905d5be11f4447a0f98ddee6646.pdf,0,2000-01-01 01:00:00,2016-04-03 02:51:08,828000/09235905d5be11f4447a0f98ddee6646-g.jpg,,
5450940,"Bach, Beethoven and the Boys - Tenth Anniversary Edition!: Music History As It Ought To Be Taught",,,,David W. Barber,1996,10 Anv,Sound And Vision,,133,0,English ,,,,"0920151108,9780920151105",,,,,780/.9,ML65 B233 1996,,,OL20845833M,,0,,,,,1,,1,1963222,pdf,091e604e47807a04bdf835d0d5598f6c,,,_293497.091e604e47807a04bdf835d0d5598f6c.pdf,0,2000-01-01 01:00:00,2016-04-03 02:51:08,828000/091e604e47807a04bdf835d0d5598f6c-d.jpg,,
5450941,Marketing Modeling for New Products,,ERIM PhD Series in Research in Management ,,Carlos Hernandez Mireles,2010,,Erasmus Research Institute of Management,,275,0,English ,,,,9789058922373,,,,,,,,,,,0,,,,0,0,0,1,4894689,pdf,091f4e621b5bc7a2ef9bc5f498b14d78,,,_307256.091f4e621b5bc7a2ef9bc5f498b14d78.pdf,0,2000-01-01 01:00:00,2016-04-03 02:51:08,828000/091f4e621b5bc7a2ef9bc5f498b14d78-g.jpg,,
5450939,In the Footsteps of the Ancients: The Origins of Humanism from Lovato to Bruni (Studies in Medieval and Reformation Traditions),,Studies in Medieval and Reformation Traditions volume 74,,Ronald G. Witt,2000,,Brill Academic Publishers,,580,0,English ,,,,"9004113975,9789004113978",,,,,808/.0945/09023,PA8045.I6 W58 2000,,,OL6779260M,,0,,,,1,1,1,1,7831613,pdf,091cac897b258cd7496aa7299270a043,,,_293997.091cac897b258cd7496aa7299270a043.pdf,0,2000-01-01 01:00:00,2016-04-03 02:51:08,828000/091cac897b258cd7496aa7299270a043-d.jpg,,
5450937,Seguridad e higiene en el trabajo,,,,Adolfo Rodellar Lisa,2009,,"Marcombo, S.A.",,164,0,Spanish,,,,"8426707114,9788426707116",,,,,,,,,,,0,,,,,1,,,11845530,pdf,091b9f244caaaec64cb98c007e7c7e19,,,_290710.091b9f244caaaec64cb98c007e7c7e19.pdf,0,2000-01-01 01:00:00,2016-04-03 02:51:08,828000/091b9f244caaaec64cb98c007e7c7e19-d.jpg,,
5450938,"Strong Managers, Weak Owners",,,,Mark J. Roe,1994,,Princeton University Press,,341,0,English ,,,,"0691036837,9780691036830",,,,,658.15,HG4061 .R58 1994,,,OL1088147M,,0,,,,0,1,0,1,3135718,pdf,091ca582459a285b2267aa3453bf2fe0,,,_295337.091ca582459a285b2267aa3453bf2fe0.pdf,0,2000-01-01 01:00:00,2016-04-03 02:51:08,828000/091ca582459a285b2267aa3453bf2fe0-d.jpg,,
5450936,LehrerInnen als „Reflective Practitioner“: Reflexionskompetenz für einen demokratieförderlichen Naturwissenschaftsunterricht,,,,Simone Abels,2011,2011,Vs Verlag,,231,0,German ,,,,"3531179217,9783531179216",,,,,,,,,,,0,,,,1,0,1,1,1548042,pdf,0917d614d86afe15da6f8d57cea0f4f4,,,_289780.0917d614d86afe15da6f8d57cea0f4f4.pdf,0,2000-01-01 01:00:00,2016-04-03 02:51:08,828000/0917d614d86afe15da6f8d57cea0f4f4-d.jpg,,
5450934,Sakiewka i życie: gospodarka i religia w średniowieczu,,,,Jacques Le Goff; przekł. Hanna Zaremska.,,,,,72,0,Polish ,,,,8385893156,,,,,,,,,,,0,,,,,1,,,17661694,djvu,0912b5e5079c963d41675cee80d96c62,,,_299699.0912b5e5079c963d41675cee80d96c62.djvu,0,2000-01-01 01:00:00,2016-04-03 02:51:08,828000/0912b5e5079c963d41675cee80d96c62-g.jpg,,
5450935,America's Most Wanted Recipes - Volume 1,,,,Ron Douglas,2003,,RecipeSecrets.net,,115,0,English ,,,,"1598723952,9781598723953",,,,,,,,qkbOeJdOQUkC,,,0,,,,0,0,1,1,1531627,pdf,09147d64c1f4b362d1b0e8d4ce237417,,,_292672.09147d64c1f4b362d1b0e8d4ce237417.pdf,0,2000-01-01 01:00:00,2016-04-03 02:51:08,828000/09147d64c1f4b362d1b0e8d4ce237417-d.jpg,,
5450932,"MTEL General Curriculum 03 Teacher Certification Test Prep Study Guide, 2nd Edition (XAM MTEL)",,XAM MTEL ,,Xamonline,2008,2,XAMOnline.com,,455,0,English ,,,,9781607878261,,,,,,,,,,,0,,,,1,0,1,1,3347720,pdf,0910d0ef0898d0164dd60e5296e7c299,,,_293116.0910d0ef0898d0164dd60e5296e7c299.pdf,0,2000-01-01 01:00:00,2016-04-03 02:51:08,828000/0910d0ef0898d0164dd60e5296e7c299-g.jpg,,
5450933,Thieves' World: Gazetteer (Thieves' World d20 3.5 Roleplaying),,,,"Lynn Abbey, Brian Campbell, Patrick O'Duffy, Robert J. Schwalb",2005,Brdgm,Green Ronin Publishing,,151,0,English ,,,,"1932442502,9781932442502",,,,,,,,,OL8809078M,,0,,,,,1,1,1,19805156,pdf,0911182fa087f4f2e65a7731b5250c29,,,_301251.0911182fa087f4f2e65a7731b5250c29.pdf,0,2000-01-01 01:00:00,2016-04-03 02:51:08,828000/0911182fa087f4f2e65a7731b5250c29-d.jpg,,
5450931,"The Telengits of Southern Siberia: Landscape, Religion and Knowledge in Motion (Routledge Contemporary Russia and Eastern Europe Series)",,,,Agnieszka Halemba,2006,1,Routledge,,238,0,English ,,,,"0415360005,9780415360005",,,,,299/.433,BL2370.T35 H35 2006,,1THfy3BCuPsC,OL22723658M,,0,,,,1,0,1,1,7584754,pdf,090dea6c436d6eccd27cc1768863d300,,,_298432.090dea6c436d6eccd27cc1768863d300.pdf,0,2000-01-01 01:00:00,2016-04-03 02:51:08,828000/090dea6c436d6eccd27cc1768863d300-d.jpg,,
5450929,Medizin für Melancholie. Erzählungen.,,,,Ray Bradbury,2001,,Diogenes,,242,0,German ,,,,"3257208650,9783257208658",,,,,,,,,,,0,,,,1,0,,1,789343,pdf,090b1cafdcd27072462bce78ed89efa5,,,_305483.090b1cafdcd27072462bce78ed89efa5.pdf,0,2000-01-01 01:00:00,2016-04-03 02:51:08,828000/090b1cafdcd27072462bce78ed89efa5-g.jpg,,
5450930,New Loss Prevention: Redefining Shrinkage Management,,,,"Adrian Beck, Colin Peacock",2009,,Palgrave Macmillan,,205,0,English ,,,,"0230575838,9780230575837",,,,,658.7/81,HF5429 .B335 2009,,bwJUPgAACAAJ,OL23862333M,,0,,,,1,0,1,1,770146,pdf,090ce79eeae1fa3d337cbc093fdf06c2,,,_304791.090ce79eeae1fa3d337cbc093fdf06c2.pdf,0,2000-01-01 01:00:00,2016-04-03 02:51:08,828000/090ce79eeae1fa3d337cbc093fdf06c2-d.jpg,,
5450928,"Automation, Communication and Cybernetics in Science and Engineering 2009 2010 (English and German Edition)",,,,"Sabina Jeschke, Ingrid Isenhardt, Klaus Henning",2010,1st Edition.,Springer,,704,0,English ,,,,"364216207X,9783642162077",,,,,,,10.1007/978-3-642-16208-4,H3kB6slgjScC,,,0,,,,1,0,1,1,21024122,pdf,09004b6d0b26ad62d1cf3f1b1ac250b9,,,_300800.09004b6d0b26ad62d1cf3f1b1ac250b9.pdf,0,2000-01-01 01:00:00,2016-04-03 02:51:08,828000/09004b6d0b26ad62d1cf3f1b1ac250b9-d.jpg,,
5450927,Curso de Física Teórica,,,,Landau-Lifshitz,2008,,Reverté,,208,0,Spanish,,,,"8429140806,9788429140811",,,,,,,,,OL13229819M,,0,,,,,1,,,26096703,pdf,8f9d09c18375619f1b09a4d3a43edf63,,,_217063.8f9d09c18375619f1b09a4d3a43edf63.pdf,0,2000-01-01 01:00:00,2016-04-03 02:51:08,827000/8f9d09c18375619f1b09a4d3a43edf63-d.jpg,,
5450925,"Permutation Patterns, St Andrews 2007 (London Mathematical Society Lecture Note Series)",,,,"Steve Linton, Nik Ruskuc, Vincent Vatter",2010,London Mathematical Society Lecture Note Series,Cambridge University Press,,352,0,English ,,,,"0511901828,9780521728348,9780511901829,0521728347",,,,,,,,,OL25085808M,,0,,,,,1,,,1782630,pdf,8f6da6b2a94943a4d47f971133b6943f,,,_205877.8f6da6b2a94943a4d47f971133b6943f.pdf,0,2000-01-01 01:00:00,2016-04-03 02:51:08,827000/8f6da6b2a94943a4d47f971133b6943f-d.jpg,,
5450926,"5 Steps to a 5 AP Statistics, 2008-2009 Edition",,,,Duane Hinders,2007,2,McGraw-Hill,,364,0,English ,,,,"0071488561,9780071488563,9780071594660",,,,,,,,,OL22653604M,,0,,,,,1,1,1,2174357,pdf,8f8a3cd601c2c651e41c3bea908efd76,,,_207792.8f8a3cd601c2c651e41c3bea908efd76.pdf,0,2000-01-01 01:00:00,2016-04-03 02:51:08,827000/8f8a3cd601c2c651e41c3bea908efd76-d.jpg,,
5450924,Statistical Mechanics and the Foundations of Thermodynamics (Lecture Notes in Physics),,,,A. Martin-Löf,1979,1,Springer,,120,0,English ,,,,"3540092552,9783540092551",,,,,,,,,,,0,,,,,1,,,3997628,pdf,8f4a36b3378f0b983e5f7e0e3ae8ecf0,,,_206766.8f4a36b3378f0b983e5f7e0e3ae8ecf0.pdf,0,2000-01-01 01:00:00,2016-04-03 02:51:08,827000/8f4a36b3378f0b983e5f7e0e3ae8ecf0-g.jpg,,
5450922,Acquiring phonology: a cross-generational case-study,,Studies in Linguistics volume 124,,Neil Smith,2010,1,Cambridge University Press,,285,0,English ,,,,"0521515874,9780521515870",,,,,,,,nrhXPgAACAAJ,,,0,,,,1,0,1,1,1121886,pdf,8f0a56381672953b6e90e46e293e3f64,,,_339307.8f0a56381672953b6e90e46e293e3f64.pdf,0,2000-01-01 01:00:00,2016-04-03 02:51:08,827000/8f0a56381672953b6e90e46e293e3f64-d.jpg,,
5450923,Wind Energy Systems for Electric Power Generation (Green Energy and Technology),,,,Manfred Stiebler,2008,1,Springer,,212,0,English ,,,,"3540687629,9783540687627,9783540687658",,,,,,,,,OL25159318M,,0,,,,,1,,,13345333,pdf,8f238c43ad9311cc6bc9e062e614ab1d,,,_171802.8f238c43ad9311cc6bc9e062e614ab1d.pdf,0,2000-01-01 01:00:00,2016-04-03 02:51:08,827000/8f238c43ad9311cc6bc9e062e614ab1d-d.jpg,,
5450921,The Foundations Of Scientific Inference (Pitt Paperback),,,,Wesley C. Salmon,1967,1,University of Pittsburgh Press,,169,0,English ,,,,"0822951185,9780822951186",,"B001K6L5XO,B00357G24S,B00370ES44",,,,,,,,,0,,,,0,1,0,0,7192526,pdf,8ef450f7897dde2fa48e0332c0817568,,,_109221.8ef450f7897dde2fa48e0332c0817568.pdf,0,2000-01-01 01:00:00,2016-04-03 02:51:08,827000/8ef450f7897dde2fa48e0332c0817568-d.jpg,,
5450919,Grammaire du créole martiniquais en 50 questions,,,,"Pierre Pinalie, Jean Bernabé",2000,,L'Harmattan,,222,0,French ,,,,"2738476775,9782738476777",,,,,490,PM7854.M25 P56 1999,,,OL12598012M,,0,,,,,1,,,10845346,pdf,8eebd765c5b4e43fa1c6373b581d1532,,,_342938.8eebd765c5b4e43fa1c6373b581d1532.pdf,0,2000-01-01 01:00:00,2016-04-03 02:51:08,827000/8eebd765c5b4e43fa1c6373b581d1532-d.jpg,,
5450920,"Eléments d'analyse : Tome 6, Analyse harmonique",,,,Jean Dieudonné,,,JACQUES GABAY,,218,0,French ,,,,"2876472163,9782876472167",,,,,,,,,,,600,,,,0,1,1,1,8201790,djvu,8eed8a4cf8c0e40e5b576ffead3f7e54,,,_198389.8eed8a4cf8c0e40e5b576ffead3f7e54.djvu,0,2000-01-01 01:00:00,2016-04-03 02:51:08,827000/8eed8a4cf8c0e40e5b576ffead3f7e54-d.jpg,,
5450918,"The Prime Numbers and Their Distribution (Student Mathematical Library, Vol. 6)",,,,"Gerald Tenenbaum, Michel Mendes France",2000,,AMS,,66,0,English ,,,,"0821816470,9780821816479",,,,,,,,,OL13628657M,,300,,,,0,1,0,0,6812364,pdf,8ee6ae3b888fdbcb52cc6bb2311fd12f,,,_216913.8ee6ae3b888fdbcb52cc6bb2311fd12f.pdf,0,2000-01-01 01:00:00,2016-04-03 02:51:08,827000/8ee6ae3b888fdbcb52cc6bb2311fd12f-d.jpg,,
5450917,"Programming Language Pragmatics, Second Edition",,,,Michael L. Scott,2005,2,Morgan Kaufmann,,889,0,English ,,,,"0126339511,9780126339512",,,,,005.13,QA76.7 .S38 2006,,,OL22239267M,,0,,,,,1,,1,7776653,pdf,8ea8083ff3b30f828eda3faecaf31066,,,_102893.8ea8083ff3b30f828eda3faecaf31066.pdf,0,2000-01-01 01:00:00,2016-04-03 02:51:08,827000/8ea8083ff3b30f828eda3faecaf31066-d.jpg,,
5450915,Physique statistique hors d'équilibre : Processus irréversibles linéaires,,Savoirs actuels ,,Noëlle Pottier,2007,,EDP SCIENCES,,545,0,French ,,,,"2868839347,9782868839343,9782271065483",,,,,,,,,,,0,,,,,1,1,1,22234472,pdf,8e84ca765879213ac1d81ac753324a39,,,_422501.8e84ca765879213ac1d81ac753324a39.pdf,0,2000-01-01 01:00:00,2016-04-03 02:51:08,827000/8e84ca765879213ac1d81ac753324a39-d.jpg,,
5450916,"Additive Number Theory The Classical Bases (Graduate Texts in Mathematics, 164)",,,,Melvyn B. Nathanson,1996,1,Springer,,358,0,English ,,,,"038794656X,9780387946566",,,,,512/.72,QA241 .N347 1996,,,OL974754M,,0,,,,1,1,1,,4599710,pdf,8ea4e4c21eb17e7581d21b729e508e54,,,_204426.8ea4e4c21eb17e7581d21b729e508e54.pdf,0,2000-01-01 01:00:00,2016-04-03 02:51:08,827000/8ea4e4c21eb17e7581d21b729e508e54-d.jpg,,
5450914,Parallel Combinatorial Optimization (Wiley Series on Parallel and Distributed Computing),,,,El-Ghazali Talbi,2006,1,Wiley-Interscience,,330,0,English ,,,,"0471721018,9780471721017",,,,,004.35,,,,OL7620597M,,0,,,,,1,1,1,3879000,pdf,8e42f56a7a48a961cee89b90551d13b7,,,_499309.8e42f56a7a48a961cee89b90551d13b7.pdf,0,2000-01-01 01:00:00,2016-04-03 02:51:08,827000/8e42f56a7a48a961cee89b90551d13b7-d.jpg,,
5450912,Autonome 3D-Umweltmodellierung von Innenräumen auf Basis von dichten Tiefenbildern,,,,Marcus Strand,2008,,Kit Scientific Publishing,,200,0,German ,,,,"3866442467,9783866442467",,,,,,,,,,,0,,,,1,0,1,1,15433279,pdf,8e366632fc65d6597d6ec4024ccf2aa7,,,_252802.8e366632fc65d6597d6ec4024ccf2aa7.pdf,0,2000-01-01 01:00:00,2016-04-03 02:51:08,827000/8e366632fc65d6597d6ec4024ccf2aa7-d.jpg,,
5450913,Residuen und Dualität auf projektiven algebraischen Varietäten,,,,Vorlesung von Ernst Kunz,,,,,157,0,German ,,,,"3882461128,9783882461121",,,,,,,,,,,0,,,,,1,,,655348,djvu,8e3bdb04be2a6f7fae8e11fec4ae9c99,,,_210184.8e3bdb04be2a6f7fae8e11fec4ae9c99.djvu,0,2000-01-01 01:00:00,2016-04-03 02:51:08,827000/8e3bdb04be2a6f7fae8e11fec4ae9c99-g.jpg,,
5450911,Computational Neuroscience (Springer Optimization and Its Applications Volume 38),,,,"Wanpracha Chaovalitwongse, Panos M. Pardalos, Petros Xanthopoulos",2010,2010,Springer,,412,0,English ,,,,"038788629X,9780387886299",,,,,,,,,,,0,,,,1,1,1,1,6066727,pdf,8e22b86e8166f4cb708b9c42295aa2b0,,,_176472.8e22b86e8166f4cb708b9c42295aa2b0.pdf,0,2000-01-01 01:00:00,2016-04-03 02:51:08,827000/8e22b86e8166f4cb708b9c42295aa2b0-d.jpg,,
5450909,Fractional Calculus and Waves in Linear Viscoelasticity: An Introduction to Mathematical Models,,,,Francesco Mainardi,,,,,368,0,English ,,,,,,,,,,,,,,,0,,,,,1,,,3695723,pdf,8e1095c940aa7eda28396cdebad5668b,,,_218627.8e1095c940aa7eda28396cdebad5668b.pdf,0,2000-01-01 01:00:00,2016-04-03 02:51:08,827000/8e1095c940aa7eda28396cdebad5668b-g.jpg,,
5450910,Physics in the Twentieth Century: Selected Essays,,,,Victor F. Weisskopf,1974,,The MIT Press,,368,0,English ,,,,"0262730308,9780262730303",,,,,530/.08,QC71 .W44,,,OL4897389M,,0,,,,,1,,,7892341,djvu,8e1e14335d6ed24f5a57e542661ceaf5,,,_198623.8e1e14335d6ed24f5a57e542661ceaf5.djvu,0,2000-01-01 01:00:00,2016-04-03 02:51:08,827000/8e1e14335d6ed24f5a57e542661ceaf5-g.jpg,,
5450908,"ECOOP 2010 -- Object-Oriented Programming: 24th European Conference, Maribor, Slovenia, June 21-25, 2010, Proceedings (Lecture Notes in Computer Science   Programming and Software Engineering)",,,,Theo D'Hondt,2010,1st Edition.,Springer,,610,0,English ,,,,"3642141064,9783642141065",,,,,,,,,OL25101278M,,0,,,,0,1,1,1,9331829,pdf,8defdeab372381bf0bde2946559d4fd2,,,_175436.8defdeab372381bf0bde2946559d4fd2.pdf,0,2000-01-01 01:00:00,2016-04-03 02:51:08,827000/8defdeab372381bf0bde2946559d4fd2-d.jpg,,
5450906,Virtual Machines,,,,Iain D. Craig,2005,1st Edition.,Springer,,284,0,English ,,,,"1852339691,9781852339692",,,,,,,,,OL8974515M,,0,,,,,1,,,9054973,pdf,8dc93614a5010b100c5608dffce18bfc,,,_121446.8dc93614a5010b100c5608dffce18bfc.pdf,0,2000-01-01 01:00:00,2016-04-03 02:51:08,827000/8dc93614a5010b100c5608dffce18bfc-d.jpg,,
5450907,Mechanics (third edition),,Addison-Wesley Series in Physics ,,Keith R. Symon,1971,Third Edition,Addison-Wesley Publishing Company,,654,0,English ,,,,0201073927,,,,,,75-128910,,,,,0,,,,0,1,1,1,7084759,djvu,8ddeafac4fa4f8c6f70f7c1c58d775c7,,,_275147.8ddeafac4fa4f8c6f70f7c1c58d775c7.djvu,0,2000-01-01 01:00:00,2016-04-03 02:51:08,827000/8ddeafac4fa4f8c6f70f7c1c58d775c7-g.jpg,,
5450905,Craftsmanship In The Teaching Of Elementary Mathematics,,,,F.W. Westaway,2007,,Westaway Press,,688,0,English ,,,,"1406761133,9781406761139",,,,,,,,,,,0,,,,,1,,,23895700,pdf,8dbbe0c0c8472a6c80fb110b53b4cf04,,,_372881.8dbbe0c0c8472a6c80fb110b53b4cf04.pdf,0,2000-01-01 01:00:00,2016-04-03 02:51:08,827000/8dbbe0c0c8472a6c80fb110b53b4cf04-d.jpg,,
5450903,A solution manual to Computer Architecture: A Quantitative Approach 4E (John L. Hennessy & David Patterson),,,,John L. Hennessy & David Patterson,,,,,65,0,English ,,,,,,,,,,,,,,,0,,,,,1,,,270787,pdf,8da19f861f0474c89166721df5276b16,,,_476130.8da19f861f0474c89166721df5276b16.pdf,0,2000-01-01 01:00:00,2016-04-03 02:51:08,827000/8da19f861f0474c89166721df5276b16-g.jpg,,
5450904,Cocoa Recipes for Mac OS X (2nd Edition),,,,Bill Cheeseman,2010,2,Peachpit Press,,648,0,English ,,,,"0321670418,9780321670410",,B003HOXLGG,,,,,,,OL24809831M,,0,,,,,1,,,4557032,pdf,8dae9d78bf5103594eb141743a72fb06,,,_194242.8dae9d78bf5103594eb141743a72fb06.pdf,0,2000-01-01 01:00:00,2016-04-03 02:51:08,827000/8dae9d78bf5103594eb141743a72fb06-d.jpg,,
5450902,Smalltalk-80: The Interactive Programming Environment (Addison-Wesley series in computer science),,,,Adele Goldberg,1983,,Addison-Wesley,,530,0,English ,,,,"0201113724,9780201113723",,,,,001.64,QA76.8.S635 G638 1984,,,OL3169726M,,0,,,,,1,0,1,42072515,pdf,8d9abd435b335d0a51d27237b3e9be2d,,,_207749.8d9abd435b335d0a51d27237b3e9be2d.pdf,0,2000-01-01 01:00:00,2016-04-03 02:51:08,827000/8d9abd435b335d0a51d27237b3e9be2d-g.jpg,,
5450900,Encyclopedic Dictionary of Roman Law (Transaction of the American Philosophical Society),,,,Adolf Berger,1980,,American Philosophical Society,,480,0,English ,,,,"0871694352,9780871694355",,,,,,,,,OL8349230M,,0,,,,,1,,,28348593,pdf,8d39bda58a56468382e04e58b6022095,,,_32422.8d39bda58a56468382e04e58b6022095.pdf,0,2000-01-01 01:00:00,2016-04-03 02:51:08,827000/8d39bda58a56468382e04e58b6022095-d.jpg,,
5450901,Artificial Societies of Intelligent Agents: Virtual Experiments of Individual and Social Behaviour,,,,Carlos Gershenson,2010,,LAP LAMBERT Academic Publishing,,120,0,English ,,,,3838357736,,,,,,,,,,,0,,,,,1,,,6799281,pdf,8d6d3c04cc246114860f8941da7a3d9b,,,_194128.8d6d3c04cc246114860f8941da7a3d9b.pdf,0,2000-01-01 01:00:00,2016-04-03 02:51:08,827000/8d6d3c04cc246114860f8941da7a3d9b-d.jpg,,
5450899,Fundamental Concepts of Mathematics,,,,"Kam-Tim Leung, P.H. Cheung",1994,,Hong Kong University Press,,264,0,English ,,,,"9789622091818,9622091814",,,,,,,,,OL13075577M,,0,,,,1,1,1,1,3483076,pdf,8d113c0caf9ccc1bde0f81d8cb23a17a,,,_197130.8d113c0caf9ccc1bde0f81d8cb23a17a.pdf,0,2000-01-01 01:00:00,2016-04-03 02:51:08,827000/8d113c0caf9ccc1bde0f81d8cb23a17a-g.jpg,,
5450898,Mathematical Problem Solving,,,,Alan Schoenfeld,1985,,Academic Pr,,409,0,English ,,,,"0126288704,9780126288704,0126288712,9780126288711",,,,,511.3 ,QA63  .S35 1985,,,OL18357627M,,600,,,,1,1,1,1,3668706,djvu,8cf49fb7d097764af9dde7c32cd4041c,,,_213177.8cf49fb7d097764af9dde7c32cd4041c.djvu,0,2000-01-01 01:00:00,2016-04-03 02:51:08,827000/8cf49fb7d097764af9dde7c32cd4041c-g.jpg,,
5450896,High-Level Languages and Their Compilers (International Computer Science Series),,,,Des Watson,1989,,Addison-Wesley,,347,0,English ,,,,"0201184893,9780201184891",,,,,005.13,QA76.7 .W38 1989,,,OL17776053M,,0,,,,0,1,0,1,2627159,djvu,8cda8011db9a0a41b23c80b9eebca0b4,,,_299815.8cda8011db9a0a41b23c80b9eebca0b4.djvu,0,2000-01-01 01:00:00,2016-04-03 02:51:08,827000/8cda8011db9a0a41b23c80b9eebca0b4-g.jpg,,
5450897,Selected Studies in International Migration and Immigrant Incorporation (Amsterdam University Press - Imiscoe Textbooks),,,,"Marco Martiniello, Jan Rath",2010,,Amsterdam University Press,,628,0,English ,,,,"9089641602,9789089641601,9048511046,9789048511044",,,,,,,,,,,0,,,,,1,,,6778778,pdf,8ce45bc8a76307abc3e4b0aae0002546,,,_198135.8ce45bc8a76307abc3e4b0aae0002546.pdf,0,2000-01-01 01:00:00,2016-04-03 02:51:08,827000/8ce45bc8a76307abc3e4b0aae0002546-d.jpg,,
5450895,"Flexibility Principles in Boolean Semantics: The Interpretation of Coordination, Plurality, and Scope in Natural Language (Current Studies in Linguistics)",,,,Yoad Winter,2002,,The MIT Press,,309,0,English ,,,,"0262232189,9780262232180,9780585448299",,,,,401/.43,P293 .W56 2001,,,OL18395889M,,0,,,,,1,,,1406846,pdf,8cd846b5d2a04f054c136f9dfa41f0c6,,,_51258.8cd846b5d2a04f054c136f9dfa41f0c6.pdf,0,2000-01-01 01:00:00,2016-04-03 02:51:08,827000/8cd846b5d2a04f054c136f9dfa41f0c6-d.jpg,,
5450893,Computing Tomorrow: Future Research Directions in Computer Science,,,,"Ian Wand, Robin Milner",1996,,Cambridge University Press,,384,0,English ,,,,"0521460859,9780521460859",,,,,004/.072,QA76.27 .C69 1996,,,OL7741612M,,0,,,,1,1,1,1,4233728,pdf,8cc2b40fd678dd1dca56e3660b4205cf,,,_417352.8cc2b40fd678dd1dca56e3660b4205cf.pdf,0,2000-01-01 01:00:00,2016-04-03 02:51:08,827000/8cc2b40fd678dd1dca56e3660b4205cf-d.jpg,,
5450894,Managing Einsteins: Leading High-Tech Workers in the Digital Age,,,,"John M. Ivancevich, Thomas N. Duening",2001,,McGraw-Hill Companies,,272,0,English ,,,,"0071375007,9780071375009,9780071395458",,,,,,,,,OL15527497M,,0,,,,,0,0,1,11757511,pdf,8cd1a99420035bb4ad90c27798044642,,,_207389.8cd1a99420035bb4ad90c27798044642.pdf,0,2000-01-01 01:00:00,2016-04-03 02:51:08,827000/8cd1a99420035bb4ad90c27798044642-d.jpg,,
5450892,The Penguin Dictionary of Literary Terms and Literary Theory (Penguin Dictionary),,,,J. A. Cuddon,2000,4th,Penguin (Non-Classics),,1024,0,English ,,,,"0140513639,9780140513639",,,,,,,,,OL21593205M,,0,,,,,1,,,5062939,djvu,8cadffb5a7c3c7d13f48cd10ffed0cf1,,,_288981.8cadffb5a7c3c7d13f48cd10ffed0cf1.djvu,0,2000-01-01 01:00:00,2016-04-03 02:51:08,827000/8cadffb5a7c3c7d13f48cd10ffed0cf1-d.jpg,,
5450890,A Treatise on Universal Algebra: With Applications (Cambridge Library Collection - Mathematics),,Cambridge Library Collection - Mathematics ,,Alfred North Whitehead,2009,Reissue,Cambridge University Press,,617,0,English ,,,,"1108001688,9781108001687",,,,,,,,WmzuPwAACAAJ,,,0,,,,1,1,1,1,10975876,pdf,8c87bdb9f9f0a244dbdca42279b7cae1,,,_396943.8c87bdb9f9f0a244dbdca42279b7cae1.pdf,0,2000-01-01 01:00:00,2016-04-03 02:51:08,827000/8c87bdb9f9f0a244dbdca42279b7cae1-d.jpg,,
5450891,Origami for Beginners,,,,Vicente Palacios,1998,,Dover Publications,,80,0,English ,,,,"0486402843,9780486402840",,,,,736/.982,TT870 .P28 1999,,,OL380349M,,0,,,,0,1,0,0,3168754,pdf,8caa6168ff70264f1f64f7b42f20f311,,,_262949.8caa6168ff70264f1f64f7b42f20f311.pdf,0,2000-01-01 01:00:00,2016-04-03 02:51:08,827000/8caa6168ff70264f1f64f7b42f20f311-d.gif,,
5450888,Inequalities (Little Mathematics Library),,,,P. P. Korovkin,1975,,"MIR Publishers, Moscow",,74,0,English ,,,,"0828532214,9780828532211",,,,,,,,,OL8171805M,,0,,,,1,1,1,1,1323706,pdf,8c5966041ec1165b10235c06dede7809,,,_308514.8c5966041ec1165b10235c06dede7809.pdf,0,2000-01-01 01:00:00,2016-04-03 02:51:08,827000/8c5966041ec1165b10235c06dede7809-g.jpg,,
5450889,Metaepistemology and Skepticism,,,,Richard A. Fumerton,1995,,"Rowman & Littlefield Publishers, Inc.",,232,0,English ,,,,"0847681068,9780847681068",,,,,121,,,yOnLv3NlJlAC,OL22067948M,,0,,,,0,1,1,1,33363422,pdf,8c620bfd49f8094132b5ae9ae0a85046,,,_423324.8c620bfd49f8094132b5ae9ae0a85046.pdf,0,2000-01-01 01:00:00,2016-04-03 02:51:08,827000/8c620bfd49f8094132b5ae9ae0a85046-g.jpg,,
5450887,Sur la théorie mathématique des jeux de hasard et de réflexion,,,,René de Possel,,,,,41,0,French ,,,,,,B003AT3XCA,,,,,,,,,0,,,,,1,,,724425,djvu,8c59573bf448748dbd4fef03725518bd,,,_116033.8c59573bf448748dbd4fef03725518bd.djvu,0,2000-01-01 01:00:00,2016-04-03 02:51:08,827000/8c59573bf448748dbd4fef03725518bd-g.jpg,,
5450886,Introduction to Geometric Probability (Lezioni Lincee),,,,"Daniel A. Klain, Gian-Carlo Rota",1997,,Cambridge University Press,,191,0,English ,,,,"0521596548,9780521596541,052159362X,9780521593625",,,,,519.2,QA273.5 .K47 1997,,,OL415421M,,0,,,,1,1,1,1,3081006,pdf,8c34cd863a784631778d532797acca3c,,,_194093.8c34cd863a784631778d532797acca3c.pdf,0,2000-01-01 01:00:00,2016-04-03 02:51:08,827000/8c34cd863a784631778d532797acca3c-d.jpg,,
5450884,Équations aux dérivées partielles de type elliptique,,,,"Ol'ga Aleksandrovna Ladyjenskaia, N. N. Oural'tseva",,,,,464,0,French ,,,,,,B0014QTTTW,,,,,,,,,0,,,,,1,,,7259319,djvu,8bf59028936172cc3a14788b886499a9,,,_194222.8bf59028936172cc3a14788b886499a9.djvu,0,2000-01-01 01:00:00,2016-04-03 02:51:08,827000/8bf59028936172cc3a14788b886499a9-g.jpg,,
5450885,"Formal Semantics and Pragmatics for Natural Language Querying (Cambridge Tracts in Theoretical Computer Science, Volume 8)",,,,James Clifford,1990,,Cambridge University Press,,210,0,English ,,,,"0521354331,0511569750,9780521602747,0521602742,9780521354332,9780511569753",,,,,006.3/5,QA76.9.N38 C55 1990,,,OL1971483M,,0,,,,,1,,,6442113,pdf,8c1285eaf4651d592c6bbb7117b1d4ca,,,_136529.8c1285eaf4651d592c6bbb7117b1d4ca.pdf,0,2000-01-01 01:00:00,2016-04-03 02:51:08,827000/8c1285eaf4651d592c6bbb7117b1d4ca-d.jpg,,
5450882,The rise of the new physics: its mathematical and physical theories:  vol. II : Relativity and the quantum theory,,,,A D'Abro,,,,,588,0,English ,,,,0186200043,,B0007HQ5B4,,,,,,,,,0,,,,,1,,,25264261,djvu,8b64d6bccc28faeab65d6e159a67dd04,,,_210238.8b64d6bccc28faeab65d6e159a67dd04.djvu,0,2000-01-01 01:00:00,2016-04-03 02:51:08,827000/8b64d6bccc28faeab65d6e159a67dd04-g.jpg,,
5450883,SOA Design Patterns (The Prentice Hall Service-Oriented Computing Series from Thomas Erl),,,,Thomas Erl,2009,1,Prentice Hall PTR,,856,0,English ,,,,"0136135161,9780136135166",,,,,006.7,TK5105.88813 .E735 2008,,,OL10091454M,,0,,,,1,0,1,1,116311955,pdf,8b7b2394e585db94db80ccbaa64ed2d9,,,_378792.8b7b2394e585db94db80ccbaa64ed2d9.pdf,0,2000-01-01 01:00:00,2016-04-03 02:51:08,827000/8b7b2394e585db94db80ccbaa64ed2d9-d.jpg,,
5450881,"Elements of quaternions Vol 1, Second edition",,,,William Rowan Hamilton,,,,,617,0,English ,,,,,,B00088ERUS,,,,,,,,,0,,,,,1,,,13854823,djvu,8b64bab4cd24110d02f55bb5f4ffe4ae,,,_1221.8b64bab4cd24110d02f55bb5f4ffe4ae.djvu,0,2000-01-01 01:00:00,2016-04-03 02:51:08,827000/8b64bab4cd24110d02f55bb5f4ffe4ae-g.jpg,,
5450879,Motivate to Win: How to Motivate Yourself and Others,,,,Richard Denny,2006,3rd,Kogan Page,,154,0,English ,,,,"0749444371,9780749444372,9780749446840",,,,,,,,,OL24271404M,,0,,,,,1,,,506385,pdf,8b33e31bcc66550c4140ee485abce744,,,_186802.8b33e31bcc66550c4140ee485abce744.pdf,0,2000-01-01 01:00:00,2016-04-03 02:51:08,827000/8b33e31bcc66550c4140ee485abce744-d.jpg,,
5450880,Semiconductors and Semimetals Volume 50: Gallium Nitride (Gan) I,,,,"Theodore D. Moustakas, Jacques I. Pankove, Robert K. Willardson, Eicke R. Weber",1998,1st,Academic Press,,500,0,English ,,,,"0127521585,9780127521589",,,,,,,,9E5YSQAACAAJ,OL21857412M,,0,,,,0,0,0,1,23717178,pdf,8b3a4a7c83541fd663aa7723f2f14ca7,,,_395377.8b3a4a7c83541fd663aa7723f2f14ca7.pdf,0,2000-01-01 01:00:00,2016-04-03 02:51:08,827000/8b3a4a7c83541fd663aa7723f2f14ca7-g.jpg,,
5450878,"Real Time Programming: Languages, Specification & Verification",,,,"R. K. Shyamasundar, S. Ramesh",2002,1st,World Scientific Publishing Company,,262,0,English ,,,,"9810225660,9789810225667",,,,,004/.33,QA76.54 .S33 2010,,,OL13167844M,,0,,,,1,0,1,1,1057871,pdf,8b2af414e77cc60454f03b608917523a,,,_216091.8b2af414e77cc60454f03b608917523a.pdf,0,2000-01-01 01:00:00,2016-04-03 02:51:08,827000/8b2af414e77cc60454f03b608917523a-d.jpg,,
5450876,"Procrastination and blocking : a novel, practical approach",,,,Robert Boice,1996,,Praeger Publishers,,236,0,English ,,,,"0275956571,9780275956578,9780313024269",,,,,155.2/32,BF637.P76 B65 1996,,,OL983009M,,0,,,,1,0,1,1,779903,pdf,8b0e3cc6648283f20ba2a9b992431e7c,,,_98309.8b0e3cc6648283f20ba2a9b992431e7c.pdf,0,2000-01-01 01:00:00,2016-04-03 02:51:08,827000/8b0e3cc6648283f20ba2a9b992431e7c-d.jpg,,
5450877,"Mathematica® in Action: Problem Solving Through Visualization and Computation, Third Edition",,,,Stan Wagon,2010,3rd ed. 2010,Springer,,591,0,English ,,,,"0387753664,9780387753669",,,,,,,10.1007/978-0-387-75477-2,,,,0,,,,1,0,1,1,21137790,pdf,8b11567276f8a7d23e509fa842217cc8,,,_171706.8b11567276f8a7d23e509fa842217cc8.pdf,0,2000-01-01 01:00:00,2016-04-03 02:51:08,827000/8b11567276f8a7d23e509fa842217cc8-d.jpg,,
5450875,Compiler Construction for Digital Computers,,,,David Gries,1971,1,John Wiley & Sons,,508,0,English ,,,,"047132776X,9780471327769",,,,,001.6/425,QA76.5 .G73,,,OL5081492M,,0,,,,0,1,0,1,4948263,djvu,8b08d11ceabc0e94e9c4f93472a12776,,,_299040.8b08d11ceabc0e94e9c4f93472a12776.djvu,0,2000-01-01 01:00:00,2016-04-03 02:51:08,827000/8b08d11ceabc0e94e9c4f93472a12776-d.jpg,,
5450874,Lectures on Complex Function Algebras.,,,,Gerald M. Leibowitz,1970,"First Edition, First Printing",Scott Foresman and Company,,255,0,English ,,,,"0673059871,9780673059871",,,,,,,,,,,600,,,,,1,0,1,18507833,djvu,8aff95cfeb9a7f9b5cc98d786bd25681,,,_207871.8aff95cfeb9a7f9b5cc98d786bd25681.djvu,0,2000-01-01 01:00:00,2016-04-03 02:51:08,827000/8aff95cfeb9a7f9b5cc98d786bd25681-g.jpg,,
5450872,Astroparticle Physics and Cosmology,,ICTP Lecture Notes Series volume 4,,"(Eds.) G. Senjanovic, A. Smirnov, G. Thompson",2001,,,,364,0,English ,,,,9295003020,,,,,,,,,,,0,,,,0,0,0,1,15950781,pdf,8afd2168643dce787cd1edfc9eb5a9a0,,,_258750.8afd2168643dce787cd1edfc9eb5a9a0.pdf,0,2000-01-01 01:00:00,2016-04-03 02:51:08,827000/8afd2168643dce787cd1edfc9eb5a9a0-g.jpg,,
5450873,Complex Projective Geometry: Selected Papers (London Mathematical Society Lecture Note Series),,,,"G. Ellingsrud, C. Peskine, G. Sacchiero, S. A. Stromme",1992,,Cambridge University Press,,352,0,English ,,,,"0521433525,9780521433525,9780511662652,0511662653",,,,,516.3/5,QA564 .C65635 1992,,,OL1449331M,,0,,,,,1,,,5773979,pdf,8afdf924cf8368d83478cefce84c976d,,,_195547.8afdf924cf8368d83478cefce84c976d.pdf,0,2000-01-01 01:00:00,2016-04-03 02:51:08,827000/8afdf924cf8368d83478cefce84c976d-d.jpg,,
5450871,Recent Developments in Fractals and Related Fields (Applied and Numerical Harmonic Analysis),,,,"Julien Barral, Stéphane Seuret",2010,1st Edition.,Birkhäuser Boston,,424,0,English ,,,,"0817648879,9780817648879",,,,,,,,,,,0,,,,,1,1,1,6481347,pdf,8aeee061dc13c383d0251e36b5f820e9,,,_207501.8aeee061dc13c383d0251e36b5f820e9.pdf,0,2000-01-01 01:00:00,2016-04-03 02:51:08,827000/8aeee061dc13c383d0251e36b5f820e9-d.jpg,,
5450869,An Algebraic Introduction to Complex Projective Geometry: Commutative Algebra (Cambridge Studies in Advanced Mathematics),,Cambridge Studies in Advanced Mathematics volume 47,,Christian Peskine,1996,1,Cambridge University Press,,238,0,English ,,,,"0521108470,9780521108478",,,,,,,,,,,600,,,,0,1,0,1,2270288,djvu,8ad6aef5580658a2988b686fd19c93aa,,,_175696.8ad6aef5580658a2988b686fd19c93aa.djvu,0,2000-01-01 01:00:00,2016-04-03 02:51:08,827000/8ad6aef5580658a2988b686fd19c93aa-d.jpg,,
5450870,"Superconductivity, Vol. 1",,,,R. D. Parks,1969,1,Dekker,,688,0,English ,,,,"0824715209,9780824715205",,,,,,,,,OL8125033M,,0,,,,,1,,,25595048,pdf,8aebfb4d99ac3cf048a6c54bbb4e7f37,,,_197697.8aebfb4d99ac3cf048a6c54bbb4e7f37.pdf,0,2000-01-01 01:00:00,2016-04-03 02:51:08,827000/8aebfb4d99ac3cf048a6c54bbb4e7f37-d.jpg,,
5450867,The Shelduck: A Study in Behavioural Ecology,,,,I. J. Patterson,2009,,Cambridge University Press,,287,0,English ,,,,"9780511753473,9780521246460,9780521113359",,,,,,,10.1017/CBO9780511753473,szLFNQAACAAJ,OL7734220M,,0,,,,1,1,1,1,17033783,pdf,8aa91f32b1a59d9acbc8d2a47fe512a0,,,_406468.8aa91f32b1a59d9acbc8d2a47fe512a0.pdf,0,2000-01-01 01:00:00,2016-04-03 02:51:08,827000/8aa91f32b1a59d9acbc8d2a47fe512a0-d.jpg,,
5450868,"Heidegger, time, and self-transcendence",,,,James Dean Millikan,1966,,ProQuest,,238,0,English ,,,,,,,,,,,,,,,0,,,,1,1,0,0,10406172,pdf,8aaa97fbba3a60a86abe668b7b1e5494,,,_488174.8aaa97fbba3a60a86abe668b7b1e5494.pdf,0,2000-01-01 01:00:00,2016-04-03 02:51:08,827000/8aaa97fbba3a60a86abe668b7b1e5494-g.jpg,,
5450865,"Transcendental Aspects of Algebraic Cycles: Proceedings of the Grenoble Summer School, 2001 (London Mathematical Society Lecture Note Series)",,,,"S. Müller-Stach, C. Peters",2004,,Cambridge University Press,,308,0,English ,,,,"0521545471,9780521545471",,,,,,,,TFoVZEj1GiIC,OL17122888M,,0,,,,1,1,1,1,5635866,djvu,8a4ece44893a3a010f0c2e26a4443c16,,,_395495.8a4ece44893a3a010f0c2e26a4443c16.djvu,0,2000-01-01 01:00:00,2016-04-03 02:51:08,827000/8a4ece44893a3a010f0c2e26a4443c16-d.jpg,,
5450866,Problems of Relative Growth,,,,Julian Huxley,1972,,Dover Publications Inc.,,312,0,English ,,,,"9780486611143,0486611140",,,,,591.3/1,QP84 .H8 1972,,,OL21479970M,,0,,,,,1,,,14590570,pdf,8a8148619075977715c0a21d85277cf8,,,_197032.8a8148619075977715c0a21d85277cf8.pdf,0,2000-01-01 01:00:00,2016-04-03 02:51:08,827000/8a8148619075977715c0a21d85277cf8-d.jpg,,
5450863,Optimal Stopping Rules (Stochastic Modelling and Applied Probability),,,,Albert N. Shiryaev,2007,,Springer,,232,0,English ,,,,"3540740104,9783540740100",,,,,,,,,OL16751215M,,0,,,,,1,,,2795988,djvu,8a1f740ba4de51b3b743a392ed4f6084,,,_198162.8a1f740ba4de51b3b743a392ed4f6084.djvu,0,2000-01-01 01:00:00,2016-04-03 02:51:08,827000/8a1f740ba4de51b3b743a392ed4f6084-d.jpg,,
5450864,Aspects of Unity in J. S. Bach's Partitas and Suites: An Analytical Study (Eastman Studies in Music),,,,David W. Beach,2005,annotated edition,University of Rochester Press,,112,0,English ,,,,"1580462022,9781580462020,9781580466479",,,,,784.18/54,MT145.B14 B44 2005,,,OL3404956M,,0,,,,,1,,,1390195,pdf,8a210df9d923796335c93f02655a65a0,,,_150547.8a210df9d923796335c93f02655a65a0.pdf,0,2000-01-01 01:00:00,2016-04-03 02:51:08,827000/8a210df9d923796335c93f02655a65a0-d.jpg,,
5450861,Telescopes (Science Matters),,,,Jonathan Bocknek,2003,,Weigl Pub Inc,,24,0,English ,,,,"1590360842,9781590360842",,,,,,,,,OL8846737M,,0,,,,,1,,,6577213,pdf,7ffb2d40a08ca566da77b3c82b9b4190,,,_216391.7ffb2d40a08ca566da77b3c82b9b4190.pdf,0,2000-01-01 01:00:00,2016-04-03 02:51:08,827000/7ffb2d40a08ca566da77b3c82b9b4190-d.jpg,,
5450862,iPhone and iPad in Action,,,,"Brandon Trebitowski, Christopher Allen, Shannon Appelcline",2010,Revised,Manning Publications,,600,0,English ,,,,"1935182587,9781935182580",,,,,,,,,,,0,,,,,1,,,18001573,pdf,8a016e1650baac722bb88a239b35f83e,,,_203950.8a016e1650baac722bb88a239b35f83e.pdf,0,2000-01-01 01:00:00,2016-04-03 02:51:08,827000/8a016e1650baac722bb88a239b35f83e-d.jpg,,
5450860,Quantifiers in Language and Logic,,,,"Stanley Peters, Dag Westerstahl",2006,,"Oxford University Press, USA",,560,0,English ,,,,"019929125X,9781429469845,9780199291250",,,,,,,,,OL22731218M,,0,,,,,1,,,6461832,pdf,7fe66bed765d604a0c60cc94f223d9a4,,,_7719.7fe66bed765d604a0c60cc94f223d9a4.pdf,0,2000-01-01 01:00:00,2016-04-03 02:51:08,827000/7fe66bed765d604a0c60cc94f223d9a4-d.jpg,,
5450858,"L'aéroschtroumpf, tome 14",,,,Peyo,1996,,Le Lombard,,44,0,French ,,,,"2873450002,9782873450007",,,,,,,,,OL12639713M,,0,,,,,1,,,20699580,pdf,7fad09a3a6962aaa4ce56342be7b4340,,,_383557.7fad09a3a6962aaa4ce56342be7b4340.pdf,0,2000-01-01 01:00:00,2016-04-03 02:51:08,827000/7fad09a3a6962aaa4ce56342be7b4340-d.jpg,,
5450859,A Cabinet of Roman Curiosities: Strange Tales and Surprising Facts from the World's Greatest Empire,,,,J. C. McKeown,2010,First Edition,Oxford University Press,,260,0,English ,,,,"0195393759,9780195393750,0199750521,9780199750528",,,,,937,DG77 .M425 2010,,H18IgIk32rUC,OL23862181M,,0,,,,1,0,1,1,6000326,pdf,7fb0679f35e37a79cdf8e415ac2ad784,,,_176141.7fb0679f35e37a79cdf8e415ac2ad784.pdf,0,2000-01-01 01:00:00,2016-04-03 02:51:08,827000/7fb0679f35e37a79cdf8e415ac2ad784-d.jpg,,
5450857,Similarity Solutions of Nonlinear Partial Differential Equations (Research Notes in Mathematics Series),,,,Lawrence Dresner,1983,,Longman Group United Kingdom,,136,0,English ,,,,"9780273086215,0273086219",,,,,515.3/53,QA377 .D765 1983,,,OL3165455M,,0,,,,,1,,,1453309,pdf,7fac2f0f538549fa430436e547d1bfab,,,_197597.7fac2f0f538549fa430436e547d1bfab.pdf,0,2000-01-01 01:00:00,2016-04-03 02:51:08,827000/7fac2f0f538549fa430436e547d1bfab-g.jpg,,
5450856,Rule Based Expert Systems: The Mycin Experiments of the Stanford Heuristic Programming Project (The Addison-Wesley Series in Artificial Intelligence),,,,"Bruce G. Buchanan, Edward H. Shortliffe",1984,,Addison-Wesley,,769,0,English ,,,,"0201101726,9780201101720",,"B000OOQK3S,B000RKVTZS",,,001.53/5,QA76.9.E96 R84 1984,,,OL3173532M,,0,,,,,1,,,7780173,pdf,7f82da055835bfc16cf3f79d6914b778,,,_207540.7f82da055835bfc16cf3f79d6914b778.pdf,0,2000-01-01 01:00:00,2016-04-03 02:51:08,827000/7f82da055835bfc16cf3f79d6914b778-g.jpg,,
5450855,The theory of uniform algebras,,,,Edgar Lee Stout,1971,First Edition,Bogden & Quigley,,509,0,English ,,,,"0800500180,9780800500184",,,,,512/.55,QA326 .S75,,,OL5462323M,missing pages 3 & 4,0,,,,0,1,0,,126633748,pdf,7f7cb286b5e975553e2244bd8fa8e80f,,,_216213.7f7cb286b5e975553e2244bd8fa8e80f.pdf,0,2000-01-01 01:00:00,2016-04-03 02:51:08,827000/7f7cb286b5e975553e2244bd8fa8e80f-g.jpg,,
5450853,The Seven Essentials of Woodworking,,,,Anthony Guidice,2001,,Sterling,,128,0,English ,,,,"0806925272,9780806925271",,,,,,,,,OL7943320M,,0,,,,,1,,,36924156,pdf,7f65b4d867a8733629ec81d0c966eedd,,,_18005.7f65b4d867a8733629ec81d0c966eedd.pdf,0,2000-01-01 01:00:00,2016-04-03 02:51:08,827000/7f65b4d867a8733629ec81d0c966eedd-d.jpg,,
5450854,Syntax and Semantics Volume 33: Long Distance Reflexives,,,,"Peter Cole, C.T. James Huang, Gabriella Hermon",2000,1,Emerald Group Publishing Limited,,431,0,English ,,,,"0126135339,9780585492285,9780126135336",,,,,"415 s,415","P1 .S9 vol. 33,P299.R44 .S9 vol. 33",,,OL6902095M,,0,,,,,1,1,1,7885817,pdf,7f698ad38118c19b5835bd9944b89142,,,_207667.7f698ad38118c19b5835bd9944b89142.pdf,0,2000-01-01 01:00:00,2016-04-03 02:51:08,827000/7f698ad38118c19b5835bd9944b89142-d.jpg,,
5450851,Fundamentals of the Pure Spinor Formalism (UvA-Proefschriften),,,,Joost Hoogeveen,2010,,Amsterdam University Press,,180,0,English ,,,,"9056296418,9789056296414",,,,,,,,,,,0,,,,,1,,,1150104,pdf,7f5ec9d585e70a7cda2db05b2c36c0af,,,_198132.7f5ec9d585e70a7cda2db05b2c36c0af.pdf,0,2000-01-01 01:00:00,2016-04-03 02:51:08,827000/7f5ec9d585e70a7cda2db05b2c36c0af-d.jpg,,
5450852,Cours d'analyse : Vol. 1,,,,Laurent Schwartz,,,,,974,0,French ,,,,,,B0013GPB1S,,,,,,,,,0,,,,,1,,,32194469,pdf,7f635c951462b20be0a20e67c94fa3d4,,,_26259.7f635c951462b20be0a20e67c94fa3d4.pdf,0,2000-01-01 01:00:00,2016-04-03 02:51:08,827000/7f635c951462b20be0a20e67c94fa3d4-g.jpg,,
5450849,Beginning Xcode (Programmer to Programmer),,,,James Bucanek,2006,1,Wrox,,680,0,English ,,,,"047175479X,9780471754794",,,,,,,,,OL7621120M,,0,,,,,1,1,1,34932431,pdf,7f4a7b17e0d4fbfc29e86787c8a39f90,,,_207539.7f4a7b17e0d4fbfc29e86787c8a39f90.pdf,0,2000-01-01 01:00:00,2016-04-03 02:51:08,827000/7f4a7b17e0d4fbfc29e86787c8a39f90-d.jpg,,
5450850,Relativistic Quantum Mechanics (Theoretical and Mathematical Physics),,,,Armin Wachter,2010,1st Edition.,Springer,,387,0,English ,,,,"904813644X,9789048136445,9789048136452",,,,,,,,,OL25101275M,,0,,,,,1,,,3709452,pdf,7f59f8d67cdfcb41920c42f15762287f,,,_206609.7f59f8d67cdfcb41920c42f15762287f.pdf,0,2000-01-01 01:00:00,2016-04-03 02:51:08,827000/7f59f8d67cdfcb41920c42f15762287f-d.jpg,,
5450848,"Kurt Gödel: Essays for his Centennial (Lecture Notes in Logic, Volume 33)",,Lecture Notes in Logic volume 33,,"Solomon Feferman, Charles Parsons, Stephen G. Simpson (eds)",2010,,Cambridge University Press,,385,0,English ,,,,"0511744560,9780521115148,9780511744563,0521115140",,,,,510.92,QA9.2 .K87 2010,,83Attf6BsJ4C,OL24098947M,,0,,,,,1,1,1,2050174,pdf,7f25124842d2f8b7a648bdd02314ead7,,,_175780.7f25124842d2f8b7a648bdd02314ead7.pdf,0,2000-01-01 01:00:00,2016-04-03 02:51:08,827000/7f25124842d2f8b7a648bdd02314ead7-d.jpg,,
5450845,Interpretation and Understanding,,,,Marcelo Dascal,2003,,John Benjamins Pub Co,,691,0,English ,,,,"1588114147,9781588114143,9027226040,9789027226044,9789027295897",,,,,306.44,P99.4.P72,,,OL22014258M,,0,,,,,1,,,4129877,pdf,7f11bdf1118fbcbf2699c8e6ab0791ca,,,_119740.7f11bdf1118fbcbf2699c8e6ab0791ca.pdf,0,2000-01-01 01:00:00,2016-04-03 02:51:08,827000/7f11bdf1118fbcbf2699c8e6ab0791ca-d.jpg,,
5450846,Commande H infini et mu-analyse,,,,"Gilles Duc, Stéphane Font",2000,,Hermes Sciences Publicat.,,120,0,French ,,,,"2746200414,9782746200418",,,,,,,,,,,0,,,,0,1,0,1,2819113,pdf,7f1323113be638197603266aaf3bb877,,,_296462.7f1323113be638197603266aaf3bb877.pdf,0,2000-01-01 01:00:00,2016-04-03 02:51:08,827000/7f1323113be638197603266aaf3bb877-d.jpg,,
5450847,Lacewings in the Crop Environment,,,,"P. K. McEwen (editor), T. R. New (editor), A. E. Whittington (editor)",2007,1,Cambridge University Press,,554,0,English ,,,,"9780511666117,9780521772174,9780521037297",,,,,,,10.1017/CBO9780511666117,KOWhPwAACAAJ,OL7715321M,,0,,,,1,0,1,1,11659840,pdf,7f16cc8233fa5bdebcf77a02b5cd5f22,,,_403304.7f16cc8233fa5bdebcf77a02b5cd5f22.pdf,0,2000-01-01 01:00:00,2016-04-03 02:51:08,827000/7f16cc8233fa5bdebcf77a02b5cd5f22-d.jpg,,
5450843,Introduction to Number Theory.,,,,Trygve Nagell,1951,,ALJMQVIST & WIKSELLS BOKTRYCKERI AB,,307,0,English ,,,,,,,,,,,,,,,0,,,,,1,1,1,5613584,pdf,7ed2461a2a525b1d8ec73cbf92106cec,,,_333215.7ed2461a2a525b1d8ec73cbf92106cec.pdf,0,2000-01-01 01:00:00,2016-04-03 02:51:08,827000/7ed2461a2a525b1d8ec73cbf92106cec-g.jpg,,
5450844,GNU Linux Advanced Administration,,,,"Remo Suppi Boldrito, Josep Jorba Esteve",2008,,Free Technology Academy,,545,0,English ,,,,,,,,,,,,,,,0,,,,0,0,0,1,19908381,pdf,7eff7e7ab4e6603f02d06e026ff29408,,,_338789.7eff7e7ab4e6603f02d06e026ff29408.pdf,0,2000-01-01 01:00:00,2016-04-03 02:51:08,827000/7eff7e7ab4e6603f02d06e026ff29408-g.jpg,,
5450842,Dynamics of Smart Structures,,,,Ranjan Vepa,2010,1,Wiley,,412,0,English ,,,,"0470697059,9780470697054",,,,,624.1,TA418.9.S62 V47 2010,,,OL23980805M,,0,,,,1,0,1,1,3898241,pdf,7ed0c46ea8aec75a9f41e9248c86589b,,,_185476.7ed0c46ea8aec75a9f41e9248c86589b.pdf,0,2000-01-01 01:00:00,2016-04-03 02:51:08,827000/7ed0c46ea8aec75a9f41e9248c86589b-d.jpg,,
5450840,Advances in Technological Applications of Logical and Intelligent Systems: Selected Papers from the Sixth Congress on Logic Applied to Technology,,,,G. Lambert-Torres,2008,,IOS Press,,297,0,English ,,,,"1586039369,9781586039363,9781441605443",,,,,006.3,Q334 .C69 2007,,,OL24022231M,,0,,,,1,0,1,1,4842201,pdf,7eb71f16f2083a666b0fb9830a3725e3,,,_98000.7eb71f16f2083a666b0fb9830a3725e3.pdf,0,2000-01-01 01:00:00,2016-04-03 02:51:08,827000/7eb71f16f2083a666b0fb9830a3725e3-d.jpg,,
5450841,"Einstieg in die Physikalische Chemie für Nebenfächler, 4. Auflage",,,,"Wolfgang Bechmann, Joachim Schmidt",,"4, akt. Aufl. 2010",Vieweg+Teubner Verlag,,327,0,German ,,,,"9783834809919,3834809918",,,,,,,,,,,0,,,,0,0,1,1,143847716,pdf,7ec8158307d52a19afc2a440b86af98c,,,_115164.7ec8158307d52a19afc2a440b86af98c.pdf,0,2000-01-01 01:00:00,2016-04-03 02:51:08,827000/7ec8158307d52a19afc2a440b86af98c-d.jpg,,
5450839,Mrs. Perkins's Electric Quilt: And Other Intriguing Stories of Mathematical Physics,,,,Paul J. Nahin,2009,,Princeton University Press,,424,0,English ,,,,"0691135401,9780691135403",,,,,530.15,QC20 .N34 2009,,,OL22653410M,,0,,,,1,1,1,1,2665856,pdf,7ea7d6d2a412de62d1db0e6b106d22a1,,,_197894.7ea7d6d2a412de62d1db0e6b106d22a1.pdf,0,2000-01-01 01:00:00,2016-04-03 02:51:08,827000/7ea7d6d2a412de62d1db0e6b106d22a1-d.jpg,,
5450837,Primer of Verbal Behaviour: Operant View (Experimental Psychology),,,,Stephen Winokur,,,,,89,0,English ,,,,0137006098,,,,,153,,,,,,0,,,,,1,,,4473684,pdf,7e669294615d408de9bae98f63296865,,,_299617.7e669294615d408de9bae98f63296865.pdf,0,2000-01-01 01:00:00,2016-04-03 02:51:08,827000/7e669294615d408de9bae98f63296865-g.jpg,,
5450838,Autonomics Development: A Domain-Specific Aspect Language Approach (Autonomic Systems),,,,Paul Soule,2010,1st Edition.,Springer Basel,,141,0,English ,,,,"3034605390,9783034605397",,,,,,,,,,,0,,,,0,1,1,1,2931948,pdf,7e807e00760d512351a459de95a07306,,,_175357.7e807e00760d512351a459de95a07306.pdf,0,2000-01-01 01:00:00,2016-04-03 02:51:08,827000/7e807e00760d512351a459de95a07306-d.jpg,,
5450835,Programming Neural Networks with Encog 2 in Java,,,,Jeff Heaton,2010,,"Heaton Research, Inc.",,481,0,English ,,,,"1604390077,9781604390070",,,,,,,,,,,0,,,,,1,0,1,3775532,pdf,7e2b1105725991cc5c17405c65fa4537,,,_207383.7e2b1105725991cc5c17405c65fa4537.pdf,0,2000-01-01 01:00:00,2016-04-03 02:51:08,827000/7e2b1105725991cc5c17405c65fa4537-d.jpg,,
5450836,"Guarding Life's Dark Secrets: Legal and Social Controls over Reputation, Propriety, and Privacy",,,,Lawrence Friedman,2007,1St Edition,Stanford University Press,,360,0,English ,,,,"0804757399,9780804757393",,,,,,,,,OL9366965M,,0,,,,,1,,,2951124,djvu,7e580c2b5a95a442be9ad1803d30131a,,,_207730.7e580c2b5a95a442be9ad1803d30131a.djvu,0,2000-01-01 01:00:00,2016-04-03 02:51:08,827000/7e580c2b5a95a442be9ad1803d30131a-d.jpg,,
5450834,The Justice Motive as a Personal Resource: Dealing with Challenges and Critical Life Events (Critical Issues in Social Justice),,,,Claudia Dalbert,2010,Softcover reprint of hardcover 1st ed. 2001,Springer,,228,0,English ,,,,"1441933573,9781441933577",,,,,,,,sbKCnhCPaSgC,,,0,,,,0,1,1,1,35779879,pdf,7e09cb7c51756fd08cea013d4f8c43af,,,_426414.7e09cb7c51756fd08cea013d4f8c43af.pdf,0,2000-01-01 01:00:00,2016-04-03 02:51:08,827000/7e09cb7c51756fd08cea013d4f8c43af-d.jpg,,
5450833,Combinatorics of Spreads and Parallelisms (Monographs and Textbooks in Pure and Applied Mathematics),,,,Norman Johnson,2010,1,CRC Press,,664,0,English ,,,,"1439819467,9781439819463",,,,,512/.52,QA186 .J64 2010,,,OL25000938M,,0,,,,,1,,,4687501,pdf,7e08903b0b664e1b6a20770d3c04ca05,,,_199312.7e08903b0b664e1b6a20770d3c04ca05.pdf,0,2000-01-01 01:00:00,2016-04-03 02:51:08,827000/7e08903b0b664e1b6a20770d3c04ca05-d.jpg,,
5450831,More iPhone 3 Development: Tackling iPhone SDK 3 (Beginning),,,,"Dave Mark, Jeff LaMarche",2009,1,Apress,,578,0,English ,,,,"143022505X,9781430225058",,,,,004.167,QA76.8.I64 M373 2009,,,OL25043236M,,0,,,,1,0,1,1,8330866,pdf,7de392fde5b712903d5de0df3b296497,,,_117864.7de392fde5b712903d5de0df3b296497.pdf,0,2000-01-01 01:00:00,2016-04-03 02:51:08,827000/7de392fde5b712903d5de0df3b296497-d.jpg,,
5450832,Proceedings of the Symposium on Complex Analysis Canterbury 1973 (London Mathematical Society Lecture Note Series),,,,"J. Clunie, W. K. Hayman",1974,1,Cambridge University Press,,192,0,English ,,,,"0521204526,9780521204521,9780511662263,0511662262",,,,,515/.9,QA331 .S94 1973,,,OL5442603M,,0,,,,,1,,,1834416,pdf,7dea773d9a4cafcc7c4778a9e56e6b64,,,_198195.7dea773d9a4cafcc7c4778a9e56e6b64.pdf,0,2000-01-01 01:00:00,2016-04-03 02:51:08,827000/7dea773d9a4cafcc7c4778a9e56e6b64-d.jpg,,
5450829,Physics Experiments for Children,,,,Muriel Mandell,1968,,Dover Publications,,96,0,English ,,,,"0486220338,9780486220338",,,,,,,,,,,0,,,,,1,,,3827531,pdf,7dac5eb4ca0672a400903e5aba3ed2d0,,,_198870.7dac5eb4ca0672a400903e5aba3ed2d0.pdf,0,2000-01-01 01:00:00,2016-04-03 02:51:08,827000/7dac5eb4ca0672a400903e5aba3ed2d0-d.jpg,,
5450830,Das große illustrierte Yoga Buch,,,,Swami Vishnudevananda,,,,,405,0,German ,,,,"3591081833,9783591081832",,,,,,,,,,,0,,,,,1,,,7503454,pdf,7dc41ab21935dc0df2eae8662f74d433,,,_370682.7dc41ab21935dc0df2eae8662f74d433.pdf,0,2000-01-01 01:00:00,2016-04-03 02:51:08,827000/7dc41ab21935dc0df2eae8662f74d433-d.jpg,,
5450828,Teach Yourself Polish (Teach Yourself Complete Courses),,,,"Nigel Gotteri, Joanna Michalak-Gray",,,,,161,0,English ,,,,0340949775,,,,,,,,,,,0,,,,,1,,,7959446,djvu,7da72182ab2839911323caa13ce5d73b,,,_291744.7da72182ab2839911323caa13ce5d73b.djvu,0,2000-01-01 01:00:00,2016-04-03 02:51:08,827000/7da72182ab2839911323caa13ce5d73b-g.jpg,,
5450826,"A First Course in Differential Equations, Second Edition",,Undergraduate Texts in Mathematics ,,J. David Logan,2010,2,Springer,,405,0,English ,,,,"1441975918,9781441975928,9781441975911",0172-6056,,,,,,10.1007/978-1-4419-7592-8,PRsutFuHiqcC,OL25093890M,,0,,,,1,0,1,1,2555547,pdf,7d389a50e1bdf824e318b5b9831a86e7,,,_216243.7d389a50e1bdf824e318b5b9831a86e7.pdf,0,2000-01-01 01:00:00,2016-04-03 02:51:08,827000/7d389a50e1bdf824e318b5b9831a86e7-d.jpg,,
5450827,"Geometry of Banach Spaces: Proceedings of the Conference Held in Strobl, Austria 1989 (London Mathematical Society Lecture Note Series)",,,,"P. F. X. Müller, W. Schachermayer",1991,,Cambridge University Press,,288,0,English ,,,,"0521408504,9780521408509,9780511662317,0511662319",,,,,515/.732,QA322.2 .G49 1990,,,OL1625802M,,0,,,,,1,,,3565732,pdf,7d82c5acbd45443ff1b8a47e8680d787,,,_198147.7d82c5acbd45443ff1b8a47e8680d787.pdf,0,2000-01-01 01:00:00,2016-04-03 02:51:08,827000/7d82c5acbd45443ff1b8a47e8680d787-d.jpg,,
5450825,"Engineering and Economic Applications of Complementarity Problems (SIAM Review, Vol. 39, No. 4, Dec. 1997, pp. 669-713)",,,,"M. C. Ferris, J. S. Pang",,,,,46,0,English ,,,,,,,,,,,,,,,0,,,,0,0,0,1,645513,pdf,7d1bce0ad29fe92f02560d5098dde181,,,_47.7d1bce0ad29fe92f02560d5098dde181.pdf,0,2000-01-01 01:00:00,2016-04-03 02:51:08,827000/7d1bce0ad29fe92f02560d5098dde181-g.jpg,,
5450824,Russia in the 21st century: the prodigal superpower,,,,Steven Rosefielde,2005,,Cambridge University Press,,272,0,English ,,,,"0521545293,9780521545297,0521836786,9780521836784",,,,,338.4/7355/00947,HC340.12.Z9 D4453 2005,,lcgMnh5CtOUC,OL22614116M,,0,,,,1,0,1,1,965149,pdf,7d187351d758a774ee1a7def0dcaf016,,,_407194.7d187351d758a774ee1a7def0dcaf016.pdf,0,2000-01-01 01:00:00,2016-04-03 02:51:08,827000/7d187351d758a774ee1a7def0dcaf016-d.jpg,,
5450822,Finite-State Methods and Natural Language Processing - Post-proceedings of the 7th International Workshop FSMNLP 2008 - Volume 191 Frontiers in Artificial Intelligence and Applications,,,,"J. Piskorski, B. Watson and A. Yli-Jyra",2009,,IOS Press,,244,0,English ,,,,"158603975X,9781586039752,9781441616128",,,,,,,,,OL24813877M,,0,,,,,1,1,,3876372,pdf,7cebe2c0b39ca0f1ba9de89240e6aa7f,,,_72076.7cebe2c0b39ca0f1ba9de89240e6aa7f.pdf,0,2000-01-01 01:00:00,2016-04-03 02:51:08,827000/7cebe2c0b39ca0f1ba9de89240e6aa7f-d.jpg,,
5450823,How to Play Piano Despite Years of Lessons: What Music Is and How to Make It at Home,,,,"Ward Cannel, Fred Marx",1981,,Hal Leonard Corporation,,239,0,English ,,,,"0385142633,0385121911,9780385142632,9780385121910",,,,,786.3/04/1,MT239.C236 H7 1978,,,OL16380323M,,0,,,,,1,,,4444575,djvu,7cf9b87437e69576babe30e60aab2bc0,,,_207595.7cf9b87437e69576babe30e60aab2bc0.djvu,0,2000-01-01 01:00:00,2016-04-03 02:51:08,827000/7cf9b87437e69576babe30e60aab2bc0-d.jpg,,
5450821,Great Ape Societies,,,,"William C. McGrew (editor), Linda F. Marchant (editor), Toshisada Nishida (editor)",1996,,Cambridge University Press,,349,0,English ,,,,"9780511752414,9780521554947,9780521555364",,,,,,,10.1017/CBO9780511752414,iGfjJ4lKb1IC,,,0,,,,1,1,1,1,56220711,pdf,7ce47f816050eb1efe1e2d440265ae46,,,_397861.7ce47f816050eb1efe1e2d440265ae46.pdf,0,2000-01-01 01:00:00,2016-04-03 02:51:08,827000/7ce47f816050eb1efe1e2d440265ae46-d.jpg,,
5450819,Light transmission optics (Van Nostrand Reinhold electrical computer science and engineering series),,,,Dietrich Marcuse,1982,2nd,Van Nostrand Reinhold Company,,500,0,English ,,,,"9780442263096,0442263090",,,,,535/.3,QC389 .M37 1982,,,OL3781702M,,0,,,,,1,,,10390621,djvu,7ccbb0f7f17f5a76a6449f1cf64b0201,,,_15967.7ccbb0f7f17f5a76a6449f1cf64b0201.djvu,0,2000-01-01 01:00:00,2016-04-03 02:51:08,827000/7ccbb0f7f17f5a76a6449f1cf64b0201-g.jpg,,
5450820,"Handbook Of Research On Machine Learning Applications and Trends: Algorithms, Methods and Techniques (2 Volumes)",,,,"Emilio Soria Olivas, Jose David Martin Guerrero, Marcelino Martinez Sober, Jose Rafael Magdalena Benedito, Antonio Jose Serrano Lopez",2009,1,Information Science Reference,,834,0,English ,,,,"1605667668,9781605667669",,,,,006.3/1,Q325.5 .H36 2010,,,OL23180183M,,0,,,,,0,1,,12564493,pdf,7ce385fa73e2154f77303587ba87b9a7,,,_75186.7ce385fa73e2154f77303587ba87b9a7.pdf,0,2000-01-01 01:00:00,2016-04-03 02:51:08,827000/7ce385fa73e2154f77303587ba87b9a7-d.jpg,,
5450818,"Introduction to Sensitivity and Stability Analysis in Nonlinear Programming (Mathematics in Science and Engineering, 165)",,Mathematics in Science and Engineering volume 165,,Anthony Fiacco,1983,,Academic Press,,367,0,English ,,,,"0122544501,9780122544507",,,,,519.7/6,T57.8 .F53 1983,,,OL3491818M,,0,,,,,1,,,3678023,pdf,7ca96ba37a57dbc72a4fb34e1fc8c418,,,_37239.7ca96ba37a57dbc72a4fb34e1fc8c418.pdf,0,2000-01-01 01:00:00,2016-04-03 02:51:08,827000/7ca96ba37a57dbc72a4fb34e1fc8c418-d.jpg,,
5450816,Linux Kernel Development (3rd Edition),,,,Robert Love,2010,3,Addison-Wesley Professional,,467,0,English ,,,,"0672329468,9780672329463",,,,,,,,,,,0,,,,1,0,1,1,2456273,pdf,7c8ad75ee09cc182a500d57475bf06c3,,,_185467.7c8ad75ee09cc182a500d57475bf06c3.pdf,0,2000-01-01 01:00:00,2016-04-03 02:51:08,827000/7c8ad75ee09cc182a500d57475bf06c3-d.jpg,,
5450817,"The Lost Road and Other Writings (The History of Middle-Earth, Vol. 5)",,The History of Middle-Earth volume 5,,J.R.R. Tolkien,1993,(Reissue),Grafton,,462,0,English ,,,,"0261102257,9780261102255",,,,,,,,,OL9632978M,,0,,,,,1,,,2174295,pdf,7ca58325ec8244383c620b94b63fc5d4,,,_387406.7ca58325ec8244383c620b94b63fc5d4.pdf,0,2000-01-01 01:00:00,2016-04-03 02:51:08,827000/7ca58325ec8244383c620b94b63fc5d4-d.jpg,,
5450815,Force And Motion (Physics in Our World),,,,Kyle Kirkland,2007,1,Infobase Publishing,,177,0,English ,,,,"0816061114,9780816061112,9781438109282",,,,,,,,,OL11360218M,,0,,,,1,0,0,1,5638135,pdf,7c8ab55290ce39888013e2242db315c4,,,_349090.7c8ab55290ce39888013e2242db315c4.pdf,0,2000-01-01 01:00:00,2016-04-03 02:51:08,827000/7c8ab55290ce39888013e2242db315c4-d.jpg,,
5450813,Structures on Manifolds,,,,"Kentar&#333; Yano, Masahiro Kon",1984,,World Scientific,,518,0,English ,,,,"9971966158,9789971966157,9789971966164,9971966166",,,,,516.3/62,QA649 .Y327 1984,,2vVfQgAACAAJ,OL3020524M,,0,,,,,1,,,30558234,pdf,7c792b9ae643a8e3cfe867da77536558,,,_429221.7c792b9ae643a8e3cfe867da77536558.pdf,0,2000-01-01 01:00:00,2016-04-03 02:51:08,827000/7c792b9ae643a8e3cfe867da77536558-g.jpg,,
5450814,"The Elements of Aerofoil and Airscrew Theory, Second Edition (Cambridge Science Classics)",,,,Hermann Glauert,1983,2,Cambridge University Press,,244,0,English ,,,,"052127494X,9780521274944",,,,,629.132/33,TL574.A4 G6 1983,,,OL3501942M,,600,,,,,1,0,1,4118449,djvu,7c7eef132b9c3ea99de706e414d96dfa,,,_207746.7c7eef132b9c3ea99de706e414d96dfa.djvu,0,2000-01-01 01:00:00,2016-04-03 02:51:08,827000/7c7eef132b9c3ea99de706e414d96dfa-d.jpg,,
5450812,Discrete Integrable Systems: QRT Maps and Elliptic Surfaces (Springer Monographs in Mathematics),,,,J.J. Duistermaat,2010,1st Edition.,Springer,,649,0,English ,,,,"1441971165,9781441971166,9780387729237",,,,,,,,,,,0,,,,,1,,,5236256,pdf,7c5662f1d6e3f98865f515d56ae70a84,,,_198940.7c5662f1d6e3f98865f515d56ae70a84.pdf,0,2000-01-01 01:00:00,2016-04-03 02:51:08,827000/7c5662f1d6e3f98865f515d56ae70a84-d.jpg,,
5450810,PHP & MySQL et CSS,,,,Jean Carfantan,,,CARDOZA,,800,0,French ,,,,"2300017598,9782300017599",,,,,,,,,,,0,,,,,1,,,24924640,pdf,7c3536c2210a678bff233e4db108a97b,,,_195643.7c3536c2210a678bff233e4db108a97b.pdf,0,2000-01-01 01:00:00,2016-04-03 02:51:08,827000/7c3536c2210a678bff233e4db108a97b-d.jpg,,
5450811,Nonlinear Functional Analysis and Its Applications III: Variational Methods and Optimization,,,,Eberhard Zeidler,1984,1,Springer,,688,0,English ,,,,"9780387909158,038790915X",,,,,515.7,QA321.5,,,OL21346486M,,0,,,,,1,,,69533277,pdf,7c52e98ab15544772bf670844f9ded7f,,,_28608.7c52e98ab15544772bf670844f9ded7f.pdf,0,2000-01-01 01:00:00,2016-04-03 02:51:08,827000/7c52e98ab15544772bf670844f9ded7f-d.jpg,,
5450809,"Modern Developments in Fluid Dynamics. An Account of Theory and Experiment Relating to Boundary Layers, Turbulent Motion and Wakes. Vol. I. ( The Oxford Engenieering Science Series).",,,,S. (ed.) Goldstein,1952,,Clarendon Press Oxford.,,401,0,English ,,,,,,B000W8R2TW,,,,,,,,,0,,,,,1,,,31354294,djvu,7c30b56eb7cbda3b4f37470e05728263,,,_322279.7c30b56eb7cbda3b4f37470e05728263.djvu,0,2000-01-01 01:00:00,2016-04-03 02:51:08,827000/7c30b56eb7cbda3b4f37470e05728263-g.jpg,,
5450807,Planet Called Earth,,,,George Gamow,1963,,THE VIKING PRESS,,269,0,English ,,,,"0670558125,9780670558124",,,,,,,,,,,0,,,,1,1,,,16356255,djvu,7c106f13d11802430d7004028d09a8ae,,,_328198.7c106f13d11802430d7004028d09a8ae.djvu,0,2000-01-01 01:00:00,2016-04-03 02:51:08,827000/7c106f13d11802430d7004028d09a8ae-d.jpg,,
5450808,"An introduction to soil mechanics and foundations, 3rd edition",,,,C.R. Scott,,,,,217,0,English ,,,,0853348731,,,,,,,,,,,0,,,,,1,,,19939155,djvu,7c162cfa84f80398ba5546bb671df7d2,,,_215852.7c162cfa84f80398ba5546bb671df7d2.djvu,0,2000-01-01 01:00:00,2016-04-03 02:51:08,827000/7c162cfa84f80398ba5546bb671df7d2-g.jpg,,
5450806,Google on the Go: Using an Android-Powered Mobile Phone,,,,"John Eddy, Patricia DiGiacomo Eddy",2009,1st,Que,,215,0,English ,,,,"0789739534,9780789739537,0768690269,9780768690262",,,,,005.26/8,TK5105.885.G66 E33 2009,,,OL23147791M,,0,,,,,1,1,1,9518767,pdf,7bfe5ea692c2a14961aefa046965c592,,,_207704.7bfe5ea692c2a14961aefa046965c592.pdf,0,2000-01-01 01:00:00,2016-04-03 02:51:08,827000/7bfe5ea692c2a14961aefa046965c592-d.jpg,,
5450804,Satisfaction: Die Kunst des weiblichen Orgasmus,,,,"Kim Cattrall, Mark Levinson",,,,,144,0,German ,,,,"3861506440,9783861506447",,,,,,,,,,,0,,,,,1,,,12187962,pdf,7bd5d0e5a56ae36e6fcea8125a496244,,,_364409.7bd5d0e5a56ae36e6fcea8125a496244.pdf,0,2000-01-01 01:00:00,2016-04-03 02:51:08,827000/7bd5d0e5a56ae36e6fcea8125a496244-g.jpg,,
5450805,Subject and Predicate in Logic and Grammar,,,,P. F. Strawson,2004,Revised,Ashgate Publishing,,125,0,English ,,,,"0754637875,9780754637875",,,,,,,,,OL9621991M,pp. I-III,0,,,,0,1,0,0,1980212,pdf,7be8514549eb7fa40266821f9e5cdfa0,,,_272240.7be8514549eb7fa40266821f9e5cdfa0.pdf,0,2000-01-01 01:00:00,2016-04-03 02:51:08,827000/7be8514549eb7fa40266821f9e5cdfa0-d.jpg,,
5450802,Cremona Violins: A Physicist's Quest for Secrets of Stradivari,,,,Kameshwar C. Wali,2009,Har/DVD ROM,World Scientific Publishing Company,,176,0,English ,,,,"9812791094,9789812791092,9812791108,9789812791108",,,,,787.2/1945271,ML830.8.C74 W35 2010,,,OL24458634M,,0,,,,,1,,,4697168,pdf,7bb834346e9777077bfdc153afcc0710,,,_216095.7bb834346e9777077bfdc153afcc0710.pdf,0,2000-01-01 01:00:00,2016-04-03 02:51:08,827000/7bb834346e9777077bfdc153afcc0710-d.jpg,,
5450803,Methods of Hilbert Spaces,,,,K Maurin,1967,,"PWN, Warsaw",,277,0,English ,,,,"0900318066,9780900318061",,,,,,,,,,,0,,,,0,1,0,0,24325093,pdf,7bcd5bdfcf6a7ebd6f51ec03f1936d87,,,_526108.7bcd5bdfcf6a7ebd6f51ec03f1936d87.pdf,0,2000-01-01 01:00:00,2016-04-03 02:51:08,827000/7bcd5bdfcf6a7ebd6f51ec03f1936d87-g.jpg,,
5450801,Data Refinement: Model-Oriented Proof Methods and their Comparison (Cambridge Tracts in Theoretical Computer Science (No. 47)),,Cambridge Tracts in Theoretical Computer Science (No. 47) ,,"Willem-Paul de Roever, Kai Engelhardt",2008,First Edition,Cambridge University Press,,436,0,English ,,,,"9780511663079,9780521641708,9780521103503",,,,,,,10.1017/CBO9780511663079,zXmnPwAACAAJ,OL7749782M,,0,,,,1,1,1,1,17630659,pdf,7bb55bf94517ccb0c93f8142deb90d01,,,_403107.7bb55bf94517ccb0c93f8142deb90d01.pdf,0,2000-01-01 01:00:00,2016-04-03 02:51:08,827000/7bb55bf94517ccb0c93f8142deb90d01-d.jpg,,
5450799,Quantum Physics And Measurement,,,,V K Shrivastava,,,,,151,0,English ,,,,"8183761380,9788183761383",,,,,,,,,,,0,,,,,1,1,1,7423783,pdf,7bae7b2170b2a832cd33ddd6a72c38d5,,,_207429.7bae7b2170b2a832cd33ddd6a72c38d5.pdf,0,2000-01-01 01:00:00,2016-04-03 02:51:08,827000/7bae7b2170b2a832cd33ddd6a72c38d5-g.jpg,,
5450800,"Courbes mathématiques, numéro spécial 45, 1995",,,,Revue du palais de la découverte,,,,,169,0,French ,,,,"2856070329,9782856070321",,,,,,,,,,,0,,,,,1,,,2122679,djvu,7bb2482c39618135c33d6828cd9d0909,,,_108786.7bb2482c39618135c33d6828cd9d0909.djvu,0,2000-01-01 01:00:00,2016-04-03 02:51:08,827000/7bb2482c39618135c33d6828cd9d0909-g.jpg,,
5450798,"Hello, Android: Introducing Google's Mobile Development Platform",,,,Ed Burnette,2008,1,The Pragmatic Bookshelf,,247,0,English ,,,,"1934356174,9781934356173",,,,,,,,,,,0,,,,,1,,,2317292,pdf,7bac600ff110f4047fa8ac8f3a55e115,,,_207545.7bac600ff110f4047fa8ac8f3a55e115.pdf,0,2000-01-01 01:00:00,2016-04-03 02:51:08,827000/7bac600ff110f4047fa8ac8f3a55e115-d.jpg,,
5450796,Holographic Data Storage: From Theory to Practical Systems,,,,"Kevin Curtis, Lisa Dhar, Adrian Hill, William Wilson, Mark Ayres",2010,1,Wiley,,438,0,English ,,,,"0470749628,9780470749623",,,,,,,,,,,0,,,,1,1,1,1,9050130,pdf,7b6282be7022bfd7379ba5215e38500f,,,_202056.7b6282be7022bfd7379ba5215e38500f.pdf,0,2000-01-01 01:00:00,2016-04-03 02:51:08,827000/7b6282be7022bfd7379ba5215e38500f-d.jpg,,
5450797,Autour du nombre Pi,,,,Pierre Eymard & Jean-Pierre Lafon,1999,,Hermann,,318,0,French ,,,,"2705614435,9782705614430",,,,,,,,,OL12521801M,,0,,,,,1,,,25774787,pdf,7b8b40aea526926b64457f46c9807461,,,_195697.7b8b40aea526926b64457f46c9807461.pdf,0,2000-01-01 01:00:00,2016-04-03 02:51:08,827000/7b8b40aea526926b64457f46c9807461-d.jpg,,
5450795,Silverlight 4 User Interface Cookbook,,,,Vibor Cipan,2010,,Packt Publishing,,280,0,English ,,,,"1847198864,9781847198860",,,,,,,,,,,0,,,,,1,,,5514233,pdf,7b390a7d690f352e406f67127abf2b5d,,,_353108.7b390a7d690f352e406f67127abf2b5d.pdf,0,2000-01-01 01:00:00,2016-04-03 02:51:08,827000/7b390a7d690f352e406f67127abf2b5d-d.jpg,,
5450793,"Bilinear Control Processes: With Applications to Engineering, Ecology and Medicine (Mathematics in Science & Engineering, 106)",,Mathematics in Science and Engineering volume 106,,R.R. Mohler,1973,,Academic Press,,224,0,English ,,,,"9780125041409,0125041403",,,,,629.8/312,QA402.3 .M63,,,OL5411286M,,0,,,,,1,,,2889186,pdf,7af5f1582e7cbf24eff480a866a2cccf,,,_37168.7af5f1582e7cbf24eff480a866a2cccf.pdf,0,2000-01-01 01:00:00,2016-04-03 02:51:08,827000/7af5f1582e7cbf24eff480a866a2cccf-d.jpg,,
5450794,Industrial ecology and global change,,,,Robert H. Socolow,1997,,Cambridge University Press,,530,0,English ,,,,"0521577837,9780521577830,0521471974,9780521471978",,,,,363.73/1,TS161 .I54 1994,,Wb4Du3C_elkC,OL1087801M,,0,,,,1,1,1,1,7905738,pdf,7b35ecf18f264f07f3ce3606eb821607,,,_338988.7b35ecf18f264f07f3ce3606eb821607.pdf,0,2000-01-01 01:00:00,2016-04-03 02:51:08,827000/7b35ecf18f264f07f3ce3606eb821607-d.jpg,,
5450792,Oscillation Theory for Neutral Differential Equations with Delay,,,,"D.D Bainov, D.P Mishev",1991,1,Taylor & Francis,,288,0,English ,,,,"0750301422,9780750301428",,,,,515/.35,QA372 .B274 1991,,,OL1537016M,,0,,,,,1,,,4974852,djvu,7af135666490c1b3e3682395281e9257,,,_385206.7af135666490c1b3e3682395281e9257.djvu,0,2000-01-01 01:00:00,2016-04-03 02:51:08,827000/7af135666490c1b3e3682395281e9257-d.jpg,,
5450791,"Culture, Language and Personality: Selected Essays",,,,Edward Sapir,1949,,University of California Press,,208,0,English ,,,,"0520011163,9780520055940,0520055942,9780520011168",,,,,,,,,OL7708141M,,0,,,,,1,,,37804071,pdf,7ae7ab0e93dc24bc7caded4e386a6b38,,,_182897.7ae7ab0e93dc24bc7caded4e386a6b38.pdf,0,2000-01-01 01:00:00,2016-04-03 02:51:08,827000/7ae7ab0e93dc24bc7caded4e386a6b38-g.jpg,,
5450790,Machina Carnis: The Biochemistry of Muscular Contraction in its Historical Development,,,,Dorothy M. Needham,2009,1,Cambridge University Press,,819,0,English ,,,,"9780511735691,9780521079747,9780521112673",,,,,,,10.1017/CBO9780511735691,CLx8PwAACAAJ,OL7716929M,,0,,,,1,1,1,1,32084449,pdf,7acb0dacd8ef647d3f3696b07b91f211,,,_405980.7acb0dacd8ef647d3f3696b07b91f211.pdf,0,2000-01-01 01:00:00,2016-04-03 02:51:08,827000/7acb0dacd8ef647d3f3696b07b91f211-d.jpg,,
5450788,"SEMICONDUCTORS & SEMIMETALS V30, Very high speed integrated circuits: heterostructure",,Semiconductors and Semimetals volume 30,,Ikoma Toshiaki,1990,,Academic Press,,293,0,English ,,,,"0127521305,9780127521305",,,,,621.38152,QC610.9S48 1985,,,OL10073169M,,0,,,,0,0,0,1,13407287,pdf,7ab7f358c2beb06f497f61b9d11a4c0e,,,_395410.7ab7f358c2beb06f497f61b9d11a4c0e.pdf,0,2000-01-01 01:00:00,2016-04-03 02:51:08,827000/7ab7f358c2beb06f497f61b9d11a4c0e-g.jpg,,
5450789,Close to the Machine: Technophilia and Its Discontents,,,,Ellen Ullman,2001,2nd,City Lights Publishers,,198,0,English ,,,,"0872863328,9780872863323,0872863379,9780872863378",,,,,"005.1/092,B",QA76.2.U43 A3 1997,,,OL680682M,,600,,,,0,1,0,1,1033512,djvu,7aca4612de4154dde81eedf09a0feff6,,,_176036.7aca4612de4154dde81eedf09a0feff6.djvu,0,2000-01-01 01:00:00,2016-04-03 02:51:08,827000/7aca4612de4154dde81eedf09a0feff6-d.jpg,,
5450787,Lizard Ecology,,,,"Stephen M. Reilly (editor), Lance B. McBrayer (editor), Donald B. Miles (editor)",2007,1,Cambridge University Press,,545,0,English ,,,,"9780511752438,9780521833585",,,,,,,10.1017/CBO9780511752438,xs_BnuaW2RcC,OL17236782M,,0,,,,1,0,1,1,10075141,pdf,7aafacc1a88c5773ff9d29edb2783544,,,_406430.7aafacc1a88c5773ff9d29edb2783544.pdf,0,2000-01-01 01:00:00,2016-04-03 02:51:08,827000/7aafacc1a88c5773ff9d29edb2783544-d.jpg,,
5450785,Low power and low complexity constant multiplication using serial arithmetic,,,,Kenny Johansson.,,,,,126,0,English ,,,,9185523763,,,,,,,,,,,0,,,,,1,,,936631,pdf,7a757703aa97933f8494fc7a618b27b1,,,_31130.7a757703aa97933f8494fc7a618b27b1.pdf,0,2000-01-01 01:00:00,2016-04-03 02:51:08,827000/7a757703aa97933f8494fc7a618b27b1-g.jpg,,
5450786,"Stochastic Analysis: Proceedings of the Taniguchi International Symposium on Stochastic Analysis, Katata and Kyoto, 1982 (North-Holland Mathematical Library)",,North-Holland Mathematical Library volume 32,,Kiyosi Ito,1985,,Elsevier Science Ltd,,496,0,English ,,,,"0444875883,9780444875884",,,,,,,,,OL10261139M,,0,,,,,1,,,6273900,pdf,7aa01b3ed99d3c8c1ffb08d6258ed6ba,,,_177703.7aa01b3ed99d3c8c1ffb08d6258ed6ba.pdf,0,2000-01-01 01:00:00,2016-04-03 02:51:08,827000/7aa01b3ed99d3c8c1ffb08d6258ed6ba-d.jpg,,
5450783,Mac OS X Snow Leopard,,,,Corentin Orsini,,,Micro application,,163,0,French ,,,,"2300025086,9782300025082",,,,,,,,,,,0,,,,,1,,,14395731,pdf,7a149ccd6adf5058caf8659486981040,,,_195678.7a149ccd6adf5058caf8659486981040.pdf,0,2000-01-01 01:00:00,2016-04-03 02:51:08,827000/7a149ccd6adf5058caf8659486981040-d.jpg,,
5450784,The Distribution of Prime Numbers (Cambridge Mathematical Library),,,,A. E. Ingham,1990,,Cambridge University Press,,61,0,English ,,,,"0521397898,9780521397896",,,,,512/.72,QA246 .I6 1990,,,OL1581978M,,0,,,,0,1,0,0,10269462,pdf,7a64c618a6e68bdab109363f21c1800e,,,_216939.7a64c618a6e68bdab109363f21c1800e.pdf,0,2000-01-01 01:00:00,2016-04-03 02:51:08,827000/7a64c618a6e68bdab109363f21c1800e-d.jpg,,
5450782,"Lectures in Geometric Combinatorics (Student Mathematical Library, Vol. 33)",,Student Mathematical Library volume 33,,Rekha R. Thomas,2006,,American Mathematical Society,,154,0,English ,,,,"0821841408,9780821841402",,,,,,,,,OL17198701M,,0,,,,,1,1,1,1088006,pdf,7a0d80c6edca9f45a8734dcde007395a,,,_301039.7a0d80c6edca9f45a8734dcde007395a.pdf,0,2000-01-01 01:00:00,2016-04-03 02:51:08,827000/7a0d80c6edca9f45a8734dcde007395a-d.jpg,,
5450780,Introduction to Bioinformatics: A Theoretical and Practical Approach,,,,"Stephen A. Krawetz, David D. Womble",2003,1st,Humana Press,,762,0,English ,,,,"1588290646,9781588290649",,,,,,,,9TY2UVMb9HIC,OL17074441M,,0,,,,0,0,0,1,16730906,pdf,6ffee7a26e9a497aaa800b1baeda68f7,,,_256514.6ffee7a26e9a497aaa800b1baeda68f7.pdf,0,2000-01-01 01:00:00,2016-04-03 02:51:08,827000/6ffee7a26e9a497aaa800b1baeda68f7-d.jpg,,
5450781,Discrete-Event Control of Stochastic Networks: Multimodularity and Regularity (Lecture Notes in Mathematics),,,,"Eitan Altman, Bruno Gaujal, Arie Hordijk",2004,1,Springer,,327,0,English ,,,,"3540203583,9783540203582",,,,,,,,,OL9422054M,,0,,,,0,0,0,0,2951445,pdf,7a07a58196fa25089d6e05972200f493,,,_343362.7a07a58196fa25089d6e05972200f493.pdf,0,2000-01-01 01:00:00,2016-04-03 02:51:08,827000/7a07a58196fa25089d6e05972200f493-d.jpg,,
5450778,Mechanik der Gase (Springer-Lehrbuch),,Springer-Lehrbuch ,,Dieter Richter,2010,2010,Springer,,121,0,German ,,,,"3642127223,9783642127229",,,,,,,10.1007 978-3-642-12723-6,AtHnpH8FKI0C,,,0,,,,,0,1,1,1450270,pdf,6fd27ff5f14a19112b8d008ab7faf9d4,,,_176662.6fd27ff5f14a19112b8d008ab7faf9d4.pdf,0,2000-01-01 01:00:00,2016-04-03 02:51:08,827000/6fd27ff5f14a19112b8d008ab7faf9d4-d.jpg,,
5450779,Schwierige Personalgespräche,,,,"Franz Hölzl, Nadja Raslan",,,Haufe Mediengruppe,,192,0,German ,,,,"3448068721,9783448068726",,,,,,,,,,,0,,,,,1,,,838341,pdf,6fe2a96ae993526f2a612865c32e9a56,,,_199491.6fe2a96ae993526f2a612865c32e9a56.pdf,0,2000-01-01 01:00:00,2016-04-03 02:51:08,827000/6fe2a96ae993526f2a612865c32e9a56-d.jpg,,
5450777,"Poisson Geometry, Deformation Quantisation and Group Representations (London Mathematical Society Lecture Note Series (No. 323))",,London Mathematical Society Lecture Note Series (No. 323) ,,"Simone Gutt (editor), John Rawnsley (editor), Daniel Sternheimer (editor)",2005,,Cambridge University Press,,370,0,English ,,,,"9780511734878,9780521615051",,,,,,,10.1017/CBO9780511734878,SdBQxThLEGYC,OL7748673M,,0,,,,1,0,1,1,5482714,pdf,6fcc7dc9c662239399b4ea3c27941ebb,,,_397794.6fcc7dc9c662239399b4ea3c27941ebb.pdf,0,2000-01-01 01:00:00,2016-04-03 02:51:08,827000/6fcc7dc9c662239399b4ea3c27941ebb-d.jpg,,
5450776,Divisors (Cambridge Tracts in Mathematics),,,,"Richard R. Hall, Gérald Tenenbaum",2008,1,Cambridge University Press,,184,0,English ,,,,"0521091675,9780521091671",,,,,,,,,,,0,,,,,1,,,1470493,pdf,6fb6d969d6f8662e69de61ba29822eae,,,_215389.6fb6d969d6f8662e69de61ba29822eae.pdf,0,2000-01-01 01:00:00,2016-04-03 02:51:08,827000/6fb6d969d6f8662e69de61ba29822eae-d.jpg,,
5450774,Vergangenheit mal zwei.,,,,Eric Frank Russell,1974,,Ullstein Taschenbuchvlg.,,125,0,German ,,,,"3548030556,9783548030555",,,,,,,,,,,0,,,,,1,,,550296,pdf,6f884900c6f563f3f706127f8a14196a,,,_501798.6f884900c6f563f3f706127f8a14196a.pdf,0,2000-01-01 01:00:00,2016-04-03 02:51:08,827000/6f884900c6f563f3f706127f8a14196a-d.jpg,,
5450775,Advances in Computational Algorithms and Data Analysis (Lecture Notes in Electrical Engineering),,,,"Sio-Iong Ao, Burghard Rieger, Su-Shing Chen",2008,1,Springer,,596,0,English ,,,,"140208918X,9781402089183,9781402089190",,,,,,,,96R54aZW2JMC,,,0,,,,,1,1,,49872584,pdf,6fa34a30fc7120af7f4eba9c6dc7968a,,,_49944.6fa34a30fc7120af7f4eba9c6dc7968a.pdf,0,2000-01-01 01:00:00,2016-04-03 02:51:08,827000/6fa34a30fc7120af7f4eba9c6dc7968a-d.jpg,,
5450772,Statistical and Evolutionary Analysis of Biological Networks,,,,Michael P. H. Stumpf,2009,,Imperial College Press,,180,0,English ,,,,"1848164335,9781848164338",,,,,,,,,,,0,,,,,1,,,3219020,pdf,6f7445ad16505e5acd5dd2e88cd10d34,,,_216082.6f7445ad16505e5acd5dd2e88cd10d34.pdf,0,2000-01-01 01:00:00,2016-04-03 02:51:08,827000/6f7445ad16505e5acd5dd2e88cd10d34-d.jpg,,
5450773,Discrete Math with Proof,,,,Eric Gossett,2003,,Prentice Hall,,922,0,English ,,,,0130669482,,,,,,,,,,,0,,,,0,1,0,1,58171940,pdf,6f80cd2e023c561b97e3668c65c22c92,,,_291468.6f80cd2e023c561b97e3668c65c22c92.pdf,0,2000-01-01 01:00:00,2016-04-03 02:51:08,827000/6f80cd2e023c561b97e3668c65c22c92-g.jpg,,
5450771,Linear Systems and Operators in Hilbert Space,,,,Paul A. Fuhrmann,1982,1st,Mcgraw-Hill (Tx),,335,0,English ,,,,"0070225893,9780070225893",,,,,515/.73,QA322.4 .F83,,,OL4739866M,,0,,,,,1,,,5631625,pdf,6f436f693f8204c0ae1337142564af75,,,_210400.6f436f693f8204c0ae1337142564af75.pdf,0,2000-01-01 01:00:00,2016-04-03 02:51:08,827000/6f436f693f8204c0ae1337142564af75-g.jpg,,
5450769,QFinance: The Ultimate Resource,,,,Various Authors,2009,,Bloomsbury USA,,2207,0,English ,,,,"1849300003,9781849300001",,,,,,,,,,,0,,,,,1,1,1,37175245,pdf,6f0e027b4c7202900ae0e20f5e07bbb7,,,_207494.6f0e027b4c7202900ae0e20f5e07bbb7.pdf,0,2000-01-01 01:00:00,2016-04-03 02:51:08,827000/6f0e027b4c7202900ae0e20f5e07bbb7-d.jpg,,
5450770,Chopin: 12 Etudes Op. 10,,,,student's edition by Alfred Cortot,,,,,83,0,English ,,,,,,B003AH0XV6,,,,,,,,,0,,,,,1,,,6741898,pdf,6f1a14aad90cd6e77ff28c6dd1ed256f,,,_172005.6f1a14aad90cd6e77ff28c6dd1ed256f.pdf,0,2000-01-01 01:00:00,2016-04-03 02:51:08,827000/6f1a14aad90cd6e77ff28c6dd1ed256f-g.jpg,,
5450767,Zukunftssichere TYPO3-Extensions mit Extbase und Fluid: Der Einstieg in die neue Extension-Entwicklung,,,,"Jochen Rau, Sebastian Kurfürst",2010,,O'Reilly Vlg. GmbH & Co.,,336,0,German ,,,,"3897219654,9783897219656",,,,,,,,,,,0,,,,,1,,,4163827,pdf,6eea45befbd448faab7396a16cf9c7b0,,,_199603.6eea45befbd448faab7396a16cf9c7b0.pdf,0,2000-01-01 01:00:00,2016-04-03 02:51:08,827000/6eea45befbd448faab7396a16cf9c7b0-d.jpg,,
5450768,Probabilistic Logics and Probabilistic Networks,,,,"Rolf Haenni, Jan-Willem Romeijn, Gregory Wheeler, Jon Williamson",2010,1st Edition.,Springer,,169,0,English ,,,,"9400700075,9789400700079,9789400700086",,,,,519.2,QA273 .P7952 2011,,,OL25161833M,,0,,,,1,0,1,1,2525207,pdf,6efcd30c8f443295d2b4319105fc2d59,,,_250147.6efcd30c8f443295d2b4319105fc2d59.pdf,0,2000-01-01 01:00:00,2016-04-03 02:51:08,827000/6efcd30c8f443295d2b4319105fc2d59-d.jpg,,
5450765,Partial Differential Equations: an introduction,,,,Bernard Epstein,1962,Underlining,McGraw-Hill,,281,0,English ,,,,"0070195404,9780070195400",,,,,,,,,,,0,,,,0,1,0,1,13955744,pdf,6eb2a26456934618f2e81cce830e09da,,,_99883.6eb2a26456934618f2e81cce830e09da.pdf,0,2000-01-01 01:00:00,2016-04-03 02:51:08,827000/6eb2a26456934618f2e81cce830e09da-g.jpg,,
5450766,The Idea of Humanity: Anthropology and Anthroponomy in Kant's Ethics (Studies in Ethics),,,,David G. Sussman,2001,,Routledge,,343,0,English ,,,,"0815339844,9780815339847",,,,,,,,JVjhBeQTnMoC,OL8048390M,,0,,,,0,1,1,1,42793259,pdf,6ee4560a83e3522841026c69b987f5c9,,,_430248.6ee4560a83e3522841026c69b987f5c9.pdf,0,2000-01-01 01:00:00,2016-04-03 02:51:08,827000/6ee4560a83e3522841026c69b987f5c9-d.jpg,,
5450763,Stille im Netz: Ein Praxisbuch zu passiver Reconnaissance und indirekten Angriffen,,,,Michal Zalewski,2006,,Hanser Fachbuchverlag,,305,0,German ,,,,"3446408002,9783446408005",,,,,,,,,,,0,,,,,1,,,29604313,pdf,6ea7efbd07a2469c8c28d55e0a1e7bed,,,_391586.6ea7efbd07a2469c8c28d55e0a1e7bed.pdf,0,2000-01-01 01:00:00,2016-04-03 02:51:08,827000/6ea7efbd07a2469c8c28d55e0a1e7bed-d.jpg,,
5450764,"Vector-valued Optimization: Problems in Control Theory (Mathematics in Science & Engineering, 148)",,Mathematics in Science and Engineering volume 148,,M.E. Salukvadze,1979,,Academic Press,,227,0,English ,,,,"0126167508,9780126167504",,,,,629.8/312,QA402.3 .S24613,,,OL17761138M,,0,,,,,1,,,2963551,pdf,6eaec8f5428e41c378685f55f9d6770e,,,_37199.6eaec8f5428e41c378685f55f9d6770e.pdf,0,2000-01-01 01:00:00,2016-04-03 02:51:08,827000/6eaec8f5428e41c378685f55f9d6770e-d.jpg,,
5450761,Introduction to Biocatalysis Using Enzymes and Microorganisms,,,,"S. M. Roberts, Nicholas J. Turner, Andrew J. Willetts, Michael K. Turner",1995,1,Cambridge University Press,,208,0,English ,,,,"9780511752254,9780521430708,9780521436854",,,,,,,10.1017/CBO9780511752254,r6AIKiXe1YEC,,,0,,,,1,1,1,1,4170831,pdf,6e8c7f7d92af62967e3a35ffc9f1fe86,,,_406419.6e8c7f7d92af62967e3a35ffc9f1fe86.pdf,0,2000-01-01 01:00:00,2016-04-03 02:51:08,827000/6e8c7f7d92af62967e3a35ffc9f1fe86-d.jpg,,
5450762,Problems in Plane and Solid Geometry v.1 Plane Geometry,,,,V. Prasolov D.Leites (translator),,,,,495,0,English ,,,,,,,,,,,,,,,0,,,,,0,0,1,4140163,pdf,6ea5efabc209723b0640a94b6b29837b,,,_495580.6ea5efabc209723b0640a94b6b29837b.pdf,0,2000-01-01 01:00:00,2016-04-03 02:51:08,827000/6ea5efabc209723b0640a94b6b29837b-g.jpg,,
5450759,Topology,,,,"John G. Hocking, Gail S. Young",1961,,Addison-Wesley Publishing Co.,,385,0,English ,,,,,,,,,,615023,,xEVMqtn5jOYC,,,0,,,,1,1,1,1,4548169,djvu,6e8bb5e22d8609ac7f11be3134b09621,,,_218833.6e8bb5e22d8609ac7f11be3134b09621.djvu,0,2000-01-01 01:00:00,2016-04-03 02:51:08,827000/6e8bb5e22d8609ac7f11be3134b09621-g.jpg,,
5450760,Systems Biology in Psychiatric Research: From High-Throughput Data to Mathematical Modeling,,,,"Felix Tretter, Georg Winterer, Peter J. Gebicke-Haerter, Eduardo R. Mendoza",2010,1,Wiley-VCH,,378,0,English ,,,,"3527325034,9783527325030",,,,,,,,,,,0,,,,,1,,,4717880,pdf,6e8bfdec26bd2962300bd9c7a077827c,,,_171687.6e8bfdec26bd2962300bd9c7a077827c.pdf,0,2000-01-01 01:00:00,2016-04-03 02:51:08,827000/6e8bfdec26bd2962300bd9c7a077827c-d.jpg,,
5450757,Collected Papers of Srinivasa Ramanujan,,,,"By G. H. Hardy, P. V. Seshu Aiyan, B. M. Wilson, ed.",1927,,Cambridge University Press,,387,0,English ,,,,,,,,,,,,,,,0,,,,,1,,,50564404,pdf,6e4943034e803a385a80bb6d751f30d8,,,_252812.6e4943034e803a385a80bb6d751f30d8.pdf,0,2000-01-01 01:00:00,2016-04-03 02:51:08,827000/6e4943034e803a385a80bb6d751f30d8-g.jpg,,
5450758,Quantum Fields in Curved Space (Cambridge Monographs on Mathematical Physics),,,,"N. D. Birrell, P. C. W. Davies",1982,1,Cambridge University Press,,349,0,English ,,,,"0521233852,9780521233859",,,,,530.1/43,QC174.45 .B54 1982,,,OL21953622M,,0,,,,,1,,,9216377,djvu,6e89db1744df6f395a00c7bbdb00f92d,,,_361563.6e89db1744df6f395a00c7bbdb00f92d.djvu,0,2000-01-01 01:00:00,2016-04-03 02:51:08,827000/6e89db1744df6f395a00c7bbdb00f92d-d.jpg,,
5450756,The Sounds of the World's Languages (Phonological Theory),,,,"Peter Ladefoged, Ian Maddieson",1996,1,Wiley-Blackwell,,215,0,English ,,,,"0631198156,9780631198154",,,,,414,P221 .L24 1996,,,OL1122315M,,0,,,,,1,0,0,25590967,pdf,6e3a7b42d6178f5b6f5eac0efe2cedff,,,_207396.6e3a7b42d6178f5b6f5eac0efe2cedff.pdf,0,2000-01-01 01:00:00,2016-04-03 02:51:08,827000/6e3a7b42d6178f5b6f5eac0efe2cedff-d.jpg,,
5450754,The Penguin Dictionary of Curious and Interesting Numbers,,,,David Wells,1987,,Penguin Books,,230,0,English ,,,,"0140080295,9780140080292",,,,,512/.7,QA241 .W36 1986,,,OL2438067M,,600,,,,0,1,0,1,1789150,djvu,6dc0bc3779c0a4eb0af9764b53f947bc,,,_176029.6dc0bc3779c0a4eb0af9764b53f947bc.djvu,0,2000-01-01 01:00:00,2016-04-03 02:51:08,827000/6dc0bc3779c0a4eb0af9764b53f947bc-d.gif,,
5450755,Generalized Thermodynamics,,,,Byung Chan Eu,2002,1,Springer,,360,0,English ,,,,"1402007884,9781402007880",,,,,,,,,OL18179128M,,0,,,,,1,,,11469090,pdf,6e27f1a37d00ba8bdea4ae02feaa48b4,,,_355879.6e27f1a37d00ba8bdea4ae02feaa48b4.pdf,0,2000-01-01 01:00:00,2016-04-03 02:51:08,827000/6e27f1a37d00ba8bdea4ae02feaa48b4-d.jpg,,
5450752,Recent Advances in Optimization and its Applications in Engineering,,,,"Moritz Diehl, Francois Glineur, Elias Jarlebring, Wim Michiels",2010,1st Edition.,Springer,,546,0,English ,,,,"3642125972,9783642125973",,,,,,,,,,,0,,,,,1,,,18350204,pdf,6d8ea3f8802ef4bbcb9b4cbb20ed234a,,,_210227.6d8ea3f8802ef4bbcb9b4cbb20ed234a.pdf,0,2000-01-01 01:00:00,2016-04-03 02:51:08,827000/6d8ea3f8802ef4bbcb9b4cbb20ed234a-d.jpg,,
5450753,Instabilités hydrodynamiques,,,,François Charru,2007,,EDP SCIENCES,,406,0,French ,,,,"2868839851,9782868839855",,,,,,,,,,,0,,,,,1,1,1,21533445,pdf,6da8ffff12f5b8617f9add4e376d72ac,,,_422502.6da8ffff12f5b8617f9add4e376d72ac.pdf,0,2000-01-01 01:00:00,2016-04-03 02:51:08,827000/6da8ffff12f5b8617f9add4e376d72ac-d.jpg,,
5450751,Surveys in Set Theory (London Mathematical Society Lecture Note Series (No. 87)),,London Mathematical Society Lecture Note Series (No. 87) ,,A. R. D. Mathias (editor),1983,,CUP Archive,,256,0,English ,,,,"9780511758867,9780521277334",,,,,,,10.1017/CBO9780511758867,VBA8AAAAIAAJ,,,0,,,,1,1,1,1,2477136,pdf,6d8275bd186c928063c3b77877b71c1a,,,_406488.6d8275bd186c928063c3b77877b71c1a.pdf,0,2000-01-01 01:00:00,2016-04-03 02:51:08,827000/6d8275bd186c928063c3b77877b71c1a-d.jpg,,
5450750,Introduction to Functional Analysis,,,,"Angus E. Taylor, David Lay",1980,2nd,Wiley,,467,0,English ,,,,"0471846465,9780471846468",,,,,515/.7,QA320 .T3 1980,,,OL4410243M,,0,,,,,1,,,8524517,djvu,6d76c938d9f1ff647feb15f722eae92d,,,_181662.6d76c938d9f1ff647feb15f722eae92d.djvu,0,2000-01-01 01:00:00,2016-04-03 02:51:08,827000/6d76c938d9f1ff647feb15f722eae92d-g.jpg,,
5450748,Across Culture: Student Book (Across Cultures),,,,Elizabeth Sharman,2004,,Longman,,160,0,English ,,,,"0582817978,9780582817975",,,,,,,,,,,0,,,,,1,,,99213982,pdf,6d3b4a7fd4890d4211a3d94a64c60c18,,,_387985.6d3b4a7fd4890d4211a3d94a64c60c18.pdf,0,2000-01-01 01:00:00,2016-04-03 02:51:08,827000/6d3b4a7fd4890d4211a3d94a64c60c18-d.jpg,,
5450749,"The H.264 Advanced Video Compression Standard, Second Edition",,,,Iain E. Richardson,2010,2,Wiley,,348,0,English ,,,,"0470516925,9780470516928",,,,,006.6/96,TK6680.5 .R52 2010,,LJoDiPnBzQ8C,OL24013932M,,0,,,,1,0,1,1,7303779,pdf,6d6910718dd89f34103ddc6535f3afdc,,,_177633.6d6910718dd89f34103ddc6535f3afdc.pdf,0,2000-01-01 01:00:00,2016-04-03 02:51:08,827000/6d6910718dd89f34103ddc6535f3afdc-d.jpg,,
5450747,Analytic Number Theory (London Mathematical Society Lecture Note Series 247),,,,Yoichi Motohashi,1997,,Cambridge University Press,,396,0,English ,,,,"0521625122,9780521625128",,,,,512/.72,QA241 .A485 1997,,,OL407495M,,0,,,,,1,,,7730365,pdf,6d14612fd1d0d3a52c91b8ee482a81cf,,,_197005.6d14612fd1d0d3a52c91b8ee482a81cf.pdf,0,2000-01-01 01:00:00,2016-04-03 02:51:08,827000/6d14612fd1d0d3a52c91b8ee482a81cf-d.jpg,,
5450746,"Theory of Multiobjective Optimization (Mathematics in Science and Engineering, Volume 176)",,Mathematics in Science and Engineering volume 176,,"Sawaragi Yoshikazu, Nakayama Hirotaka, Tanino Tetsuzo",1985,,Academic Press,,296,0,English ,,,,"0126203709,9780126203707",,,,,519,QA402.5,,,OL21125556M,,0,,,,,1,,,3775916,pdf,6cffac95880a11769fe607a6f932bbd4,,,_216528.6cffac95880a11769fe607a6f932bbd4.pdf,0,2000-01-01 01:00:00,2016-04-03 02:51:08,827000/6cffac95880a11769fe607a6f932bbd4-d.jpg,,
5450744,"Advances in Natural Language Processing: 7th International Conference on NLP, IceTAL 2010, Reykjavik, Iceland, August 16-18, 2010, Proceedings (Lecture ...   Lecture Notes in Artificial Intelligence)",,,,"Hrafn Loftsson, Eirikur Rögnvaldsson, Sigrun Helgadottir",2010,1st Edition.,Springer,,448,0,English ,,,,"3642147690,9783642147692",,,,,,,,,,,0,,,,,1,,,5289533,pdf,6cf3afff4e7640a0cab6ee5956c1a8db,,,_199246.6cf3afff4e7640a0cab6ee5956c1a8db.pdf,0,2000-01-01 01:00:00,2016-04-03 02:51:08,827000/6cf3afff4e7640a0cab6ee5956c1a8db-d.jpg,,
5450745,"Mathematical Methods for Curves and Surfaces: 7th International Conference, MMCS 2008, Tønsberg, Norway, June 26-July 1, 2008, Revised Selected Papers ... Computer Science and General Issues)",,,,"Morten Dæhlen, Michael S. Floater, Tom Lyche, Jean-Louis Merrien, Knut Morken, Larry L. Schumaker",2010,1st Edition.,Springer,,446,0,English ,,,,"3642116191,9783642116193",,,,,,,,,,,0,,,,,1,,,13359605,pdf,6cf49b1e6efbc2d6d6f35c5c1f526301,,,_278398.6cf49b1e6efbc2d6d6f35c5c1f526301.pdf,0,2000-01-01 01:00:00,2016-04-03 02:51:08,827000/6cf49b1e6efbc2d6d6f35c5c1f526301-d.jpg,,
5450743,"Real Analysis, Fourth Edition",,,,"Halsey Royden, Patrick Fitzpatrick",2010,4,Prentice Hall,,516,0,English ,,,,"013143747X,9787111313052,9780131437470,7111313054",,,,,515,QA331.5 .R6 2010,,,OL10081621M,,0,,,,,1,1,1,7560386,pdf,6cef61be71924d7756934c8790f54ba8,,,_207446.6cef61be71924d7756934c8790f54ba8.pdf,0,2000-01-01 01:00:00,2016-04-03 02:51:08,827000/6cef61be71924d7756934c8790f54ba8-d.jpg,,
5450741,Websters Swiss German - English Thesaurus Dictionary,,,,Philip M. Parker,,,,,47,0,English ,,,,0497837277,,,,,,,,,,,0,,,,,1,,,500565,pdf,6cd5af52c3d94891a4c15a3524efd39b,,,_330300.6cd5af52c3d94891a4c15a3524efd39b.pdf,0,2000-01-01 01:00:00,2016-04-03 02:51:08,827000/6cd5af52c3d94891a4c15a3524efd39b-g.jpg,,
5450742,Handbook of Topological Fixed Point Theory,,,,"Edited by: R. F. Brown, M. Fun, L. Gorniewicz and B. Jiang",2005,2nd Printing.,Springer,,966,0,English ,,,,"1402032218,9781402032219,9781402032226",,,,,,,,,OL8371384M,,400,,,,0,1,0,1,12754507,djvu,6ce2ef763e92b27f11a5da95d6030803,,,_99866.6ce2ef763e92b27f11a5da95d6030803.djvu,0,2000-01-01 01:00:00,2016-04-03 02:51:08,827000/6ce2ef763e92b27f11a5da95d6030803-d.jpg,,
5450739,Making Words Sing: Nineteenth- and Twentieth-Century Song,,,,Jonathan Dunsby,2004,,Cambridge University Press,,164,0,English ,,,,"0521836611,9780521836616,9780511216152",,,,,,,,,OL22590822M,,0,,,,,1,,,3911759,pdf,6c7735af2fb07f6a7fea9866d30fabec,,,_6444.6c7735af2fb07f6a7fea9866d30fabec.pdf,0,2000-01-01 01:00:00,2016-04-03 02:51:08,827000/6c7735af2fb07f6a7fea9866d30fabec-d.jpg,,
5450740,Boundary Integral and Singularity Methods for Linearized Viscous Flow (Cambridge Texts in Applied Mathematics),,,,C. Pozrikidis,1992,,Cambridge University Press,,272,0,English ,,,,"0521405025,9780521405027",,,,,620.1/064,TA357.5.V56 P69 1991,,,OL1548574M,,0,,,,1,1,1,,2101433,pdf,6ccd0ee6e32f604f96a24394bc07c081,,,_319105.6ccd0ee6e32f604f96a24394bc07c081.pdf,0,2000-01-01 01:00:00,2016-04-03 02:51:08,827000/6ccd0ee6e32f604f96a24394bc07c081-d.jpg,,
5450737,The Physics of Vibration,,,,"A. B. Pippard, FRS",2007,1,Cambridge University Press,,656,0,English ,,,,"0521033330,9780521033336,0521372003,9780521372008",,,,,531/.32,QC136 .P56 1989,,,OL2189100M,,0,,,,,1,,,24435030,pdf,6c6f37350f5241947cd4be822ecc8173,,,_172063.6c6f37350f5241947cd4be822ecc8173.pdf,0,2000-01-01 01:00:00,2016-04-03 02:51:08,827000/6c6f37350f5241947cd4be822ecc8173-d.jpg,,
5450738,Real Options Valuation: The Importance of Interest Rate Modelling in Theory and Practice - 2nd edition,,,,Marcus Schulmerich,2010,2nd Edition.,Springer,,407,0,English ,,,,"3642126618,9783642126611",,,,,,,,,OL24905926M,,0,,,,,1,,,7925845,pdf,6c713cd87d2fef84f2bc291f1e45852c,,,_195546.6c713cd87d2fef84f2bc291f1e45852c.pdf,0,2000-01-01 01:00:00,2016-04-03 02:51:08,827000/6c713cd87d2fef84f2bc291f1e45852c-d.jpg,,
5450736,Applications of Biological Anthropology to Human Affairs (Cambridge Studies in Biological and Evolutionary Anthropology (No. 8)),,Cambridge Studies in Biological and Evolutionary Anthropology (No. 8) ,,"C. G. Nicholas Mascie-Taylor (editor), Gabriel W. Lasker (editor)",2005,,Cambridge University Press,,263,0,English ,,,,"9780511629129,9780521381123,9780521019354",,,,,,,10.1017/CBO9780511629129,mzRoPwAACAAJ,OL7713609M,,0,,,,1,1,1,1,3001297,pdf,6c424c964e491d525f7dff128e3a5c29,,,_403090.6c424c964e491d525f7dff128e3a5c29.pdf,0,2000-01-01 01:00:00,2016-04-03 02:51:08,827000/6c424c964e491d525f7dff128e3a5c29-d.jpg,,
5450734,Bootstrapping Stationary ARMA-GARCH Models,,,,Kenichi Shimizu,2010,2010,Vieweg + Teubner,,144,0,English ,,,,9783834809926,,,,,,,,,,,0,,,,1,0,1,1,894675,pdf,6c0090608abf2f1e7dec48b30e251b79,,,_273020.6c0090608abf2f1e7dec48b30e251b79.pdf,0,2000-01-01 01:00:00,2016-04-03 02:51:08,827000/6c0090608abf2f1e7dec48b30e251b79-d.jpg,,
5450735,Google Analytics,,,,Justin Cutroni,2010,1,O'Reilly Media,,224,0,English ,,,,"0596158009,9780596158002",,,,,,,,,,,0,,,,,1,,,6470403,pdf,6c1754869957758d9e7dcabb83c3de90,,,_197278.6c1754869957758d9e7dcabb83c3de90.pdf,0,2000-01-01 01:00:00,2016-04-03 02:51:08,827000/6c1754869957758d9e7dcabb83c3de90-d.jpg,,
5450732,Programming the Mobile Web,,,,Maximiliano Firtman,2010,1,O'Reilly Media,,512,0,English ,,,,"0596807783,9780596807788",,,,,,,,,,,0,,,,,1,1,1,9296679,pdf,6bb33fdd671ab9abb4eb67566b72d7e6,,,_207720.6bb33fdd671ab9abb4eb67566b72d7e6.pdf,0,2000-01-01 01:00:00,2016-04-03 02:51:08,827000/6bb33fdd671ab9abb4eb67566b72d7e6-d.jpg,,
5450733,"Group Representations, Volume 4 (North-Holland Mathematics Studies, 182)",,,,Gregory Karpilovsky,1995,,North-Holland,,963,0,English ,,,,"0444891080,9780444891082,0444533303,9780444533302",,,,,512/.2,QA176 .K37 1992,,,OL1712695M,,0,,,,0,1,0,1,12394316,djvu,6bed492e82146b6f8258ff787016afb9,,,_204807.6bed492e82146b6f8258ff787016afb9.djvu,0,2000-01-01 01:00:00,2016-04-03 02:51:08,827000/6bed492e82146b6f8258ff787016afb9-g.jpg,,
5450731,Elemente der Theoretischen Physik: Band 1: Klassische Mechanik und spezielle Relativitätstheorie. Eine Einführung für das Lehramts- und Bachelorstudium,,,,Franz Embacher,,2010,Vieweg+Teubner Verlag,,363,0,German ,,,,"3834809209,9783834809209",,,,,,,,,,,0,,,,1,0,1,1,2328117,pdf,6bb035c809eedc95c2ac89830592c63c,,,_213584.6bb035c809eedc95c2ac89830592c63c.pdf,0,2000-01-01 01:00:00,2016-04-03 02:51:08,827000/6bb035c809eedc95c2ac89830592c63c-d.jpg,,
5450729,Control Theory of Systems Governed by Partial Differential Equations,,,,"Abdul Kadir Aziz, John Walter Wingate, Mark John Balas",1977,,Academic Press Inc,,287,0,English ,,,,"0120686406,9780120686407",,,,,629.8/312/01515353,QA402.3 .C576 1976,,,OL4907192M,,0,,,,,1,,,3496383,pdf,6b9e0861a1a94f43cc792a3173221347,,,_197195.6b9e0861a1a94f43cc792a3173221347.pdf,0,2000-01-01 01:00:00,2016-04-03 02:51:08,827000/6b9e0861a1a94f43cc792a3173221347-g.jpg,,
5450730,Ultra-Low Energy Domain-Specific Instruction-Set Processors,,,,"Francky Catthoor, Praveen Raghavan, Andy Lambrechts, Murali Jayapala, Angeliki Kritikakou, Javed Absar",2010,1st Edition.,Springer,,421,0,English ,,,,"9048195276,9789048195275",,,,,,,,,OL25249753M,,0,,,,,1,,,6312630,pdf,6b9fe8d62c58b9bd9464e00184a5e92f,,,_196904.6b9fe8d62c58b9bd9464e00184a5e92f.pdf,0,2000-01-01 01:00:00,2016-04-03 02:51:08,827000/6b9fe8d62c58b9bd9464e00184a5e92f-d.jpg,,
5450727,From Reform to Revolution: The Demise of Communism in China and the Soviet Union,,,,Minxin Pei,1998,,Harvard University Press,,264,0,English ,,,,"067432563X,9780674325630,0674325648,9780674325647",,,,,321.9/2/0947,HX418.5 .P43 1994,,,OL1437937M,,0,,,,1,0,1,1,15311244,pdf,6b1b6c6d51ec7b71476689fe94704d2a,,,_72739.6b1b6c6d51ec7b71476689fe94704d2a.pdf,0,2000-01-01 01:00:00,2016-04-03 02:51:08,827000/6b1b6c6d51ec7b71476689fe94704d2a-d.jpg,,
5450728,The Modern Recorder Player - Treble Recorder Volume 1,,,,Walter van Hauwe,1984,,Schott,,66,0,English ,,,,,,,,,,,,,,,0,,,,,1,,1,2272637,djvu,6b48a1a2beb11ae1616683af9f745ec5,,,_294747.6b48a1a2beb11ae1616683af9f745ec5.djvu,0,2000-01-01 01:00:00,2016-04-03 02:51:08,827000/6b48a1a2beb11ae1616683af9f745ec5-g.jpg,,
5450725,"Introduction to Geophysical Fluid Dynamics, Volume 98, Second Edition: Physical and Numerical Aspects (International Geophysics)",,,,"Benoit Cushman-Roisin, Jean-Marie Beckers",2011,2,Academic Press,,875,0,English ,,,,"0120887592,9780120887590",,,,,550.153205,QC809.F5 C87 2011,,,OL25095254M,,0,,,,,1,,,19956215,pdf,6b08ab14698ce94f98e135a57c98c939,,,_35337.6b08ab14698ce94f98e135a57c98c939.pdf,0,2000-01-01 01:00:00,2016-04-03 02:51:08,827000/6b08ab14698ce94f98e135a57c98c939-d.jpg,,
5450726,UML 2 erfolgreich einsetzen: Einführung und Referenz,,,,Harald Störrle,2005,,Addison-Wesley Verlag,,377,0,German ,,,,"3827322685,9783827322685,3827325838,9783827325839",,,,,,,,,,,0,,,,,0,,1,8586318,pdf,6b161cf3564f110b0fb3c34fe96e22ad,,,_250547.6b161cf3564f110b0fb3c34fe96e22ad.pdf,0,2000-01-01 01:00:00,2016-04-03 02:51:08,827000/6b161cf3564f110b0fb3c34fe96e22ad-d.jpg,,
5450724,Recherches sur la déduction logique,,,,"Gentzen, G.  Traduction et commentaires par R. Feys et J. Ladrière",,,,,181,0,French ,,,,,,B000YQOIQ2,,,,,,,,,0,,,,,1,,,1980624,djvu,6ad01b94a4949d226c738258b27c23e2,,,_37386.6ad01b94a4949d226c738258b27c23e2.djvu,0,2000-01-01 01:00:00,2016-04-03 02:51:08,827000/6ad01b94a4949d226c738258b27c23e2-g.jpg,,
5450722,,,,Scientific American Magazine March 2004 volume 290 issue 3,Scientific American,2004,,Scientific American,,84,0,English ,,,,,,,,,,,,,,,0,,,,,1,,,2550582,pdf,6aa76fcb7887db70617067a3b56391cf,,,_337197.6aa76fcb7887db70617067a3b56391cf.pdf,0,2000-01-01 01:00:00,2016-04-03 02:51:08,827000/6aa76fcb7887db70617067a3b56391cf-g.jpg,,
5450723,Referential-Semantic Analysis: Aspects of a Theory of Linguistic Reference (Cambridge Studies in Linguistics (No. 28)),,Cambridge Studies in Linguistics (No. 28) ,,Torben Thrane,2009,,Cambridge University Press,,269,0,English ,,,,"9780511753145,9780521227919,9780521105712",,,,,,,10.1017/CBO9780511753145,Z7dzPwAACAAJ,,,0,,,,1,1,1,1,2661114,pdf,6aaf832f747ef8ab0f0a04f41be42639,,,_406447.6aaf832f747ef8ab0f0a04f41be42639.pdf,0,2000-01-01 01:00:00,2016-04-03 02:51:08,827000/6aaf832f747ef8ab0f0a04f41be42639-d.jpg,,
5450721,The Basics of Physics (Basics of the Hard Sciences),,,,Richard L. Myers,2005,,Greenwood,,384,0,English ,,,,"0313328579,9780313328572,9780313060397",,,,,530,QC21.3 .M94 2005,,,OL3414622M,,0,,,,,1,,,57083790,pdf,6aa2ea5a37b0e4dfb9c628be5ade6981,,,_206510.6aa2ea5a37b0e4dfb9c628be5ade6981.pdf,0,2000-01-01 01:00:00,2016-04-03 02:51:08,827000/6aa2ea5a37b0e4dfb9c628be5ade6981-d.jpg,,
5450719,"Handbook of Automation, Computation, and Control. Volume 3: Systems and Components",,,,"Eugene M., et al., eds. Grabbe",,,,,1213,0,English ,,,,0471320765,,,,,,,,,,,0,,,,,1,,,51147457,pdf,6a832805405f71f4eb8b2a6593bd3b8a,,,_291685.6a832805405f71f4eb8b2a6593bd3b8a.pdf,0,2000-01-01 01:00:00,2016-04-03 02:51:08,827000/6a832805405f71f4eb8b2a6593bd3b8a-g.jpg,,
5450720,Physics and Geometry of Disorder: Percolation Theory (Science for Everyone),,,,A. L. Efros,1987,,Imported Pubn,,135,0,English ,,,,"0828532915,9780828532914",,,,,,,,,OL8171808M,page 82 cut at the bottom and some words are missing.,0,,,,,1,,,14413775,pdf,6a92684718f85345c78340173ec81ba2,,,_196936.6a92684718f85345c78340173ec81ba2.pdf,0,2000-01-01 01:00:00,2016-04-03 02:51:08,827000/6a92684718f85345c78340173ec81ba2-g.jpg,,
5450717,The Meaning And Explanation Of The Glorious Qur'an (Vol 1),,,,Muhammad Saed Abdul-Rahman,2007,,MSA Publication LImited,,664,0,English ,,,,"1861794703,9781861794703",,,,,,,,,,,0,,,,,0,,1,7312422,pdf,6a5a2fc8274eb45ae2a1929b039d64a0,,,_326313.6a5a2fc8274eb45ae2a1929b039d64a0.pdf,0,2000-01-01 01:00:00,2016-04-03 02:51:08,827000/6a5a2fc8274eb45ae2a1929b039d64a0-d.jpg,,
5450718,Hegel: A Re-Examination (Modern Revivals in Philosophy),,,,J. N. Findlay,1993,,Gregg Revivals,,372,0,English ,,,,"0751201804,9780751201802,0415295785,9780415295789,0195198794,9780195198799,0391008935,9780391008939",,,,,193,B2948 .F47 1993,,,OL1151970M,,0,,,,,1,,,8563129,djvu,6a758c257b21ee5885d0c2c17b927a85,,,_368457.6a758c257b21ee5885d0c2c17b927a85.djvu,0,2000-01-01 01:00:00,2016-04-03 02:51:08,827000/6a758c257b21ee5885d0c2c17b927a85-g.jpg,,
5450714,"Theoretical Hydrodynamics, 4th Ed.",,,,L.M. Milne-Thomson,,,,,686,0,English ,,,,,,B000SEOGM6,,,,,,,,,0,,,,,1,,,27564847,pdf,6a1bc514efdf042d0e3f0e2d2ebfe9ae,,,_377292.6a1bc514efdf042d0e3f0e2d2ebfe9ae.pdf,0,2000-01-01 01:00:00,2016-04-03 02:51:08,827000/6a1bc514efdf042d0e3f0e2d2ebfe9ae-g.jpg,,
5450715,Professional iPhone and iPad Application Development,,,,Gene Backlin,2010,1,Wrox,,600,0,English ,,,,"0470878193,9780470878194",,,,,,,,,,,0,,,,,1,,,13573720,pdf,6a4f56095a357203cdb9bdcbda72ed42,,,_216209.6a4f56095a357203cdb9bdcbda72ed42.pdf,0,2000-01-01 01:00:00,2016-04-03 02:51:08,827000/6a4f56095a357203cdb9bdcbda72ed42-d.jpg,,
5450716,The Birds of Cambridgeshire,,,,P. M. M. Bircham,2009,annotated edition,Cambridge University Press,,293,0,English ,,,,"9780511753268,9780521328630,9780521111720",,,,,,,10.1017/CBO9780511753268,jRB6PwAACAAJ,,,0,,,,1,1,1,1,3426734,pdf,6a55bbefaeff3b3684660da0987c1d5f,,,_406454.6a55bbefaeff3b3684660da0987c1d5f.pdf,0,2000-01-01 01:00:00,2016-04-03 02:51:08,827000/6a55bbefaeff3b3684660da0987c1d5f-d.gif,,
5450712,Bounds for optimization of the reflection coefficient by constrained optimization in Hardy spaces,,,,Arne Schneck,2009,,KIT Scientific Publishing,,152,0,English ,,,,"386644382X,9783866443822",,,,,,,,,,,0,,,,0,0,0,1,4439943,pdf,6a07727c3d2bce2279af8d211d319fab,,,_252792.6a07727c3d2bce2279af8d211d319fab.pdf,0,2000-01-01 01:00:00,2016-04-03 02:51:08,827000/6a07727c3d2bce2279af8d211d319fab-d.jpg,,
5450713,Catalan's Conjecture (Universitext),,,,René Schoof,2008,1st Edition.,Springer,,135,0,English ,,,,"1848001843,9781848001848",,,,,512.72,QA241 .S315 2008,,,OL23391730M,,0,,,,1,0,1,1,1054062,pdf,6a08c08e8c8803519c82f81fba232d30,,,_176476.6a08c08e8c8803519c82f81fba232d30.pdf,0,2000-01-01 01:00:00,2016-04-03 02:51:08,827000/6a08c08e8c8803519c82f81fba232d30-d.jpg,,
5450710,Lectures on modular correspondences,,,,M Eichler,,,,,174,0,English ,,,,,,B0007JHP4I,,,,,,,,,0,,,,,1,,,19523142,pdf,5ff7d942c94a1b9ba832308dead7bec9,,,_36289.5ff7d942c94a1b9ba832308dead7bec9.pdf,0,2000-01-01 01:00:00,2016-04-03 02:51:08,827000/5ff7d942c94a1b9ba832308dead7bec9-g.jpg,,
5450711,Practical OCaml,,,,Joshua B. Smith,2006,1,Apress,,488,0,English ,,,,"9781590596203,159059620X",,,,,,,,,OL8848851M,,0,,,,,1,,,3139569,pdf,6a0319764fa326cae2c088c74742f21b,,,_118897.6a0319764fa326cae2c088c74742f21b.pdf,0,2000-01-01 01:00:00,2016-04-03 02:51:08,827000/6a0319764fa326cae2c088c74742f21b-d.jpg,,
5450709,On the Genesis of Species (Cambridge Library Collection - Life Sciences),,Cambridge Library Collection - Life Sciences ,,St George Jackson Mivart,2009,Reissue,Cambridge University Press,,317,0,English ,,,,"9780511695094,9781108005524",,,,,,,10.1017/CBO9780511695094,Vp3gQAAACAAJ,,,0,,,,1,1,1,1,7223695,pdf,5fd015d3d255893decbce6cb76832c23,,,_397543.5fd015d3d255893decbce6cb76832c23.pdf,0,2000-01-01 01:00:00,2016-04-03 02:51:08,827000/5fd015d3d255893decbce6cb76832c23-d.jpg,,
5450707,"Teen Girls and Technology: What's the Problem, What's the Solution?",,,,Lesley Farmer,2008,,Teachers College Press,,192,0,English ,,,,"0807748757,9780807748756,0807748765,9780807748763",,,,,004.0835/2,HQ798 .F37 2008,,,OL16905714M,,0,,,,,1,,,1419380,pdf,5f8d508d4265bec6d3b313698f8097dd,,,_207714.5f8d508d4265bec6d3b313698f8097dd.pdf,0,2000-01-01 01:00:00,2016-04-03 02:51:08,827000/5f8d508d4265bec6d3b313698f8097dd-d.jpg,,
5450708,"The Math Book: From Pythagoras to the 57th Dimension, 250 Milestones in the History of Mathematics",,,,Clifford A. Pickover,2009,1,Sterling,,534,0,English ,,,,"1402757964,9781402757969",,,,,510.9,QA21 .P53 2009,,JrslMKTgSZwC,OL22652981M,,0,,,,,1,0,,12096766,djvu,5fc9b5dd8488b8a68de0d41c5cda01d4,,,_255491.5fc9b5dd8488b8a68de0d41c5cda01d4.djvu,0,2000-01-01 01:00:00,2016-04-03 02:51:08,827000/5fc9b5dd8488b8a68de0d41c5cda01d4-d.jpg,,
5450705,Elementary Go Series - 38 Basic Joseki Vol. 2,,,,"Kosugi Kiyoshi, James Davies",1998,6,Kiseido Publishing Company,,246,0,English ,,,,"4906574114,9784906574117",,,,,794.2,GV1460 .K68 1997,,,OL20023971M,,0,,,,,1,,,1936264,djvu,5f876f3d25596004780194dbd64ab508,,,_386367.5f876f3d25596004780194dbd64ab508.djvu,0,2000-01-01 01:00:00,2016-04-03 02:51:08,827000/5f876f3d25596004780194dbd64ab508-d.jpg,,
5450706,J.S. Bach's Great Eighteen Organ Chorales,,,,Russell Stinson,2001,,"Oxford University Press, USA",,192,0,English ,,,,"0195116666,9780195116663,9781423735892",,,,,,,,,OL7388309M,,0,,,,,1,1,,13102494,pdf,5f8c634c3d271d7b7299468dff4db05a,,,_71651.5f8c634c3d271d7b7299468dff4db05a.pdf,0,2000-01-01 01:00:00,2016-04-03 02:51:08,827000/5f8c634c3d271d7b7299468dff4db05a-d.jpg,,
5450703,Introduction to Finite Element Vibration Analysis,,,,Maurice Petyt,1990,,Cambridge University Press,,257,0,English ,,,,"0521266076,9780521266079",,,,,624.1/76,TA356 .P47 1990,,,OL2056039M,,0,,,,,1,,,3796647,pdf,5f5f153098968ad86fac11b152035592,,,_452638.5f5f153098968ad86fac11b152035592.pdf,0,2000-01-01 01:00:00,2016-04-03 02:51:08,827000/5f5f153098968ad86fac11b152035592-d.gif,,
5450704,Optimization by variational methods,,,,Morton M Denn,1969,,McGraw-Hill,,431,0,English ,,,,"0882755951,9780882755953",,B0000EG5SC,,,515/.64,QA402.5 .D4 1978,,,OL4555005M,copyright page,0,,,,1,1,1,1,8258613,pdf,5f69cc1e9b1ced2f852be6a10959c041,,,_197334.5f69cc1e9b1ced2f852be6a10959c041.pdf,0,2000-01-01 01:00:00,2016-04-03 02:51:08,827000/5f69cc1e9b1ced2f852be6a10959c041-g.jpg,,
5450701,"Think Confident, Be Confident: A Four-Step Program to Eliminate Doubt and Achieve Lifelong Self-Esteem",,,,"Leslie Sokol, Marci Fox",2009,Original,Perigee,,240,0,English ,,,,"0399535292,9780399535291",,,,,158.1,BF697.5.S428 .S65 2009,,,OL23212686M,,0,,,,,1,,,2164778,pdf,5f2e39ecc5492eb5d780f5d7e2cbcfaa,,,_204453.5f2e39ecc5492eb5d780f5d7e2cbcfaa.pdf,0,2000-01-01 01:00:00,2016-04-03 02:51:08,827000/5f2e39ecc5492eb5d780f5d7e2cbcfaa-d.jpg,,
5450702,"Literary Trauma: Sadism, Memory, and Sexual Violence in American Women's Fiction (Suny Series in Psychoanalysis and Culture)",,Suny Series in Psychoanalysis and Culture ,,Deborah M. Horvitz,2000,,State University of New York Press,,169,0,English ,,,,"0791447111,9780791447116,9780585426440",,,,,813.009/353,PS374.W6 H68 2000,,,OL60240M,,0,,,,,1,,,1321417,pdf,5f48a93427284fa4ed9c221387dcbca6,,,_343893.5f48a93427284fa4ed9c221387dcbca6.pdf,0,2000-01-01 01:00:00,2016-04-03 02:51:08,827000/5f48a93427284fa4ed9c221387dcbca6-d.jpg,,
5450699,Physics of the Aurora and Airglow,,,,Joseph W. Chamberlain,1961,,Academic Press,,704,0,English ,,,,"012167150X,9780121671501",,,,,,,,,,,0,,,,,1,,,33578872,pdf,5ec0b64077f2069cec4c5c6368e23778,,,_217518.5ec0b64077f2069cec4c5c6368e23778.pdf,0,2000-01-01 01:00:00,2016-04-03 02:51:08,827000/5ec0b64077f2069cec4c5c6368e23778-g.jpg,,
5450700,Méthodes des moindres carrés : éléments de la théorie du traitement statistique des observations,,,,Iourii Vladimirovitch Linnik,1963,,Dunod,,364,0,French ,,,,,,"B0014UFRTO,B0017T2UUG",,,,,,,,,600,,,,,1,,1,5811712,djvu,5f05fc6affe1990c19387171037ff9a2,,,_182923.5f05fc6affe1990c19387171037ff9a2.djvu,0,2000-01-01 01:00:00,2016-04-03 02:51:08,827000/5f05fc6affe1990c19387171037ff9a2-g.jpg,,
5450698,"Strömungslehre: Einführung in die Theorie der Strömungen, 6.Auflage",,,,"Joseph  H. Spurk, Nuri Aksel",2005,"6., erw. Aufl.",Springer,,573,0,German ,,,,"9783540262930,3540262938",,,,,,,,,OL9500311M,,0,,,,,1,,,31778858,pdf,5eb15c6c0a640b52829e9efb5c164d18,,,_389456.5eb15c6c0a640b52829e9efb5c164d18.pdf,0,2000-01-01 01:00:00,2016-04-03 02:51:08,827000/5eb15c6c0a640b52829e9efb5c164d18-d.jpg,,
5450696,Playstation 2 Repair Guide,,,,Mark Eastman,,,Powerful Guides,,48,0,English ,,,,,,,,,,,,,,,0,,,,1,0,0,1,1216765,pdf,5e9121585b61bc8bd4d740b799500fc7,,,_425243.5e9121585b61bc8bd4d740b799500fc7.pdf,0,2000-01-01 01:00:00,2016-04-03 02:51:08,827000/5e9121585b61bc8bd4d740b799500fc7-g.jpg,,
5450697,"Le temps du discrédit - Crise des créances, crise des croyances",,,,Alain Simon,,,,,123,0,French ,,,,"9782212860047,2212860048",,,,,,,,,,,0,,,,,1,,,482296,pdf,5eabc06f8087aeceffcee2f34012795b,,,_185297.5eabc06f8087aeceffcee2f34012795b.pdf,0,2000-01-01 01:00:00,2016-04-03 02:51:08,827000/5eabc06f8087aeceffcee2f34012795b-g.jpg,,
5450694,Boolean Algebra and Its Applications,,,,J. Eldon Whitesitt,1962,,Addison-Wesley,,193,0,English ,,,,,,B0000CKYIJ,,,,,,,,,600,,,,0,1,0,1,13073307,djvu,5e5ec409e86ead4bb4f58a2ea2d68458,,,_206583.5e5ec409e86ead4bb4f58a2ea2d68458.djvu,0,2000-01-01 01:00:00,2016-04-03 02:51:08,827000/5e5ec409e86ead4bb4f58a2ea2d68458-g.jpg,,
5450695,Atoms in Molecules: A Quantum Theory (International Series of Monographs on Chemistry),,,,Richard F. W. Bader,1994,,"Oxford University Press, USA",,458,0,English ,,,,"0198558651,9780198558651,0198551681,9780198551683",,,,,541.2/8,QD462 .B33 1994,,,OL1434383M,,0,,,,,1,,,42639793,pdf,5e676444b9e3dfb5b4d61e3bbb814a84,,,_217376.5e676444b9e3dfb5b4d61e3bbb814a84.pdf,0,2000-01-01 01:00:00,2016-04-03 02:51:08,827000/5e676444b9e3dfb5b4d61e3bbb814a84-d.jpg,,
5450693,Mathématiques appliquées à la gestion,,,,Jean-Pierre Posière,2005,,Gualino,,296,0,French ,,,,"2842009169,9782842009168",,,,,,,,,,,0,,,,1,0,1,1,3966289,pdf,5e0fb102181e021994e2b9dcffa2e96c,,,_386082.5e0fb102181e021994e2b9dcffa2e96c.pdf,0,2000-01-01 01:00:00,2016-04-03 02:51:08,827000/5e0fb102181e021994e2b9dcffa2e96c-d.jpg,,
5450692,"Model Theory with Applications to Algebra and Analysis, Volume 2 (London Mathematical Society Lecture Note Series (No. 350))",,London Mathematical Society Lecture Note Series (No. 350) volume 2,,"Zo&eacute; Chatzidakis (editor), Dugald Macpherson (editor), Anand Pillay (editor), Alex Wilkie (editor)",2008,1,Cambridge University Press,,444,0,English ,,,,"9780511735219,9780521709088",,,,,,,10.1017/CBO9780511735219,bS_QSAAACAAJ,,,0,,,,1,0,1,1,3724077,pdf,5e0825ea01c6dbf3ddb62bac6df177b2,,,_405971.5e0825ea01c6dbf3ddb62bac6df177b2.pdf,0,2000-01-01 01:00:00,2016-04-03 02:51:08,827000/5e0825ea01c6dbf3ddb62bac6df177b2-d.jpg,,
5450690,Parametric Variation: Null Subjects in Minimalist Theory,,,,"Theresa Biberauer, Anders Holmberg, Ian Roberts, Michelle Sheehan",2010,1,Cambridge University Press,,374,0,English ,,,,"0521886953,9780521886956,9780511770111",,,,,415,P299.N85 P37 2009,,,OL23697311M,,0,,,,,1,,,3172686,pdf,5e0262d929118a2f53750ead69248fe9,,,_182775.5e0262d929118a2f53750ead69248fe9.pdf,0,2000-01-01 01:00:00,2016-04-03 02:51:08,827000/5e0262d929118a2f53750ead69248fe9-d.jpg,,
5450691,Apple I Replica Creation: Back to the Garage,,,,Tom Owad,2005,1,Syngress,,369,0,English ,,,,"9781931836401,193183640X",,,,,,,,,OL8805353M,,0,,,,0,0,0,0,76313778,pdf,5e0562e90438a8c6b0423e893de14498,,,_10135.5e0562e90438a8c6b0423e893de14498.pdf,0,2000-01-01 01:00:00,2016-04-03 02:51:08,827000/5e0562e90438a8c6b0423e893de14498-d.jpg,,
5450688,"Some Applications of Topological K-Theory (North-Holland Mathematics Studies, 45)",,North-Holland Mathematics Studies ,,N. Mahammed,1980,,North Holland,,329,0,English ,,,,"0444861130,9780444861139,9780080871561",,,,,"510 s,514/.23","QA1 .N86 no. 74,QA612.33 .N86 no. 74",,,OL4108382M,,0,,,,0,0,0,1,11825496,pdf,5de7d1a8bb643f829ff1bc0033c6c18c,,,_34918.5de7d1a8bb643f829ff1bc0033c6c18c.pdf,0,2000-01-01 01:00:00,2016-04-03 02:51:08,827000/5de7d1a8bb643f829ff1bc0033c6c18c-d.jpg,,
5450689,Creating a Climate for Change: Communicating Climate Change and Facilitating Social Change,,,,"Susanne C. Moser, Lisa Dilling",2007,,Cambridge University Press,,577,0,English ,,,,"0521869234,051127775X,9780521869232,9780511277757",,,,,,,,eypII4Hatg4C,OL17215541M,,0,,,,1,0,1,1,4786542,pdf,5e00bdbd142477c4c0eae99fdece26db,,,_400645.5e00bdbd142477c4c0eae99fdece26db.pdf,0,2000-01-01 01:00:00,2016-04-03 02:51:08,827000/5e00bdbd142477c4c0eae99fdece26db-d.jpg,,
5450686,Atomic Many-Body Theory (Springer Series in Chemical Physics),,,,"I. Lindgren, J. Morrison",1982,1,Springer,,483,0,English ,,,,"3540105042,9783540105046",,,,,,,,,,,600,,,,,1,0,1,14792607,djvu,5d9e3ba8c816f63ee6c1b606c68dff8a,,,_207399.5d9e3ba8c816f63ee6c1b606c68dff8a.djvu,0,2000-01-01 01:00:00,2016-04-03 02:51:08,827000/5d9e3ba8c816f63ee6c1b606c68dff8a-g.jpg,,
5450687,The Basis of Music,,,,"Horwood, Frederick J.",1996,,Alfred Publishing,,82,0,English ,,,,"0757912931,9780757912931",,,,,,,,,,,0,,,,0,1,0,0,7989390,pdf,5dcffec5a851e18b06df693e67d7d1c5,,,_100763.5dcffec5a851e18b06df693e67d7d1c5.pdf,0,2000-01-01 01:00:00,2016-04-03 02:51:08,827000/5dcffec5a851e18b06df693e67d7d1c5-d.jpg,,
5450684,"Scientific Computing With Automatic Result Verification (Mathematics in Science and Engineering,189)",,Mathematics in Science and Engineering volume 189,,"Ernst Adams, U. Kulisch",1992,,Academic Press,,416,0,English ,,,,"9780120442102,0120442108",,,,,519.4/0285,QA76 .S368 1993,,,OL1355285M,,0,,,,,1,,,8289612,pdf,5d73188913b836db5ae0a8ea98e959cc,,,_37070.5d73188913b836db5ae0a8ea98e959cc.pdf,0,2000-01-01 01:00:00,2016-04-03 02:51:08,827000/5d73188913b836db5ae0a8ea98e959cc-d.jpg,,
5450685,Motor Learning and Synaptic Plasticity in the Cerebellum,,,,"Paul J. Cordo (editor), Curtis Calvin Bell (editor), Stevan R. Harnad (editor)",1997,1,Cambridge University Press,,207,0,English ,,,,"9780511666896,9780521592864,9780521597050",,,,,,,10.1017/CBO9780511666896,UNt_UK3_ek4C,,,0,,,,1,1,1,1,19831395,pdf,5d927b883a0f8c30a58f8cff4b9008c9,,,_403311.5d927b883a0f8c30a58f8cff4b9008c9.pdf,0,2000-01-01 01:00:00,2016-04-03 02:51:08,827000/5d927b883a0f8c30a58f8cff4b9008c9-d.gif,,
5450683,Towards a New Paradigm in Monetary Economics (Raffaele Mattioli Lectures),,,,"Joseph Stiglitz, Bruce Greenwald",2003,,Cambridge University Press,,344,0,English ,,,,"0521810345,9780521810340",,,,,332.4,HG226.3 .S85 2003,,,OL3326191M,,0,,,,,1,,,1123897,pdf,5d5fb557a0b1ab4f511123af8a797862,,,_386915.5d5fb557a0b1ab4f511123af8a797862.pdf,0,2000-01-01 01:00:00,2016-04-03 02:51:08,827000/5d5fb557a0b1ab4f511123af8a797862-d.jpg,,
5450681,ABC du travailleur,,,,Edmond About,,,,,240,0,French ,,,,,,B003WR8JMY,,,,,,,,,0,,,,,1,,,771037,pdf,5d41bed19b73ee571150fe2c401d6288,,,_211889.5d41bed19b73ee571150fe2c401d6288.pdf,0,2000-01-01 01:00:00,2016-04-03 02:51:08,827000/5d41bed19b73ee571150fe2c401d6288-g.jpg,,
5450682,Introduction to Game AI,,,,Neil Kirby,2010,1,Course Technology PTR,,385,0,English ,,,,"1598639986,9781598639988,1435455975,9781435455979",,,,,794.8/1536,QA76.76.C672 K57 2011,,,OL25160979M,,0,,,,,1,,,3960512,pdf,5d587d4e15009344366315297dedb5d0,,,_197409.5d587d4e15009344366315297dedb5d0.pdf,0,2000-01-01 01:00:00,2016-04-03 02:51:08,827000/5d587d4e15009344366315297dedb5d0-d.jpg,,
5450679,The Phraseology of Administrative French: A Corpus-based Study,,Language & Computers: Studies in Practical Linguistics volume 57,,Wendy J. Anderson,2006,,Editions Rodopi BV,,302,0,English ,,,,"9042020229,9789042020221",,,,,,,,,OL22737283M,,0,,,,1,0,1,1,1163404,pdf,5d257abb9f6e04c012a04db4df23603c,,,_344945.5d257abb9f6e04c012a04db4df23603c.pdf,0,2000-01-01 01:00:00,2016-04-03 02:51:08,827000/5d257abb9f6e04c012a04db4df23603c-d.jpg,,
5450680,Exposition du système du monde: Volume 1 (Cambridge Library Collection - Mathematics),,,,Marquis Pierre-Simon de Laplace,2009,2,Cambridge University Press,,364,0,French ,,,,"1108002099,9781108002097",,,,,,,,,,,0,,,,1,1,0,1,8124158,pdf,5d373168830212042f5f9c92baf28b68,,,_419081.5d373168830212042f5f9c92baf28b68.pdf,0,2000-01-01 01:00:00,2016-04-03 02:51:08,827000/5d373168830212042f5f9c92baf28b68-d.jpg,,
5450678,Time And Thermodynamics (Physics in Our World),,,,Kyle Kirkland,2007,1,Facts on File,,148,0,English ,,,,"0816061130,9780816061136,9781438109312",,,,,,,,,OL11360220M,,0,,,,,1,,,6561888,pdf,5d18a6b47e7c9eefa279f036ede534d2,,,_348514.5d18a6b47e7c9eefa279f036ede534d2.pdf,0,2000-01-01 01:00:00,2016-04-03 02:51:08,827000/5d18a6b47e7c9eefa279f036ede534d2-d.jpg,,
5450676,Hibernate Recipes: A Problem-Solution Approach (Recipe Series),,,,"Gary Mak, Srinivas Guruzu",2010,1,Apress,,312,0,English ,,,,"1430227966,9781430227960",,,,,006.78,QA76.64 .G88 2010,,,OL25043311M,,0,,,,,1,,,3112954,pdf,5cf76fa8b817aedde880e86afd692285,,,_177439.5cf76fa8b817aedde880e86afd692285.pdf,0,2000-01-01 01:00:00,2016-04-03 02:51:08,827000/5cf76fa8b817aedde880e86afd692285-d.jpg,,
5450677,Open Economies: Structural Adjustment and Agriculture,,,,"Ian Goldin (editor), L. Alan Winters (editor)",1992,,Cambridge University Press,,341,0,English ,,,,9780521420563,,,,,,,,_Xl5XP52UUkC,OL7740158M,,0,,,,1,1,1,1,3878051,pdf,5d0dd013fdd9d5bf99ec2ab334520728,,,_396935.5d0dd013fdd9d5bf99ec2ab334520728.pdf,0,2000-01-01 01:00:00,2016-04-03 02:51:08,827000/5d0dd013fdd9d5bf99ec2ab334520728-d.jpg,,
5450674,Composers at Work: The Craft of Musical Composition 1450-1600,,,,Jessie Ann Owens,1998,,"Oxford University Press, USA",,368,0,English ,,,,"0195129040,9780195129045,9781423760344",,,,,,,,,OL7388811M,,0,,,,,1,1,1,30311554,pdf,5cd2cbaae93cd539a95e0a9132ff1437,,,_71596.5cd2cbaae93cd539a95e0a9132ff1437.pdf,0,2000-01-01 01:00:00,2016-04-03 02:51:08,827000/5cd2cbaae93cd539a95e0a9132ff1437-d.jpg,,
5450675,Apple Confidential 2.0: The Definitive History of the World's Most Colorful Company,,,,"Owen Linzmayer, Owen W. Linzmayer",2004,2nd,No Starch Press,,323,0,English ,,,,"1593270100,9781593270100",,,,,,,,,OL8871392M,,0,,,,,1,,,6797660,pdf,5ce4610a85447891d7d9a7423faf187d,,,_51965.5ce4610a85447891d7d9a7423faf187d.pdf,0,2000-01-01 01:00:00,2016-04-03 02:51:08,827000/5ce4610a85447891d7d9a7423faf187d-d.jpg,,
5450671,Mel Bay presents Tommy Emmanuel - The Mystery Transcriptions,,,,"Tommy Emmanuel, transcribed by Mark Pritcher",2009,Spi,"Mel Bay Publications, Inc.",,136,0,English ,,,,"0786681691,9780786681693",,,,,,,,,,,0,,,,0,1,1,0,37169648,pdf,5cbba53f5bed74159fb33cbce8482540,,,_531709.5cbba53f5bed74159fb33cbce8482540.pdf,0,2000-01-01 01:00:00,2016-04-03 02:51:08,827000/5cbba53f5bed74159fb33cbce8482540-d.jpg,,
5450672,Design for Six Sigma: Konzeption und Operationalisierung von alternativen Problemlösungszyklen auf Basis evolutionärer Algorithmen,,,,Swen Günther,2010,2010,Gabler Verlag,,403,0,German ,,,,"3834925071,9783834925077",,,,,,,,,,,0,,,,,1,,,5720985,pdf,5cbd4d7e5fae6269f8f2dbdf493a2ac1,,,_169573.5cbd4d7e5fae6269f8f2dbdf493a2ac1.pdf,0,2000-01-01 01:00:00,2016-04-03 02:51:08,827000/5cbd4d7e5fae6269f8f2dbdf493a2ac1-d.jpg,,
5450673,Why So Slow? The Advancement of Women,,,,Virginia Valian,1999,,The MIT Press,,413,0,English ,,,,"0262720310,9780262720311",,,,,,,,,OL9901630M,,0,,,,,1,,1,2717175,djvu,5cc0e96b95dc5b80e6b551b83fb858c5,,,_279536.5cc0e96b95dc5b80e6b551b83fb858c5.djvu,0,2000-01-01 01:00:00,2016-04-03 02:51:08,827000/5cc0e96b95dc5b80e6b551b83fb858c5-d.jpg,,
5450669,"Plant Canopies: Their Growth, Form and Function (Society for Experimental Biology Seminar Series (No. 31))",,Society for Experimental Biology Seminar Series (No. 31) ,,"Graham Russell (editor), Bruce Marshall (editor), Paul G. Jarvis (editor)",1990,1,Cambridge University Press,,189,0,English ,,,,"9780511752308,9780521328388,9780521395632",,,,,,,10.1017/CBO9780511752308,qDSEjj91qNkC,OL7736988M,,0,,,,1,1,1,1,3617231,pdf,5c7ddf37ecc0b0544db2cb117929e008,,,_406423.5c7ddf37ecc0b0544db2cb117929e008.pdf,0,2000-01-01 01:00:00,2016-04-03 02:51:08,827000/5c7ddf37ecc0b0544db2cb117929e008-g.jpg,,
5450670,"Elementary course in Lagrange's equations and their applications to solutions of problems of dynamics,: With numerous examples,",,,,N. W Akimoff,,,,,202,0,English ,,,,,,B0006AHOCG,,,,,,,,,0,,,,,1,,,2800885,djvu,5c8bf0e94e9aa4227cb54338a64a4e95,,,_35175.5c8bf0e94e9aa4227cb54338a64a4e95.djvu,0,2000-01-01 01:00:00,2016-04-03 02:51:08,827000/5c8bf0e94e9aa4227cb54338a64a4e95-g.jpg,,
5450667,Six Therapists and One Client: 2nd Edition,,,,"Frank Dumont EdD, Raymond J. Corsini PhD",2000,2,Springer Publishing Company,,352,0,English ,,,,"0826113192,9780826113191,0826102646,9780826102645,9780826116734",,,,,616.8914,,,,OL16975583M,,0,,,,,1,,,21487670,pdf,5c5218b6aabafb1b22d6cf3d3e85aac5,,,_381579.5c5218b6aabafb1b22d6cf3d3e85aac5.pdf,0,2000-01-01 01:00:00,2016-04-03 02:51:08,827000/5c5218b6aabafb1b22d6cf3d3e85aac5-d.jpg,,
5450668,Political Order and the Law of Labour,,,,"Geoffrey Kay, James Mott",1982,,Palgrave Macmillan,,184,0,English ,,,,"0333271548,9780333271544",,,,,,,,,OL9742165M,,0,,,,,1,,,17190220,pdf,5c64910ea105ea4dc5d75806b23b7a75,,,_254842.5c64910ea105ea4dc5d75806b23b7a75.pdf,0,2000-01-01 01:00:00,2016-04-03 02:51:08,827000/5c64910ea105ea4dc5d75806b23b7a75-g.jpg,,
5450665,"Networks, Crowds, and Markets: Reasoning About a Highly Connected World",,,,"David Easley, Jon Kleinberg",2010,,Cambridge University Press,,744,0,English ,,,,"0511776756,9780521195331,9780511776755,0521195330",,,,,303.48/33,HM851 .E24 2010,,,OL23994259M,,0,,,,,1,,,8415905,pdf,5c118345ac9798d88cbb4e9c66dcbd8c,,,_207366.5c118345ac9798d88cbb4e9c66dcbd8c.pdf,0,2000-01-01 01:00:00,2016-04-03 02:51:08,827000/5c118345ac9798d88cbb4e9c66dcbd8c-d.jpg,,
5450666,Nutrition and Exercise Concerns of Middle Age,,,,Judy A. Driskell,2009,1,CRC Press,,516,0,English ,,,,"1420066013,9781420066012,9781420066029",,,,,613.2/0844,TX361.M47 N88 2008,,,OL11816994M,,0,,,,1,1,1,1,3001237,pdf,5c26d43988aa836bb42172cd8231e6bd,,,_201808.5c26d43988aa836bb42172cd8231e6bd.pdf,0,2000-01-01 01:00:00,2016-04-03 02:51:08,827000/5c26d43988aa836bb42172cd8231e6bd-d.jpg,,
5450663,Introduction to Ramsey Spaces (AM-174) (Annals of Mathematics Studies),,,,Stevo Todorcevic,2010,,Princeton University Press,,296,0,English ,,,,"0691145423,9780691145426,9780691145419,0691145415",,,,,511/.5,QA166 .T635 2010,,,OL23725074M,,0,,,,1,0,1,1,1842039,pdf,5beb69a7758815bd3b9e91bc7dc438f3,,,_197137.5beb69a7758815bd3b9e91bc7dc438f3.pdf,0,2000-01-01 01:00:00,2016-04-03 02:51:08,827000/5beb69a7758815bd3b9e91bc7dc438f3-d.jpg,,
5450664,Take Control of Media on Your iPad,,,,Jeff Carlson,,,,,123,0,English ,,,,"9781615420537,1615420533",,,,,,,,,,,0,,,,,1,,,5154109,pdf,5c00c0f048eef9bf78265711a1d0dc53,,,_182734.5c00c0f048eef9bf78265711a1d0dc53.pdf,0,2000-01-01 01:00:00,2016-04-03 02:51:08,827000/5c00c0f048eef9bf78265711a1d0dc53-g.jpg,,
5450662,Capital Markets and Financial Intermediation,,,,"Colin Mayer (editor), Xavier Vives (editor)",1995,,Cambridge University Press,,378,0,English ,,,,"9780511752056,9780521443975,9780521558532",,,,,,,10.1017/CBO9780511752056,sOxneZ07yKcC,,,0,,,,1,1,1,1,8717909,pdf,5bc1515148afc1b0fe468f561875a749,,,_397860.5bc1515148afc1b0fe468f561875a749.pdf,0,2000-01-01 01:00:00,2016-04-03 02:51:08,827000/5bc1515148afc1b0fe468f561875a749-d.jpg,,
5450660,Hyperbolic Manifolds And Holomorphic Mappings: An Introduction - Second edition,,,,Shoschichi Kobayashi,2005,2,World Scientific Publishing Company,,161,0,English ,,,,"9812565892,9789812565891",,,,,,,,,OL17559323M,,0,,,,1,1,1,1,3136168,pdf,5b89c6336bec730cad863314b6f3abf4,,,_283557.5b89c6336bec730cad863314b6f3abf4.pdf,0,2000-01-01 01:00:00,2016-04-03 02:51:08,827000/5b89c6336bec730cad863314b6f3abf4-d.jpg,,
5450661,The Development of Kantian Thought,,,,Herman-J. de Vleeschauwer,1962,Reprint,Thomas Nelson and Sons Ltd.,,209,0,English ,,,,"0171371208,9780171371208",,,,,,,,KqGwAAAAIAAJ,,,0,,,,0,1,1,1,27716203,pdf,5b902c4fe06bc23a42a225ca87956aeb,,,_430250.5b902c4fe06bc23a42a225ca87956aeb.pdf,0,2000-01-01 01:00:00,2016-04-03 02:51:08,827000/5b902c4fe06bc23a42a225ca87956aeb-g.jpg,,
5450658,Thermal physics,,,,Heather Bodger.,,,,,246,0,English ,,,,"9789380168425,938016842X",,,,,,,,,,,0,,,,,1,,,1475201,pdf,5b6fc0cce23ef2e48634a3f4d7faaa51,,,_172196.5b6fc0cce23ef2e48634a3f4d7faaa51.pdf,0,2000-01-01 01:00:00,2016-04-03 02:51:08,827000/5b6fc0cce23ef2e48634a3f4d7faaa51-g.jpg,,
5450659,Statistiques d'ordre supérieur pour le traitement du signal,,,,"Jean-Louis Lacoume, Pierre-Olivier Amblard, Pierre Comon",1997,,Masson,,304,0,French ,,,,"2225831181,9782225831188",,,,,,,,,,,0,,,,,1,,1,5730409,pdf,5b7f06ef80abcd66d5cace3ea8a53939,,,_372908.5b7f06ef80abcd66d5cace3ea8a53939.pdf,0,2000-01-01 01:00:00,2016-04-03 02:51:08,827000/5b7f06ef80abcd66d5cace3ea8a53939-g.jpg,,
5450656,"Charles Darwin as Geologist: The Rede Lecture, Given at the Darwin Centennial Commemoration on 24 June 1909 (Cambridge Library Collection - Life Sciences)",,Cambridge Library Collection - Life Sciences ,,Archibald Geikie,2009,Reissue,Cambridge University Press,,100,0,English ,,,,"9780511702228,9781108002578",,,,,,,10.1017/CBO9780511702228,X-CvPwAACAAJ,,,0,,,,1,1,1,1,1316126,pdf,5b40a147ca528a6093ba4d2466556941,,,_397792.5b40a147ca528a6093ba4d2466556941.pdf,0,2000-01-01 01:00:00,2016-04-03 02:51:08,827000/5b40a147ca528a6093ba4d2466556941-d.jpg,,
5450657,Bayesian Adaptive Methods for Clinical Trials (Chapman & Hall CRC Biostatistics Series),,,,"Scott M. Berry, Bradley P. Carlin, J. Jack Lee, Peter Muller",2010,1,CRC Press,,307,0,English ,,,,"1439825483,9781439825488",,,,,615.5072/4,R853.C55 B385 2011,,,OL24523924M,,0,,,,0,0,1,1,2995725,pdf,5b61377e481c3fcbdfe2bc4ddf149335,,,_202143.5b61377e481c3fcbdfe2bc4ddf149335.pdf,0,2000-01-01 01:00:00,2016-04-03 02:51:08,827000/5b61377e481c3fcbdfe2bc4ddf149335-d.jpg,,
5450655,CliffsTestPrep California High School Exit Exam-Math,,,,"Jerry, Ph.D. Bobrow",2004,1,Cliffs Notes,,288,0,English ,,,,"0764559397,9780764559396,9780764584527",,,,,,,,,OL23053017M,,0,,,,,1,,,1743315,pdf,5b298693ffe551c5c2777c9dd031b900,,,_59986.5b298693ffe551c5c2777c9dd031b900.pdf,0,2000-01-01 01:00:00,2016-04-03 02:51:08,827000/5b298693ffe551c5c2777c9dd031b900-d.jpg,,
5450653,"Constrained Deformation of Materials: Devices, Heterogeneous Structures and Thermo-Mechanical Modeling",,,,Y.-L. Shen,2010,1st Edition.,Springer,,292,0,English ,,,,"1441963111,9781441963116",,,,,,,,,,,0,,,,,1,,,9976485,pdf,5b1025d4c1e9ada17ffcc4b0a647109b,,,_199166.5b1025d4c1e9ada17ffcc4b0a647109b.pdf,0,2000-01-01 01:00:00,2016-04-03 02:51:08,827000/5b1025d4c1e9ada17ffcc4b0a647109b-d.jpg,,
5450654,"Combinatorics, Geometry and Probability: A Tribute to Paul Erd&ouml;s",,,,"B&eacute;la Bollob&aacute;s (editor), Andrew Thomason (editor)",2004,,Cambridge University Press,,585,0,English ,,,,"9780511662034,9780521584722,9780521607667",,,,,,,10.1017/CBO9780511662034,XiVhPwAACAAJ,OL7747209M,,0,,,,1,1,1,1,7356721,pdf,5b1227a7fbd5e6db75a3c9e020092204,,,_403105.5b1227a7fbd5e6db75a3c9e020092204.pdf,0,2000-01-01 01:00:00,2016-04-03 02:51:08,827000/5b1227a7fbd5e6db75a3c9e020092204-d.jpg,,
5450652,Report of the International Narcotics Control Board 2005,,,,United Nations,2006,1,United Nations Publications,,124,0,English ,,,,"9211482097,9789211482096,9781423778349",,,,,,,,,OL12895488M,,0,,,,,1,,,10067857,pdf,5b092f77659703c90d722d451cf28b61,,,_174075.5b092f77659703c90d722d451cf28b61.pdf,0,2000-01-01 01:00:00,2016-04-03 02:51:08,827000/5b092f77659703c90d722d451cf28b61-d.jpg,,
5450650,Das Milgram-Experiment. Zur Gehorsamsbereitschaft gegenüber Autorität,,,,"Stanley Milgram, Roland Fleissner",1997,,Rowohlt Tb.,,256,0,German ,,,,"3499174790,9783499174797",,,,,301.15,,,,,,0,,,,,1,,,1474810,pdf,5af7faf004c1f1c64f977c841f6684ba,,,_343868.5af7faf004c1f1c64f977c841f6684ba.pdf,0,2000-01-01 01:00:00,2016-04-03 02:51:08,827000/5af7faf004c1f1c64f977c841f6684ba-d.jpg,,
5450651,"Lectures on Buildings (Perspectives in Mathematics, Vol 7)",,,,Mark Ronan,1989,,Academic Pr,,201,0,English ,,,,"012594750X,9780125947503",,,,,512/.22,QA171 .R635 1989,,,OL2056737M,,0,,,,,1,,,4949203,pdf,5b0313bf1399089ffe96c8bd641771ae,,,_217555.5b0313bf1399089ffe96c8bd641771ae.pdf,0,2000-01-01 01:00:00,2016-04-03 02:51:08,827000/5b0313bf1399089ffe96c8bd641771ae-g.jpg,,
5450649,C'lickme : a netporn studies reader,,,,"ed. by Katrien Jacobs, Marije Janssen, Matteo Pasquinelli.",,,,,306,0,English ,,,,"9789078146032,9078146036",,,,,,,,,,,0,,,,,1,,,1876148,pdf,5ae9d20e21881fcf476cc41360b239e0,,,_41396.5ae9d20e21881fcf476cc41360b239e0.pdf,0,2000-01-01 01:00:00,2016-04-03 02:51:08,827000/5ae9d20e21881fcf476cc41360b239e0-g.jpg,,
5450648,"Multi-objective Management in Freight Logistics: Increasing Capacity, Service Level and Safety with Optimization Algorithms",,,,"Massimiliano Caramia, Paolo Dell'Olmo",2008,2nd Printing.,Springer,,203,0,English ,,,,"1848003811,9781848003811",,,,,388.044015181,HE199.A2 C37 2008,,,OL23553852M,,0,,,,,1,,,2145249,pdf,5ae7b48451622e801ad8b9edbdc9e40e,,,_207598.5ae7b48451622e801ad8b9edbdc9e40e.pdf,0,2000-01-01 01:00:00,2016-04-03 02:51:08,827000/5ae7b48451622e801ad8b9edbdc9e40e-d.jpg,,
5450646,Ranks of Elliptic Curves and Random Matrix Theory (London Mathematical Society Lecture Note Series),,,,"J. B. Conrey, D. W. Farmer, F. Mezzadri, N. C. Snaith",2007,,Cambridge University Press,,368,0,English ,,,,"0521699649,9780521699648",,,,,,,,,OL7752432M,,0,,,,1,0,1,1,7450058,pdf,5acc0954259ad59342d37ed9972a0c90,,,_419070.5acc0954259ad59342d37ed9972a0c90.pdf,0,2000-01-01 01:00:00,2016-04-03 02:51:08,827000/5acc0954259ad59342d37ed9972a0c90-d.jpg,,
5450647,Googled: The End of the World as We Know It,,,,Ken Auletta,2009,First Printing,"Penguin Press HC, The",,400,0,English ,,,,"1101151404,9781101151402,1594202354,9781594202353",,,,,338.7/6102504,HD9696.8.U64 G6623 2008,,,OL23606345M,,0,,,,,1,,,20898143,pdf,5ada5dec0fbc03b61a7ff588247445c1,,,_388716.5ada5dec0fbc03b61a7ff588247445c1.pdf,0,2000-01-01 01:00:00,2016-04-03 02:51:08,827000/5ada5dec0fbc03b61a7ff588247445c1-d.jpg,,
5450644,Semimodular Lattices: Theory and Applications (Encyclopedia of Mathematics and its Applications 73),,Encyclopedia of Mathematics and its Applications volume 73,,Manfred Stern,1999,,Cambridge University Press,,385,0,English ,,,,"0521461057,9780521461054,0521118840,9780521118842",,,,,511.3/3,QA171.5 .S743 1999,,,OL382481M,,0,,,,1,1,1,1,10499233,pdf,5ac160eae3e8bab25f5cc03bcadb144c,,,_196855.5ac160eae3e8bab25f5cc03bcadb144c.pdf,0,2000-01-01 01:00:00,2016-04-03 02:51:08,827000/5ac160eae3e8bab25f5cc03bcadb144c-d.jpg,,
5450645,Transcendental Dynamics and Complex Analysis (London Mathematical Society Lecture Note Series),,,,"Philip J. Rippon, Gwyneth M. Stallard",2008,1,Cambridge University Press,,472,0,English ,,,,"0521683726,9780521683722,9780511735233,0511735235",,,,,515/.9,QA331.7 .T73 2008,,,OL10436352M,,0,,,,,1,,,5592582,pdf,5ac5ed3b5aa26704108a1cd0f18b6ea6,,,_195539.5ac5ed3b5aa26704108a1cd0f18b6ea6.pdf,0,2000-01-01 01:00:00,2016-04-03 02:51:08,827000/5ac5ed3b5aa26704108a1cd0f18b6ea6-d.jpg,,
5450643,Mathematics Is Not a Spectator Sport,,,,George Phillips,2005,1,Springer,,251,0,English ,,,,"0387255281,9780387255286",,,,,,,,,OL7444814M,,0,,,,,1,,1,2217013,pdf,5ab4e0ff89070bc06bca107e4b16577d,,,_366657.5ab4e0ff89070bc06bca107e4b16577d.pdf,0,2000-01-01 01:00:00,2016-04-03 02:51:08,827000/5ab4e0ff89070bc06bca107e4b16577d-d.jpg,,
5450641,PROLOG Programming for Artificial Intelligence (International computer science series),,,,Ivan Bratko,1986,,Addison Wesley,,440,0,English ,,,,"0201142244,9780201142242",,,,,006.3,Q336 .B74 1986,,,OL2708523M,,0,,,,,1,,,33257805,pdf,5aa0756c9946cc1afb0dbb1ff19f2357,,,_17630.5aa0756c9946cc1afb0dbb1ff19f2357.pdf,0,2000-01-01 01:00:00,2016-04-03 02:51:08,827000/5aa0756c9946cc1afb0dbb1ff19f2357-g.jpg,,
5450642,Semiconductors and Semimetals. Volume 11: Solar Cells,,,,Harold J. Hovel,1976,1st,Academic Press,,278,0,English ,,,,"0127521119,9780127521114",,,,,,,,,OL7329441M,,0,,,,,1,,,12959427,pdf,5ab16cc7ca1c09f9358e1c444942c5ec,,,_389122.5ab16cc7ca1c09f9358e1c444942c5ec.pdf,0,2000-01-01 01:00:00,2016-04-03 02:51:08,827000/5ab16cc7ca1c09f9358e1c444942c5ec-g.jpg,,
5450639,Mental Spaces: Aspects of Meaning Construction in Natural Language,,,,Gilles Fauconnier,1994,2,Cambridge University Press,,240,0,English ,,,,"0521449499,9780521449496,0521444993,9780521444996",,,,,401/.43,P325 .F37 1994,,eRFL_367VoUC,OL1083333M,,0,,,,1,1,1,1,5052313,pdf,5a803df5f0129eefddecfa576a038164,,,_417026.5a803df5f0129eefddecfa576a038164.pdf,0,2000-01-01 01:00:00,2016-04-03 02:51:08,827000/5a803df5f0129eefddecfa576a038164-d.jpg,,
5450640,"Short-Wavelength Diffraction Theory: Asymptotic Methods (Springer Series on Wave Phenomena, Vol 4)",,,,V. M. Babic V. S. Buldyrev,1991,,Springer-Verlag,,445,0,English ,,,,"0387191895,9780387191898",,,,,539.7/222,QC482.D5 B3313 1990,,,OL2192556M,,0,,,,,1,,,3634263,djvu,5a99273b2ac8c10910a7aba549540a5e,,,_14176.5a99273b2ac8c10910a7aba549540a5e.djvu,0,2000-01-01 01:00:00,2016-04-03 02:51:08,827000/5a99273b2ac8c10910a7aba549540a5e-g.jpg,,
5450638,Surveys in Geometry and Number Theory: Reports on Contemporary Russian Mathematics (London Mathematical Society Lecture Note Series 338),,,,Nicholas Young,2007,1,Cambridge University Press,,326,0,English ,,,,"9780521691826,0521691826",,,,,,,,,OL7752200M,,0,,,,,1,,,2154662,pdf,5a4f845a77e4db3c738ee24687bfdd66,,,_196911.5a4f845a77e4db3c738ee24687bfdd66.pdf,0,2000-01-01 01:00:00,2016-04-03 02:51:08,827000/5a4f845a77e4db3c738ee24687bfdd66-d.jpg,,
5450635,Programming 8-bit PIC Microcontrollers in C: with Interactive Hardware Simulation,,,,Martin P. Bates,2008,1,Newnes,,304,0,English ,,,,"0750689609,9780750689601,9780080560144",,,,,005.13/3,TJ223.P76 B3793 2008,,,OL16911662M,,0,,,,,1,,,3989547,pdf,5a08ba06effab307bda03c58a9532f41,,,_207502.5a08ba06effab307bda03c58a9532f41.pdf,0,2000-01-01 01:00:00,2016-04-03 02:51:08,827000/5a08ba06effab307bda03c58a9532f41-d.jpg,,
5450636,Hard to be a God,,,,"Arkadi Strugatski, Boris Strugatski",1975,,Methuen Publishing Ltd,,224,0,English ,,,,"0413452603,9780413452603,0816491216,9780816491216",,,,,891.7/3/44,"PZ4.S919 Har3,PG3488.T73 Har3",,,OL4930699M,,0,,,,,1,,,496065,pdf,5a170a8330f0a1650435de437c63986b,,,_217396.5a170a8330f0a1650435de437c63986b.pdf,0,2000-01-01 01:00:00,2016-04-03 02:51:08,827000/5a170a8330f0a1650435de437c63986b-d.jpg,,
5450637,Deceptions of World War II,,,,William B. Breuer,2002,1,Wiley,,256,0,English ,,,,"0471095907,9780471095903,9780471207474",,,,,940.54/85,D744 .B687 2001,,,OL24267255M,,0,,,,,1,1,1,2335120,pdf,5a4cd0e55a4d6bd11d117444f4d813cf,,,_207536.5a4cd0e55a4d6bd11d117444f4d813cf.pdf,0,2000-01-01 01:00:00,2016-04-03 02:51:08,827000/5a4cd0e55a4d6bd11d117444f4d813cf-d.jpg,,
5450634,"Introductory Econometrics: A Modern Approach, 3rd Edition",,,,Jeffrey M. Wooldridge,2005,3,South-Western College Pub,,878,0,English ,,,,"0324289782,9780324289787",,,,,330.01/5195,HB139 .W665 2006,,,OL19811830M,,0,,,,0,0,1,1,6477575,pdf,5a03dd4c8a7d578e14d9802105957eda,,,_337519.5a03dd4c8a7d578e14d9802105957eda.pdf,0,2000-01-01 01:00:00,2016-04-03 02:51:08,827000/5a03dd4c8a7d578e14d9802105957eda-d.jpg,,
5450632,Réussissez le C2i niveau 1 : Certificat informatique et Internet (1Cédérom),,,,"Jean-Louis Monino, Marie-Claude Lesage, Portices",,,,,162,0,French ,,,,"210049600X,9782100496006",,,,,,,,,,,0,,,,,1,,,2415526,pdf,4fe2b8222cfb2de45310337eb99782e1,,,_370398.4fe2b8222cfb2de45310337eb99782e1.pdf,0,2000-01-01 01:00:00,2016-04-03 02:51:08,827000/4fe2b8222cfb2de45310337eb99782e1-g.jpg,,
5450633,"CRC Standard Mathematical Tables and Formulae, Thirtieth Edition",,,,Daniel Zwillinger,1996,30th ed.,CRC-Press,,832,0,English ,,,,"0849324793,9780849324796",,,,,510.212,QA47 .M315 1996,,,OL18356796M,,0,,,,,1,,,11994917,pdf,4fff55006f249e3770ea85626a76e0b9,,,_205923.4fff55006f249e3770ea85626a76e0b9.pdf,0,2000-01-01 01:00:00,2016-04-03 02:51:08,827000/4fff55006f249e3770ea85626a76e0b9-d.jpg,,
5450630,Lösungen zur Aufgabensammlung Technische Mechanik 18. Auflage,,,,"Alfred Böge, Walter Schlemmer, Wolfgang Weißbach",,,,,206,0,German ,,,,"9783834801517,3834801518",,,,,,,,,,,0,,,,,1,,,7830479,pdf,4fca21383b94351bd14b1a110f18c5e3,,,_369729.4fca21383b94351bd14b1a110f18c5e3.pdf,0,2000-01-01 01:00:00,2016-04-03 02:51:08,827000/4fca21383b94351bd14b1a110f18c5e3-d.jpg,,
5450631,Infinite dimensional Morse theory and multiple solution problems,,,,K.C. Chang,1992,1,Birkhäuser Boston,,323,0,English ,,,,"0817634517,9780817634513",,,,,515,QA331 .C445 1993,,,OL1534656M,,0,,,,,1,0,1,6166023,pdf,4fd9096830cf7a5603e469f09cd8dedf,,,_207605.4fd9096830cf7a5603e469f09cd8dedf.pdf,0,2000-01-01 01:00:00,2016-04-03 02:51:08,827000/4fd9096830cf7a5603e469f09cd8dedf-d.jpg,,
5450629,A Source Book of Problems for Geometry: Based Upon Industrial Design and Architectural Ornament,,,,Mabel Sykes,2009,,Cornell University Library,,386,0,English ,,,,"1112489878,1151841536,9781151841537,9781112489877",,"B0006AGPNK,B002WUWN24",,,,,,,,,300,,,,0,1,0,1,5974601,djvu,4fc03fd3c3c5418b84db8f217f89c34f,,,_100284.4fc03fd3c3c5418b84db8f217f89c34f.djvu,0,2000-01-01 01:00:00,2016-04-03 02:51:08,827000/4fc03fd3c3c5418b84db8f217f89c34f-d.jpg,,
5450627,Mac OS X: The Complete Reference,,,,Jesse Feiler,2001,1,McGraw-Hill/Osborne Media,,801,0,English ,,,,"0072126639,9780072126631,9780072194340",,,,,005.4/469,QA76.76.O63 F4248 2001,,,OL24281949M,,0,,,,,1,0,1,24706191,pdf,4f9fdd9d2e239bc4218a50f6569ec30e,,,_207717.4f9fdd9d2e239bc4218a50f6569ec30e.pdf,0,2000-01-01 01:00:00,2016-04-03 02:51:08,827000/4f9fdd9d2e239bc4218a50f6569ec30e-d.jpg,,
5450628,Network Performance Analysis: Using the J Programming Language,,,,Alan Holt,2008,1st Edition.,Springer,,228,0,English ,,,,"1846288223,9781846288227",,,,,,,,,OL11914430M,,0,,,,1,0,0,1,1067931,pdf,4fa72167bdf2dc436a22f5c08f4da846,,,_207799.4fa72167bdf2dc436a22f5c08f4da846.pdf,0,2000-01-01 01:00:00,2016-04-03 02:51:08,827000/4fa72167bdf2dc436a22f5c08f4da846-d.jpg,,
5450625,Les éco-solutions à la crise immobilière et économique,,,,Pierre-Gilles Bellin,,,Eyrolles,,194,0,French ,,,,"2212124821,9782212124828,9782212852554",,,,,,,,,,,0,,,,,1,,,4938255,pdf,4f7d3c3211834a865b6e4e6bf3b75cc9,,,_185255.4f7d3c3211834a865b6e4e6bf3b75cc9.pdf,0,2000-01-01 01:00:00,2016-04-03 02:51:08,827000/4f7d3c3211834a865b6e4e6bf3b75cc9-d.jpg,,
5450626,Linear spaces and linear operators,,,,Danuta Przeworska-Rolewicz,2007,,Institute of Mathematics of the Polish Academy of Sciences,,155,0,English ,,,,,,,,,,,,,,,0,,,,,1,1,1,764380,pdf,4f8e975810849b1427a3ffc57c162c52,,,_331349.4f8e975810849b1427a3ffc57c162c52.pdf,0,2000-01-01 01:00:00,2016-04-03 02:51:08,827000/4f8e975810849b1427a3ffc57c162c52-g.jpg,,
5450623,Introducing Semiotics,,,,"Paul Cobley, Litza Jansz",,,,,176,0,English ,,,,,,B000SU1XX0,,,,,,,,,0,,,,1,1,0,0,14854830,pdf,4f69b87bc053694d5f2345dc8ea2fb3a,,,_129161.4f69b87bc053694d5f2345dc8ea2fb3a.pdf,0,2000-01-01 01:00:00,2016-04-03 02:51:08,827000/4f69b87bc053694d5f2345dc8ea2fb3a-g.jpg,,
5450624,Language in South Asia,,,,"Braj B. Kachru (editor), Yamuna Kachru (editor), S. N. Sridhar (editor)",2008,,Cambridge University Press,,631,0,English ,,,,"9780511619069,9780521781411,9780521786539",,,,,306.4/40954,P381.S58 L36 2008,10.1017/CBO9780511619069,O2n4sFGDEMYC,OL10437203M,,0,,,,1,0,1,1,4747621,pdf,4f71e8283d0850d606ed446da40c2929,,,_401946.4f71e8283d0850d606ed446da40c2929.pdf,0,2000-01-01 01:00:00,2016-04-03 02:51:08,827000/4f71e8283d0850d606ed446da40c2929-d.jpg,,
5450621,"Mechanics (Berkeley Physics Course, Vol. 1) solution manual",,,,C. J. LeVine,,,,,82,0,English ,,,,,,,,,,,,,,,0,,,,0,1,1,0,11350724,pdf,4f2dec89714bfbd5aef1fe032bfc98e2,,,_293124.4f2dec89714bfbd5aef1fe032bfc98e2.pdf,0,2000-01-01 01:00:00,2016-04-03 02:51:08,827000/4f2dec89714bfbd5aef1fe032bfc98e2-g.jpg,,
5450622,Infertility in the Modern World: Present and Future Prospects (Biosocial Society Symposium Series),,,,"Gillian R. Bentley, C. G. Nicholas Mascie-Taylor",2001,1,Cambridge University Press,,276,0,English ,,,,"0521643872,9780521643870,0521643643,9780521643641,9780511040405",,,,,616.6/92,RC889 .I5635 2000,,,OL22348609M,,0,,,,,1,,,2056653,pdf,4f360da5a1a4787a80e01b4e3710636d,,,_393876.4f360da5a1a4787a80e01b4e3710636d.pdf,0,2000-01-01 01:00:00,2016-04-03 02:51:08,827000/4f360da5a1a4787a80e01b4e3710636d-d.jpg,,
5450620,Enclosure Josekis,,,,Masaki Takemiya,1983,,Ishi,,215,0,English ,,,,,,,,,,,,vkjNGwAACAAJ,,,0,,,,1,0,0,1,4032887,pdf,4ef862cb3d6977e9ac40d66e92556020,,,_402880.4ef862cb3d6977e9ac40d66e92556020.pdf,0,2000-01-01 01:00:00,2016-04-03 02:51:08,827000/4ef862cb3d6977e9ac40d66e92556020-g.jpg,,
5450618,"Introduction to Modern Physics: Volume 1, Second Edition",,,,R.B. Singh,2009,2,New Age International,,636,0,English ,,,,"8122425976,9788122425970",,,,,,,,,,,0,,,,0,0,1,1,5354641,pdf,4ee61ebfad8cddcd4e98227fb7d436d1,,,_105884.4ee61ebfad8cddcd4e98227fb7d436d1.pdf,0,2000-01-01 01:00:00,2016-04-03 02:51:08,827000/4ee61ebfad8cddcd4e98227fb7d436d1-g.jpg,,
5450619,"Der Große Reuter: Springer Universalwörterbuch Medizin, Pharmakologie und Zahnmedizin. Deutsch-Englisch",,,,Peter Reuter,2005,1,Springer,,1579,0,German ,,,,"9783540251040,9783540287216,3540251049",,,,,,,,,OL9496317M,,0,,,,,1,,,16650511,pdf,4eeac837be96983d641a83ba5edcc07f,,,_380021.4eeac837be96983d641a83ba5edcc07f.pdf,0,2000-01-01 01:00:00,2016-04-03 02:51:08,827000/4eeac837be96983d641a83ba5edcc07f-d.jpg,,
5450616,Constructive geometry of plane curves. With numerous examples.,,,,Thomas Henry Eagles,2005,,"Scholarly Publishing Office, University of Michigan Library",,396,0,English ,,,,"141818358X,9781418183585",,"B0006AR1H4,B000X78FD4,B001OIX90K",,,,,,,OL9715606M,,369,,,,0,1,0,1,7420159,djvu,4eb689fecc6e4269f062fb4fbb9ea6d8,,,_99719.4eb689fecc6e4269f062fb4fbb9ea6d8.djvu,0,2000-01-01 01:00:00,2016-04-03 02:51:08,827000/4eb689fecc6e4269f062fb4fbb9ea6d8-d.jpg,,
5450617,A New Foundation of Physical Theories,,,,"Günther Ludwig, Gérald Thurler",2007,,Springer,,180,0,English ,,,,"3540308326,9783540308324",,,,,,,,,OL17560976M,,0,,,,0,0,0,1,1557254,pdf,4ec4e0bd66808c23ac46fa29e8f362de,,,_344498.4ec4e0bd66808c23ac46fa29e8f362de.pdf,0,2000-01-01 01:00:00,2016-04-03 02:51:08,827000/4ec4e0bd66808c23ac46fa29e8f362de-d.jpg,,
5450615,"Mobile commerce: opportunities, applications, and technologies of wireless business",,Breakthroughs in Application Development ,,Paul May,2001,1st,Cambridge University Press,,303,0,English ,,,,"052179756X,9780521797566",,,,,,,,,OL17015714M,,0,,,,1,0,1,1,1353929,pdf,4e96e0d6be1278cc6d827e0b1d8779fe,,,_368083.4e96e0d6be1278cc6d827e0b1d8779fe.pdf,0,2000-01-01 01:00:00,2016-04-03 02:51:08,827000/4e96e0d6be1278cc6d827e0b1d8779fe-d.jpg,,
5450613,Mitarbeiterbeurteilung und Zielvereinbarung. 2. Auflage,,,,Anja Weidemann,2007,,Haufe Mediengruppe,,311,0,German ,,,,"3448080187,9783448080186",,,,,658.3125,,,,,,0,,,,,1,,,1831227,pdf,4e6afcf552a322201be74b6825a0caa4,,,_199004.4e6afcf552a322201be74b6825a0caa4.pdf,0,2000-01-01 01:00:00,2016-04-03 02:51:08,827000/4e6afcf552a322201be74b6825a0caa4-d.jpg,,
5450614,Methods and theories for the solution of problems of geometrical constructions applied to 410 problems.,,,,"Julius (Haagensen, Sophus, tr.) Petersen",1927,,"New York, G.E. Stechert & Co.,",,105,0,English ,,,,,,,,,,,,,,,0,,,,1,1,1,1,2325225,pdf,4e9169612eacbee0bfa241823ea50d82,,,_254122.4e9169612eacbee0bfa241823ea50d82.pdf,0,2000-01-01 01:00:00,2016-04-03 02:51:08,827000/4e9169612eacbee0bfa241823ea50d82-g.jpg,,
5450612,"iPhone: The Missing Manual, 3rd edition: Covers All Models with 3.0 Software-including the iPhone 3GS",,,,"David Pogue, Pogue  David",2009,3rd,O'Reilly Media,,416,0,English ,,,,"9780596804299,0596804296",,,,,,,,,,,0,,,,,1,,,18577584,pdf,4e56ed916439a873d9f55943623ca1df,,,_375236.4e56ed916439a873d9f55943623ca1df.pdf,0,2000-01-01 01:00:00,2016-04-03 02:51:08,827000/4e56ed916439a873d9f55943623ca1df-d.jpg,,
5450610,Handbook of Aqueous Electrolyte Thermodynamics: Theory & Application,,,,"Joseph F. Zemaitis Jr., Diane M. Clark, Marshall Rafal, Noel C. Scrivner",1986,1,Wiley-AIChE,,878,0,English,,,0,"0816903506,9780816903504",,,,,541.3/746,QD565 .H26 1986,,,OL2710896M,,0,,,,,1,,,13310397,pdf,4e075a9dadf7131d5c1f09534ebfde50,,,_216139.4e075a9dadf7131d5c1f09534ebfde50.pdf,0,2000-01-01 01:00:00,2016-04-03 02:51:08,827000/4e075a9dadf7131d5c1f09534ebfde50-d.jpg,,
5450611,Energieeffizienz: Ein Lehr- und Handbuch,,,,Martin Pehnt,2011,1st Edition. 2nd Printing.,Springer,,376,0,German ,,,,"3642142508,9783642142505",,,,,,,10.1007/978-3-642-14251-2,s9h0XzCMFysC,,,0,,,,1,0,1,1,7187735,pdf,4e481e4cb4209fb9dfe49aae04c9d5e4,,,_213619.4e481e4cb4209fb9dfe49aae04c9d5e4.pdf,0,2000-01-01 01:00:00,2016-04-03 02:51:08,827000/4e481e4cb4209fb9dfe49aae04c9d5e4-d.jpg,,
5450609,Beyond Einstein Gravity: A Survey of Gravitational Theories for Cosmology and Astrophysics (Fundamental Theories of Physics),,,,"Salvatore Capozziello, Valerio Faraoni",2010,1st Edition.,Springer,,428,0,English ,,,,"9400701640,9789400701649,9789400701656",,,,,,,,eBFpiXXVcKkC,,,0,,,,1,1,1,1,3713611,pdf,4e074b4d2c8519d69e90aa290e0f4b45,,,_216937.4e074b4d2c8519d69e90aa290e0f4b45.pdf,0,2000-01-01 01:00:00,2016-04-03 02:51:08,827000/4e074b4d2c8519d69e90aa290e0f4b45-d.jpg,,
5450607,"Mind and Nature: Selected Writings on Philosophy, Mathematics, and Physics",,,,Hermann Weyl; Peter Pesic (editor),2009,,Princeton University Press,,270,0,English ,,,,"0691135452,9780691135458,9781400833320,1400833329",,,,,510.1,QA8.4 .W49 2009,,,OL22691284M,,0,,,,1,0,1,1,1614366,pdf,4de9d59ecb2376d7ebdf53a47a016d6a,,,_197229.4de9d59ecb2376d7ebdf53a47a016d6a.pdf,0,2000-01-01 01:00:00,2016-04-03 02:51:08,827000/4de9d59ecb2376d7ebdf53a47a016d6a-d.jpg,,
5450608,Digital Music: Computers That Make Music (The Digital World),,,,Ananda Mitra,2010,1,Chelsea House Publications,,135,0,English ,,,,"0816067872,9781438135663,9780816067879,1438135661",,,,,786.7/6,ML74 .M58 2010,,,OL11360554M,,0,,,,,1,,,24786185,pdf,4df477e1891a0a97b3851e29affe9cd2,,,_182860.4df477e1891a0a97b3851e29affe9cd2.pdf,0,2000-01-01 01:00:00,2016-04-03 02:51:08,827000/4df477e1891a0a97b3851e29affe9cd2-d.jpg,,
5450606,Geometry on Poincaré Spaces (Mathematical Notes 41),,,,"Jean-Claude Hausmann, Pierre Vogel",,,,,260,0,English ,,,,,,B001MVAZDI,,,,,,,,,0,,,,,1,,,1394459,djvu,4dcb0d28a8709d283fdf52ec3d31b146,,,_73379.4dcb0d28a8709d283fdf52ec3d31b146.djvu,0,2000-01-01 01:00:00,2016-04-03 02:51:08,827000/4dcb0d28a8709d283fdf52ec3d31b146-g.jpg,,
5450604,Mighty math for 4-6 Year Olds: Introducing Mathematics,,,,Kim Freeman,,,,,100,0,English ,,,,"1877216836,9781877216831",,,,,,,,,OL24302596M,,0,,,,,1,,,6815925,pdf,4d898e760f3e73aee95e8af3c364214e,,,_177593.4d898e760f3e73aee95e8af3c364214e.pdf,0,2000-01-01 01:00:00,2016-04-03 02:51:08,827000/4d898e760f3e73aee95e8af3c364214e-g.jpg,,
5450605,Partially Ordered Rings and Semi-Algebraic Geometry (London Mathematical Society Lecture Note Series 37),,,,Gregory W. Brumfiel,1980,,Cambridge University Press,,291,0,English ,,,,"052122845X,9780521228459",,,,,512.4,QA251.3 .B78,,,OL4190539M,,0,,,,,1,1,1,5457366,pdf,4dc43ed4a3a3593cf22a9b72c3b8f578,,,_207537.4dc43ed4a3a3593cf22a9b72c3b8f578.pdf,0,2000-01-01 01:00:00,2016-04-03 02:51:08,827000/4dc43ed4a3a3593cf22a9b72c3b8f578-d.jpg,,
5450602,"Time Lag Control Systems (Mathematics in Science & Engineering, Vol. 24)",,Mathematics in Science and Engineering volume 24,,Namik Oguztoreli,1966,,Academic Press,,323,0,English ,,,,"0125246501,9780125246507",,,,,,,,,,,0,,,,,1,,,4785079,pdf,4d55ef74604d934c2bd8c3e3289c989b,,,_37163.4d55ef74604d934c2bd8c3e3289c989b.pdf,0,2000-01-01 01:00:00,2016-04-03 02:51:08,827000/4d55ef74604d934c2bd8c3e3289c989b-d.jpg,,
5450603,Computational Group Theory: Proceedings of the London Mathematical Society Symposium on Computational Group Theory,,,,Michael D. Atkinson,1984,,Academic Pr,,373,0,English ,,,,"0120662701,9780120662708",,,,,512/.22,QA171 .L833 1982,,,OL3192898M,,0,,,,,1,,,6286801,djvu,4d7fac1f1a75f3f187ed01586caecfbc,,,_210534.4d7fac1f1a75f3f187ed01586caecfbc.djvu,0,2000-01-01 01:00:00,2016-04-03 02:51:08,827000/4d7fac1f1a75f3f187ed01586caecfbc-g.jpg,,
5450601,Biological Control: Benefits and Risks (Biotechnology Research (No. 4)),,Biotechnology Research (No. 4) ,,"Heikki M. T. Hokkanen (editor), James M. Lynch (editor)",2003,,Cambridge University Press,,325,0,English ,,,,"9780511661730,9780521473538,9780521544054",,,,,,,10.1017/CBO9780511661730,DVPjl7gfqDoC,OL7742149M,,0,,,,1,1,1,1,13876300,pdf,4d53b4260b1b51704e2de347f869d89f,,,_403103.4d53b4260b1b51704e2de347f869d89f.pdf,0,2000-01-01 01:00:00,2016-04-03 02:51:08,827000/4d53b4260b1b51704e2de347f869d89f-d.jpg,,
5450599,The Science of Design,,,,Gordon L. Glegg,2009,,Cambridge University Press,,103,0,English ,,,,"9780511760044,9780521203272,9780521113199",,,,,,,10.1017/CBO9780511760044,7URfPwAACAAJ,,,0,,,,1,1,1,1,996579,pdf,4d35c4d1bc6e38d3c5f4f33f6970eeb9,,,_406788.4d35c4d1bc6e38d3c5f4f33f6970eeb9.pdf,0,2000-01-01 01:00:00,2016-04-03 02:51:08,827000/4d35c4d1bc6e38d3c5f4f33f6970eeb9-d.jpg,,
5450600,Coursebook in Feature Geometry,,,,John Newman,1997,,LINCOM publishers,,136,0,English ,,,,"3895861022,9783895861024",,,,,,,,,OL16397592M,,0,,,,,1,,,3940491,pdf,4d4f3213395f6a95fd565e48ebfc725d,,,_110738.4d4f3213395f6a95fd565e48ebfc725d.pdf,0,2000-01-01 01:00:00,2016-04-03 02:51:08,827000/4d4f3213395f6a95fd565e48ebfc725d-g.jpg,,
5450597,Foundations of Illocutionary Logic,,,,"John R. Searle, Daniel Vanderveken",1985,,Cambridge University Press,,240,0,English ,,,,"0521263247,9780521263245,0521108853,9780521108850",,,,,401/.9,P95.55 .S42 1985,,,OL2843006M,,0,,,,,1,,,16739175,pdf,4c742b66178d5c190519f4ed33f29ca1,,,_177460.4c742b66178d5c190519f4ed33f29ca1.pdf,0,2000-01-01 01:00:00,2016-04-03 02:51:08,827000/4c742b66178d5c190519f4ed33f29ca1-d.jpg,,
5450598,Kage's Secret Chronicles of Handicap Go,,,,Toshiro Kageyama,,,,,101,0,English ,,,,,,"B0006CMFGO,B001THTKMC,B001P71J2A,B001P08TMA",,,,,,,,,0,,,,,1,,,13476292,pdf,4cb7e92e4448b510db322502a5860a94,,,_1032.4cb7e92e4448b510db322502a5860a94.pdf,0,2000-01-01 01:00:00,2016-04-03 02:51:08,827000/4cb7e92e4448b510db322502a5860a94-g.jpg,,
5450595,Diagnosing Unemployment (Federico Caff&egrave; Lectures),,Federico Caffè Lectures ,,Edmond Malinvaud,1994,,Cambridge University Press,,168,0,English ,,,,9780521445337,,,,,,,,IIAVRyASYnAC,,,0,,,,1,1,1,1,1530034,pdf,4c6670fc5fa14989f02449baca295bf9,,,_396536.4c6670fc5fa14989f02449baca295bf9.pdf,0,2000-01-01 01:00:00,2016-04-03 02:51:08,827000/4c6670fc5fa14989f02449baca295bf9-d.jpg,,
5450596,Discrete Multivariate Analysis: Theory and Practice (1977),,,,"Yvonne M. Bishop, Stephen E. Fienberg, Paul W. Holland,",1977,,The MIT Press,,568,0,English ,,,,"9780262520409,9780585332048,0262520400",,,,,,,,,OL21219284M,,0,,,,,1,,,5021143,djvu,4c6afb3e06c434fd315dc94fc6146014,,,_214017.4c6afb3e06c434fd315dc94fc6146014.djvu,0,2000-01-01 01:00:00,2016-04-03 02:51:08,827000/4c6afb3e06c434fd315dc94fc6146014-d.jpg,,
5450594,Chaos Theory in the Social Sciences: Foundations and Applications,,,,"L. Douglas Kiel, Euel W. Elliott",1997,,University of Michigan Press,,360,0,English ,,,,"0472084720,9780472084722,0472106384,9780472106387",,B001UUUT50,,,300/.1/51,H61.25 .C48 1996,,,OL7633101M,,0,,,,,1,,,10806810,pdf,4c5b01ff27d262e80975ed69f02cc15d,,,_195363.4c5b01ff27d262e80975ed69f02cc15d.pdf,0,2000-01-01 01:00:00,2016-04-03 02:51:08,827000/4c5b01ff27d262e80975ed69f02cc15d-d.jpg,,
5450592,Crystallization of Polymers Volume 1: Equilibrium Concepts,,,,Leo Mandelkern,2002,2,Cambridge University Press,,448,0,English ,,,,"0521816815,9780521816816,0511061064,9780511061066",,,,,547/.84,QD281.P6 M3 2002,,,OL3567937M,,0,,,,1,0,1,1,2471595,pdf,4c1bcb65006821130507b419b18fe087,,,_334828.4c1bcb65006821130507b419b18fe087.pdf,0,2000-01-01 01:00:00,2016-04-03 02:51:08,827000/4c1bcb65006821130507b419b18fe087-d.jpg,,
5450593,Implicit Functions and Solution Mappings: A View from Variational Analysis (Springer Monographs in Mathematics),,Springer Monographs in Mathematics ,,"Asen L. Dontchev, R. Tyrrell Rockafellar",2009,1st Edition. 2nd Printing.,Springer,,388,0,English ,,,,"0387878203,9780387878201",,,,,,,10.1007 978-0-387-87821-8,,,,0,,,,1,0,1,1,2236234,pdf,4c1fc640c08149868bffdd20cca7897a,,,_171704.4c1fc640c08149868bffdd20cca7897a.pdf,0,2000-01-01 01:00:00,2016-04-03 02:51:08,827000/4c1fc640c08149868bffdd20cca7897a-d.jpg,,
5450590,"Geometric Transformations, Volume 1: Euclidean and Affine Transformations",,,,"P. S. Modenov, A. S. Parkhomenko",,,,,169,0,English ,,,,,,B000S4LP2U,,,,,,,,,600,,,,1,1,1,1,1247048,djvu,4c05fff2ef68a300d0baf7fcb15d6f55,,,_211012.4c05fff2ef68a300d0baf7fcb15d6f55.djvu,0,2000-01-01 01:00:00,2016-04-03 02:51:08,827000/4c05fff2ef68a300d0baf7fcb15d6f55-g.jpg,,
5450591,Agile fachmodellgetriebene Softwareentwicklung für mittelständische IT-Projekte,,,,Thomas Biskup,,,,,475,0,German ,,,,"3832287728,9783832287726",,,,,,,,,,,0,,,,,1,,,4108021,pdf,4c089eccbc14fa133be46354b48405b0,,,_207349.4c089eccbc14fa133be46354b48405b0.pdf,0,2000-01-01 01:00:00,2016-04-03 02:51:08,827000/4c089eccbc14fa133be46354b48405b0-g.jpg,,
5450588,Mathematics,,,,David Eugene Smith,1923,,"Marshall Jones Company, Boston",,192,0,English ,,,,,,,,,,,,,,,0,,,,,1,,,9515637,pdf,4bf14205509500823b8164ef3e26ae6f,,,_283361.4bf14205509500823b8164ef3e26ae6f.pdf,0,2000-01-01 01:00:00,2016-04-03 02:51:08,827000/4bf14205509500823b8164ef3e26ae6f-g.jpg,,
5450589,Symbolic Blackness and Ethnic Difference in Early Christian Literature,,,,Gay Byron,2002,,Routledge,,236,0,English ,,,,"0415243688,9780415243681",,,,,,,,,OL7488129M,,0,,,,1,0,1,1,1412087,pdf,4bfd9c612554e4217d5b4837df40921b,,,_56398.4bfd9c612554e4217d5b4837df40921b.pdf,0,2000-01-01 01:00:00,2016-04-03 02:51:08,827000/4bfd9c612554e4217d5b4837df40921b-d.jpg,,
5450586,eZ Components. Das Entwickler-Handbuch,,,,Kore Nordmann,,,,,454,0,German ,,,,"3836210738,9783836210737",,,,,,,,,,,0,,,,,1,,,49157515,pdf,4bb5705b216c137542c74e78fd6724c4,,,_208966.4bb5705b216c137542c74e78fd6724c4.pdf,0,2000-01-01 01:00:00,2016-04-03 02:51:08,827000/4bb5705b216c137542c74e78fd6724c4-g.jpg,,
5450587,Lectures on Complex Analytic Varieties: The Local Parametrization Theorem (Princeton mathematical notes),,,,Robert C. Gunning,1971,1st,Princeton University Press,,175,0,English ,,,,"0691080291,9780691080291",,,,,517/.8,QA331 .G784,,4iFwQgAACAAJ,OL5446806M,,600,,,,1,1,1,1,4926683,pdf,4bcd96e0d05e4fec8c3eed22d7718ab6,,,_283559.4bcd96e0d05e4fec8c3eed22d7718ab6.pdf,0,2000-01-01 01:00:00,2016-04-03 02:51:08,827000/4bcd96e0d05e4fec8c3eed22d7718ab6-g.jpg,,
5450585,Java:  L'essentiel du code et des commandes,,,,Timothy R. Fisher,2009,,CampusPress,,236,0,French ,,,,"9782744040047,9782744021626",,,,,,,,NmRdPQAACAAJ,,,0,,,,1,0,1,1,1553072,pdf,4ba356a3c2d4cf1ee3d154579e56c91c,,,_207721.4ba356a3c2d4cf1ee3d154579e56c91c.pdf,0,2000-01-01 01:00:00,2016-04-03 02:51:08,827000/4ba356a3c2d4cf1ee3d154579e56c91c-d.jpg,,
5450583,Violinschule (Violin School) Part 3  Sheet Music  Studies in Interpretation,,,,"Joseph Joachim, Andreas Moser",,,,,278,0,English ,,,,,,B001HEGQ74,,,,,,,,,0,,,,,1,,,23158258,pdf,4b3a34002627816eb7ee48117ef3c5b5,,,_388940.4b3a34002627816eb7ee48117ef3c5b5.pdf,0,2000-01-01 01:00:00,2016-04-03 02:51:08,827000/4b3a34002627816eb7ee48117ef3c5b5-g.jpg,,
5450584,Mental Spaces in Grammar: Conditional Constructions (Cambridge Studies in Linguistics),,,,"Barbara Dancygier, Eve Sweetser",2005,,Cambridge University Press,,316,0,English ,,,,"0521844681,9780521844680",,,,,415,P292.5 .D36 2005,,,OL22629761M,,0,,,,,1,,,2128707,pdf,4b9c1861d9b2132d9ce9b5f1654a3491,,,_394420.4b9c1861d9b2132d9ce9b5f1654a3491.pdf,0,2000-01-01 01:00:00,2016-04-03 02:51:08,827000/4b9c1861d9b2132d9ce9b5f1654a3491-d.jpg,,
5450582,The Cambridge History of Early Modern English Literature (The New Cambridge History of English Literature),,,,"David Loewenstein, Janel Mueller",2003,,Cambridge University Press,,1050,0,English ,,,,"0521631564,9780521631563,9780511066122",,,,,820.9/003,PR421 .C26 2002,,,OL3560247M,,0,,,,,1,,,5008421,pdf,4b17f48c3732713d39a4ed09c286caf5,,,_5796.4b17f48c3732713d39a4ed09c286caf5.pdf,0,2000-01-01 01:00:00,2016-04-03 02:51:08,827000/4b17f48c3732713d39a4ed09c286caf5-d.jpg,,
5450580,Polymers. Pt C: Physical Properties (Experimental Methods in the Physical Sciences),,,,R. A. Fava,1980,,Academic Press,,554,0,English ,,,,"0124759580,9780124759589,9780080860008",,,,,620.1/92,TA455.P58 P47,,,OL10072332M,,0,,,,,1,,,24629165,pdf,4b0458d7eaa83ea59e9ad27bda09fc38,,,_369177.4b0458d7eaa83ea59e9ad27bda09fc38.pdf,0,2000-01-01 01:00:00,2016-04-03 02:51:08,827000/4b0458d7eaa83ea59e9ad27bda09fc38-d.jpg,,
5450581,Verilog HDL,,,,Samir Palnitkar,1996,Bk&CD-Rom,Prentice Hall PTR,,396,0,English ,,,,"0134516753,9780134516752",,,,,621.39/2,TK7885.7 .P35 1996,,,OL583488M,,0,,,,,1,,,11646400,pdf,4b0ab4131c5ff83a8a6c8b19c6140f56,,,_303104.4b0ab4131c5ff83a8a6c8b19c6140f56.pdf,0,2000-01-01 01:00:00,2016-04-03 02:51:08,827000/4b0ab4131c5ff83a8a6c8b19c6140f56-d.gif,,
5450579,"Electronic and Experimental Music: Pioneers in Technology and Composition, 3rd Edition",,,,Thom Holmes,2008,3,Routledge,,480,0,English ,,,,"0415957818,9780415957816,9780203929599",,,,,786.7,ML1380 .H64 2008,,,OL10208756M,,0,,,,,1,,,9652508,pdf,4af053d521bc416fa8e2ca5e098ed248,,,_132862.4af053d521bc416fa8e2ca5e098ed248.pdf,0,2000-01-01 01:00:00,2016-04-03 02:51:08,827000/4af053d521bc416fa8e2ca5e098ed248-d.jpg,,
5450577,The Trachtenberg Speed System Of Basic Mathematics,,,,"Jakow Trachtenberg, Ann Cutler, Rudolph McShane",1999,New edition,Souvenir,,269,0,English ,,,,"0285629166,9780313232008,9780285629165,0313232008",,,,,513/.92,QA115 .C99 1981,,,OL4267436M,,600,,,,0,1,1,1,1450511,djvu,4ad3723411bbdbc32fcd1d5106d3bde0,,,_182631.4ad3723411bbdbc32fcd1d5106d3bde0.djvu,0,2000-01-01 01:00:00,2016-04-03 02:51:08,827000/4ad3723411bbdbc32fcd1d5106d3bde0-d.jpg,,
5450578,Popular Piano Solos: For All Piano Methods - Level 2: Hal Leonard Student Piano Library,,,,Bill Boyd,1997,,Hal Leonard Corporation,,24,0,English ,,,,"0793577241,9780793577248",,,,,,,,,OL11200272M,,0,,,,,1,,,12913994,pdf,4ae85f1143cd3b994551952a2cff1ec4,,,_207532.4ae85f1143cd3b994551952a2cff1ec4.pdf,0,2000-01-01 01:00:00,2016-04-03 02:51:08,827000/4ae85f1143cd3b994551952a2cff1ec4-d.jpg,,
5450576,Finite Elemente Modelle der Statik und Festigkeitslehre: 101 Anwendungsfälle zur Modellbildung,,,,Klaus Schier,2010,1st Edition.,Springer,,500,0,German ,,,,3642166202,,,,,,,,,,,0,,,,,1,,,9321676,pdf,4accdc9e8d19d0795abee9653e1e00c7,,,_315515.4accdc9e8d19d0795abee9653e1e00c7.pdf,0,2000-01-01 01:00:00,2016-04-03 02:51:08,827000/4accdc9e8d19d0795abee9653e1e00c7-d.jpg,,
5450574,"Aristotle's Syllogistic From the Standpoint of Modern Formal Logic, Second Edition (Oxford University Press Academic Monograph Reprints)",,,,Jan Lukasiewicz,1957,2nd,Oxford Univ Press,,222,0,English ,,,,"0198241445,9780198241447",,,,,,,,,OL21171248M,,0,,,,,1,,,3073826,djvu,4abc0a7a0f8abb4dfb5f9c10170ffafe,,,_204585.4abc0a7a0f8abb4dfb5f9c10170ffafe.djvu,0,2000-01-01 01:00:00,2016-04-03 02:51:08,827000/4abc0a7a0f8abb4dfb5f9c10170ffafe-g.jpg,,
5450575,"Parallel Problem Solving from Nature, PPSN XI: 11th International Conference, Krakov, Poland, September 11-15, 2010, Proceedings, Part I (Lecture Notes ... Computer Science and General Issues)",,,,"Robert Schaefer, Carlos Cotta, Joanna Kolodziej, Günter Rudolph",2010,1st Edition.,Springer,,763,0,English ,,,,"3642158439,9783642158438",,,,,,,,,,,0,,,,,1,,,17108194,pdf,4abe01584d26de64a7ed7a855353c927,,,_216859.4abe01584d26de64a7ed7a855353c927.pdf,0,2000-01-01 01:00:00,2016-04-03 02:51:08,827000/4abe01584d26de64a7ed7a855353c927-d.jpg,,
5450573,Finding Metaphor in Grammar and Usage: A Methodological Analysis of Theory and Research,,Converging Evidence in Language and Communication Research volume 10,,Gerard J. Steen,2007,,John Benjamins Pub Co,,430,0,English ,,,,"9789027238979,9027238979,9027239010,9789027239013,9789027291851",,,,,415,P301.5.M48 S69 2007,,,OL18278033M,,0,,,,,1,,,2202363,pdf,4ab4afd1dd6d69b22bf12bc51a5502e0,,,_120030.4ab4afd1dd6d69b22bf12bc51a5502e0.pdf,0,2000-01-01 01:00:00,2016-04-03 02:51:08,827000/4ab4afd1dd6d69b22bf12bc51a5502e0-d.jpg,,
5450572,A Perceptual Study of Intonation: An Experimental-Phonetic Approach to Speech Melody (Cambridge Studies in Speech Science and Communication),,Cambridge Studies in Speech Science and Communication ,,"J. T. Hart, R. Collier, A. Cohen",1990,,Cambridge University Press,,229,0,English ,,,,"9780511627743,9780521366434,9780521032575",,,,,,,10.1017/CBO9780511627743,TrB6JmhbxyQC,OL7714908M,,0,,,,1,1,1,1,3365230,pdf,4aa8e344e314fbdba112bee9bb95c696,,,_401966.4aa8e344e314fbdba112bee9bb95c696.pdf,0,2000-01-01 01:00:00,2016-04-03 02:51:08,827000/4aa8e344e314fbdba112bee9bb95c696-d.jpg,,
5450570,"Handbook of Formal Languages, Vol.3: Beyond Words",,,,"Grzegorz Rozenberg, Arto Salomaa",1997,1,Springer,,625,0,English ,,,,"3540606491,9783540606499",,,,,511.3,QA267.3 .H36 1997,,vVPUzVznbBsC,OL1007254M,,0,,,,,1,,,54762208,pdf,4a985e51cda4ced4509db9736cf28f73,,,_38232.4a985e51cda4ced4509db9736cf28f73.pdf,0,2000-01-01 01:00:00,2016-04-03 02:51:08,827000/4a985e51cda4ced4509db9736cf28f73-d.jpg,,
5450571,"Fruit and Seed Production: Aspects of Development, Environmental Physiology and Ecology (Society for Experimental Biology Seminar Series (No. 47))",,Society for Experimental Biology Seminar Series (No. 47) ,,"C. Marshall (editor), J. Grace (editor)",2008,,Cambridge University Press,,269,0,English ,,,,"9780511752322,9780521373500,9780521050456",,,,,,,10.1017/CBO9780511752322,SrigIQAACAAJ,OL10435231M,,0,,,,1,1,1,1,6949286,pdf,4aa6fda278baa40c1b47ba1eb9e8bc4d,,,_406425.4aa6fda278baa40c1b47ba1eb9e8bc4d.pdf,0,2000-01-01 01:00:00,2016-04-03 02:51:08,827000/4aa6fda278baa40c1b47ba1eb9e8bc4d-d.jpg,,
5450567,Calculus: How Calculus Works (Studymates in Focus) (In-Focus),,,,Christine Tootill,2008,Ill,Studymates Ltd,,160,0,English ,,,,"1842850792,9781842850794",,,,,,,,,OL11901373M,,0,,,,,1,,,1141607,pdf,4a6b110ebbe551bf58ca830a46684c65,,,_175848.4a6b110ebbe551bf58ca830a46684c65.pdf,0,2000-01-01 01:00:00,2016-04-03 02:51:08,827000/4a6b110ebbe551bf58ca830a46684c65-d.jpg,,
5450568,Agile Excellence for Product Managers: A Guide to Creating Winning Products with Agile Development Teams,,,,Greg Cohen,2010,,Super Star Press,,152,0,English ,,,,"160773074X,9781607730743",,,,,,,,,,,0,,,,1,0,1,1,2637033,pdf,4a887c55d2faf5f6e3f8d93cc5cc89c6,,,_175902.4a887c55d2faf5f6e3f8d93cc5cc89c6.pdf,0,2000-01-01 01:00:00,2016-04-03 02:51:08,827000/4a887c55d2faf5f6e3f8d93cc5cc89c6-d.jpg,,
5450569,Light Scattering by Small Particles (Structure of Matter Series.),,,,H. C. van de Hulst,1981,,Dover Publications,,470,0,English ,,,,"0486642283,9780486642284",,,,,535/.4,QC427.4 .H84 1981,,,OL3790129M,,0,,,,,1,,,10246202,djvu,4a8d348f38fcb9823faaa0f96fb73694,,,_15965.4a8d348f38fcb9823faaa0f96fb73694.djvu,0,2000-01-01 01:00:00,2016-04-03 02:51:08,827000/4a8d348f38fcb9823faaa0f96fb73694-d.jpg,,
5450566,"Rippling: Meta-Level Guidance for Mathematical Reasoning (Cambridge Tracts in Theoretical Computer Science, Volume 56)",,,,"Alan Bundy, David Basin, Dieter Hutter, Andrew Ireland",2005,1,Cambridge University Press,,218,0,English ,,,,"052183449X,9780521834490,9780511113383",,,,,,,,,OL7765773M,,0,,,,1,0,1,1,1019867,pdf,4a4addea42d45bc1a5034a6ebcd68778,,,_97996.4a4addea42d45bc1a5034a6ebcd68778.pdf,0,2000-01-01 01:00:00,2016-04-03 02:51:08,827000/4a4addea42d45bc1a5034a6ebcd68778-d.jpg,,
5450564,"Entire Functions (Pure and Applied Mathematics (Academic Press), Volume 5)",,Pure & Applied Mathematics volume 5,,Ralph P. Boas,1954,1st,Academic Press,,287,0,English ,,,,"9780121081508,0121081508,9780123745828",,,,,,,,,OL10071009M,,300,,,,,1,,1,1579594,djvu,4a362b6b3575917727a5ff7ce0e8d79f,,,_5283.4a362b6b3575917727a5ff7ce0e8d79f.djvu,0,2000-01-01 01:00:00,2016-04-03 02:51:08,827000/4a362b6b3575917727a5ff7ce0e8d79f-g.jpg,,
5450565,Principles of Macroeconomics,,,,"Joseph G. Nellis, David Parker",2004,,Financal Times Management,,488,0,English ,,,,"0273646141,9780273646143",,,,,,,,,OL3328365M,,0,,,,,1,,,5837150,pdf,4a49fc63f970b2c330e9a913c9bb4ae3,,,_376318.4a49fc63f970b2c330e9a913c9bb4ae3.pdf,0,2000-01-01 01:00:00,2016-04-03 02:51:08,827000/4a49fc63f970b2c330e9a913c9bb4ae3-d.jpg,,
5450563,"An Introduction to Atmospheric Physics, Second Edition",,,,David G. Andrews,2010,2nd,Cambridge University Press,,248,0,English ,,,,"0521693187,9780521693189,0521872200,9780521872201",,,,,551.5,QC863 .A596 2010,,,OL24013861M,,0,,,,,1,,,4553592,pdf,4a12b8f80ceb22105a190e71d78bed02,,,_181629.4a12b8f80ceb22105a190e71d78bed02.pdf,0,2000-01-01 01:00:00,2016-04-03 02:51:08,827000/4a12b8f80ceb22105a190e71d78bed02-d.jpg,,
5450561,Die Familienstrategie: Wie Familien ihr Unternehmen über Generationen sichern. 3. Auflage,,,,Kirsten Baus,2011,"3.Aufl. 2010. 4., korr. Nachdruck 2011",Gabler Verlag,,175,0,German ,,,,"3834921955,9783834921956",,,,,,,,,,,0,,,,,1,,,914630,pdf,4a082dd23b5c90d72d822b37e453a2da,,,_197569.4a082dd23b5c90d72d822b37e453a2da.pdf,0,2000-01-01 01:00:00,2016-04-03 02:51:08,827000/4a082dd23b5c90d72d822b37e453a2da-d.jpg,,
5450562,Auftrag Führung: Handbuch und Werkzeugkasten für neu berufene Führungskräfte,,,,"Siegfried Neubauer, Stefan Rankl",2010,1st Edition.,Springer,,242,0,German ,,,,"3642117244,9783642117244",,,,,,,,,,,0,,,,,1,,,6674597,pdf,4a1226f39d2cc8cd16a168fa25b783f8,,,_197667.4a1226f39d2cc8cd16a168fa25b783f8.pdf,0,2000-01-01 01:00:00,2016-04-03 02:51:08,827000/4a1226f39d2cc8cd16a168fa25b783f8-d.jpg,,
5450559,"Secondary Neoplasias Following Chemotherapy, Radiotherapy and Immunosuppression: Secondary Neoplasias After Organ Transplants and Radiotherapy (Contributions to Oncology, 55)",,Contributions to Oncology volume 55,,"W. Queisser, W. Scheithauer, U. Ruther, C. Nunnensiek, H. J. Schmoll",2000,1,S. Karger AG (Switzerland),,385,0,English ,,,,"380557116X,9783805571166",,,,,,,,,OL12931185M,,0,,,,1,0,1,1,2339312,pdf,3ffba4ae39538fa6f3897a8b8f119e0b,,,_308325.3ffba4ae39538fa6f3897a8b8f119e0b.pdf,0,2000-01-01 01:00:00,2016-04-03 02:51:08,827000/3ffba4ae39538fa6f3897a8b8f119e0b-d.jpg,,
5450560,Internet Visual Quick Tips,,,,Kate Shoup,2008,,Visual,,258,0,English ,,,,,,,,,,,,,,,0,,,,1,0,1,1,27192867,pdf,3ffcd3736eae693c3e05ec52d86405c1,,,_251866.3ffcd3736eae693c3e05ec52d86405c1.pdf,0,2000-01-01 01:00:00,2016-04-03 02:51:08,827000/3ffcd3736eae693c3e05ec52d86405c1-g.jpg,,
5450558,,,,"Nature (Nature magazine) V.470, No.7334, pages 305-430;  2011 February 17.  ","Philip Campbell, ed.",2011,,Nature Publishing Group,,128,0,English ,,,,,0028-0836,,,,,Q 1 .N2,,,,"Omits advertising, leaving 7 pages blank (312,326,336-337,346,428-429)",600,,,,1,1,1,1,9333454,djvu,3ffafff8b0ced1f1180e6ffc7644db8a,,,_304543.3ffafff8b0ced1f1180e6ffc7644db8a.djvu,0,2000-01-01 01:00:00,2016-04-03 02:51:08,827000/3ffafff8b0ced1f1180e6ffc7644db8a-g.jpg,,
5450556,"Advances in Physical Organic Chemistry, Volume 24",,,,Donald Bethell (editor),1988,,Academic Press,,225,0,English ,,,,"0120335247,9780120335244",,,,,,,,,OL10070630M,,0,,,,,1,,,10702461,pdf,3ff7df7db5e0c0cde787a5ad2c65eb2f,,,_115028.3ff7df7db5e0c0cde787a5ad2c65eb2f.pdf,0,2000-01-01 01:00:00,2016-04-03 02:51:08,827000/3ff7df7db5e0c0cde787a5ad2c65eb2f-d.jpg,,
5450557,"Principles of Physical Biochemistry, 2nd Edition",,,,"Kensal E van Holde, Curtis Johnson, Pui Shing Ho",2005,2nd,Prentice Hall,,751,0,English ,,,,"0130464279,9780130464279",,,,,572,QP517.P49 V36 2006,,,OL3421861M,,0,,,,0,1,0,1,14841751,pdf,3ff8119aaca96e0b5c8379f4ac66ff83,,,_273648.3ff8119aaca96e0b5c8379f4ac66ff83.pdf,0,2000-01-01 01:00:00,2016-04-03 02:51:08,827000/3ff8119aaca96e0b5c8379f4ac66ff83-d.jpg,,
5450555,Winning Chess Combinations (Winning Chess - Everyman Chess),,,,Yasser Seirawan,2006,1st,Everyman Chess,,256,0,English ,,,,"1857444205,9781857444209",,,,,,,,,OL8999988M,,0,,,,,1,,,9907285,pdf,3ff3bfa6a0d342e85f700d255665519c,,,_217000.3ff3bfa6a0d342e85f700d255665519c.pdf,0,2000-01-01 01:00:00,2016-04-03 02:51:08,827000/3ff3bfa6a0d342e85f700d255665519c-d.jpg,,
5450553,Key Vocabulary for a Safe Workplace,,,,Harry Ringel,2000,,New Readers Pr,,109,0,English ,,,,"1564201759,9781564201751",,,,,,,,,OL12155634M,,0,,,,1,1,1,1,3209222,pdf,3ff14472cef2985e101fee724d5f099f,,,_295773.3ff14472cef2985e101fee724d5f099f.pdf,0,2000-01-01 01:00:00,2016-04-03 02:51:08,827000/3ff14472cef2985e101fee724d5f099f-g.jpg,,
5450554,"War Memory, Nationalism and Education in Post-War Japan, 1945-2007",,,,Yoshiko Nozaki,2008,,Routledge,,219,0,English ,,,,0203098765,,,,,,,,,,,0,,,,,1,,,1686656,pdf,3ff1ea39a3cc3d3c72eea4d5c910ce5a,,,_299064.3ff1ea39a3cc3d3c72eea4d5c910ce5a.pdf,0,2000-01-01 01:00:00,2016-04-03 02:51:08,827000/3ff1ea39a3cc3d3c72eea4d5c910ce5a-g.jpg,,
5450551,Intelligent Quality of Service Technologies and Network Management: Models for Enhancing Communication (Premier Reference Source),,Premier Reference Source ,,Pattarasinee Bhattarakosol,2010,1,Information Science Publishing,,405,0,English ,,,,"1615207910,9781615207916,9781615207923",,,,,004.6,TK5105.5956 .I58 2010,,,OL23929062M,,0,,,,1,0,1,1,8593760,pdf,3fed161a83783f8fccc1fdfa0db587e8,,,_278486.3fed161a83783f8fccc1fdfa0db587e8.pdf,0,2000-01-01 01:00:00,2016-04-03 02:51:08,827000/3fed161a83783f8fccc1fdfa0db587e8-d.jpg,,
5450552,"Discourse on Method and Meditations on First Philosophy, 4th Ed.",,,,Rene Descartes,1998,4,Hackett Pub Co,,120,0,English ,,,,"0872204200,9780872204201",,,,,194,B1848.E5 C73 1998b,,,OL376233M,,0,,,,0,1,0,1,13010811,pdf,3feee8fb00a2ec14992f4a66b6ac7bef,,,_258997.3feee8fb00a2ec14992f4a66b6ac7bef.pdf,0,2000-01-01 01:00:00,2016-04-03 02:51:08,827000/3feee8fb00a2ec14992f4a66b6ac7bef-d.jpg,,
5450550,"IUTAM Symposium on Variational Concepts with Applications to the Mechanics of Materials: Proceedings of the IUTAM Symposium on Variational Concepts with Applications to the Mechanics of Materials: Proceedings of the IUTAM Symposium on Variational Concepts with Applications to the Mechanics of Materials, Bochum, Germany, September 22–26, 2008",,,,Klaus Hackl,2010,1st Edition.,Springer,,289,0,English ,,,,"9048191947,9789048191949",,,,,,,,,,,0,,,,,1,,,6967680,pdf,3fec25ab137a280919c7695160fadc3c,,,_202717.3fec25ab137a280919c7695160fadc3c.pdf,0,2000-01-01 01:00:00,2016-04-03 02:51:08,827000/3fec25ab137a280919c7695160fadc3c-d.jpg,,
5450548,Handbook of Competence and Motivation,,,,"Andrew J. Elliot PhD, Carol S. Dweck PhD",2005,1,The Guilford Press,,721,0,English ,,,,"1593851235,9781593851231",,,,,153.8,BF504 .H36 2005,,,OL3300653M,,0,,,,1,1,0,1,7208965,pdf,3fe88a3004bfcb9b55d618d78718ccba,,,_314169.3fe88a3004bfcb9b55d618d78718ccba.pdf,0,2000-01-01 01:00:00,2016-04-03 02:51:08,827000/3fe88a3004bfcb9b55d618d78718ccba-d.jpg,,
5450549,"Paulys Realencyclopädie der classischen Altertumswissenschaft: neue Bearbeitung, Bd.9A 1 : Vindelici - Vulca: BD IX A, Hbd IX A, 1",,,,"August Fr. Pauly, Georg Wissowa, Konrat Ziegler",1999,,Metzler,,324,0,German ,,,,"3476011305,9783476011305",,,,,,,,,,,0,,,,1,1,0,0,65282014,pdf,3febf5ef93b849df790333091b06adf2,,,_310648.3febf5ef93b849df790333091b06adf2.pdf,0,2000-01-01 01:00:00,2016-04-03 02:51:08,827000/3febf5ef93b849df790333091b06adf2-g.jpg,,
5450547,"Advances in Neural Networks  -- ISNN 2010: 7th International Symposium on Neural Networks, ISNN 2010, Shanghai, China, June 6-9, 2010, Proceedings, ... Computer Science and General Issues)",,Lecture Notes in Computer Science volume 6063,,"James Kwok, Bao-Liang Lu, Liqing Zhang",2010,1st Edition.,Springer,,786,0,English ,,,,"3642132774,9783642132773",,,,,,,,,,,0,,,,0,0,1,1,14454012,pdf,3fe7c2b9a80f53ff5e05990a0377fec7,,,_313306.3fe7c2b9a80f53ff5e05990a0377fec7.pdf,0,2000-01-01 01:00:00,2016-04-03 02:51:08,827000/3fe7c2b9a80f53ff5e05990a0377fec7-d.jpg,,
5450545,International Handbook of Research in Arts Education 2-volume set (Springer International Handbooks of Education),,,,Liora Bresler,2007,1,Springer,,1567,0,English ,,,,"1402048572,9781402048579,1402029985,9781402030529,9781402029981",,,,,,,,,OL8371298M,,0,,,,,0,1,1,5979716,pdf,3fe51f40c6fdfba62c86aa0e5bcd0c39,,,_175484.3fe51f40c6fdfba62c86aa0e5bcd0c39.pdf,0,2000-01-01 01:00:00,2016-04-03 02:51:08,827000/3fe51f40c6fdfba62c86aa0e5bcd0c39-d.jpg,,
5450546,Oracle Performance Troubleshooting With Dictionary Internals SQL & Tuning Scripts,,,,Robin Schumacher,,,,,222,0,English ,,,,,,,,,,,,,,,0,,,,,1,,,2849970,pdf,3fe6ce7d9c96b923bae9dac80b0e716e,,,_268565.3fe6ce7d9c96b923bae9dac80b0e716e.pdf,0,2000-01-01 01:00:00,2016-04-03 02:51:08,827000/3fe6ce7d9c96b923bae9dac80b0e716e-g.jpg,,
5450544,Global Governance of Financial Systems: The International Regulation of Systemic Risk (Finance and the Economy),,The CERF Monographs on Finance and the Economy ,,"Kern Alexander, Rahul Dhumale, John Eatwell",2005,,"Oxford University Press, USA",,330,0,English ,,,,"0195166981,9780195166989",,,,,346/.082,K1066 .A9154 2004,,qvy4AAAAIAAJ,OL18639896M,,0,,,,1,0,1,1,1097522,pdf,3fe496f33cd4e7605a4ba67d75a31916,,,_303473.3fe496f33cd4e7605a4ba67d75a31916.pdf,0,2000-01-01 01:00:00,2016-04-03 02:51:08,827000/3fe496f33cd4e7605a4ba67d75a31916-d.jpg,,
5450542,The Making of Modern Economics: The Lives and Ideas of the Great Thinkers,,,,Mark Skousen,2001,,M.E. Sharpe,,504,0,English ,,,,"0765604795,9780765604798,0765604809,9780765604804",,,,,,,,,OL8054490M,without photos,0,,,,1,0,1,1,4933798,pdf,3fe17a97442a3b606e53702f5e936164,,,_307645.3fe17a97442a3b606e53702f5e936164.pdf,0,2000-01-01 01:00:00,2016-04-03 02:51:08,827000/3fe17a97442a3b606e53702f5e936164-d.jpg,,
5450543,Tu Futuro en Libertad,,,,Leopoldo Colín González,2008,,,,86,0,Spanish,,,,,,,,,,,,,,,0,,,,1,0,1,1,4923358,pdf,3fe256e2990f6d0b0c4de5fa0feac628,,,_294800.3fe256e2990f6d0b0c4de5fa0feac628.pdf,0,2000-01-01 01:00:00,2016-04-03 02:51:08,827000/3fe256e2990f6d0b0c4de5fa0feac628-g.jpg,,
5450541,Studien zum neutestamentlichen Briefformular (New Testament Tools and Studies 11),,New Testament Tools and Studies (NTTS) volume 11,,"Franz Schnider, Werner Stenger",1987,,Brill Academic Publishers,,199,0,German ,,,,"9004084142,9789004084148",,,,,227/.066,BS2635.2 .S33 1987,,,OL2375262M,,400,,,,1,1,1,1,11256842,pdf,3fe0fe0fa4c132edd498bce328f12168,,,_312040.3fe0fe0fa4c132edd498bce328f12168.pdf,0,2000-01-01 01:00:00,2016-04-03 02:51:08,827000/3fe0fe0fa4c132edd498bce328f12168-d.jpg,,
5450539,Write Your Own Realistic Fiction Story (Write Your Own series),,,,"Farrell, Tish",2006,,Compass Point Books,,64,0,English ,,,,"9780756516420,0756516420,0756518172,9780756518172",,,,,808.3,PN3355 .F37 2006,,,OL3414567M,,0,,,,,1,,,6211947,djvu,3fdb72271f92cce6164bad45da35f737,,,_296188.3fdb72271f92cce6164bad45da35f737.djvu,0,2000-01-01 01:00:00,2016-04-03 02:51:08,827000/3fdb72271f92cce6164bad45da35f737-d.jpg,,
5450540,"Jerusalem and Athens: The Congruity of Talmudic and Classical Philosophy (Supplements to the Journal for the Study of Judaism, V. 52)",,Supplements to the Journal for the Study of Judaism volume 52,,Jacob Neusner,1997,,Brill Academic Publishers,,182,0,English ,,,,"9004106987,9789004106987",,,,,296.1/2506,BM501 .N48337 1997,,,OL1011030M,,400,,,,0,1,1,1,12187260,pdf,3fdcef13633565eecf92e7a52517f8ff,,,_292380.3fdcef13633565eecf92e7a52517f8ff.pdf,0,2000-01-01 01:00:00,2016-04-03 02:51:08,827000/3fdcef13633565eecf92e7a52517f8ff-d.gif,,
5450538,Learning for Keeps: Teaching the Strategies Essential for Creating Independent Learners,,,,Rhoda Koenig,2010,,Association for Supervision & Curriculum Development,,211,0,English ,,,,"1416610855,9781416610854",,,,,,,,Qg1ihCwFz6sC,,,0,,,,1,0,1,1,3868745,pdf,3fdb1785e0889ebc56ab6296e43c67ac,,,_311397.3fdb1785e0889ebc56ab6296e43c67ac.pdf,0,2000-01-01 01:00:00,2016-04-03 02:51:08,827000/3fdb1785e0889ebc56ab6296e43c67ac-d.jpg,,
5450536,"Extending Ourselves: Computational Science, Empiricism, and Scientific Method",,,,Paul Humphreys,2004,,"Oxford University Press, USA",,183,0,English ,,,,"0195158709,9780195158700",,,,,,Q183.9.H82 2004,,,OL7390440M,,0,,,,0,0,0,1,1351666,pdf,3fd884c64ad62bffa4cecee76d5dbaf1,,,_310411.3fd884c64ad62bffa4cecee76d5dbaf1.pdf,0,2000-01-01 01:00:00,2016-04-03 02:51:08,827000/3fd884c64ad62bffa4cecee76d5dbaf1-d.jpg,,
5450537,Lectures on Lie Groups,,,,J. F. Adams,1969,,University Of Chicago Press,,192,0,English ,,,,"0226005305,9780226005300",,,,,512.55,QA387,,TC7d3ZcqjfsC,OL22156096M,,0,,,,0,1,1,1,764797,djvu,3fd8b3fa99fed6d707eb97b23b1d811e,,,_304764.3fd8b3fa99fed6d707eb97b23b1d811e.djvu,0,2000-01-01 01:00:00,2016-04-03 02:51:08,827000/3fd8b3fa99fed6d707eb97b23b1d811e-d.jpg,,
5450534,Unconventional Fossil-Based Fuels: Economic and Environmental Trade-Offs (Technical Report),,,,Michael Toman,2008,,RAND Corporation,,164,0,English ,,,,"0833045644,9780833045645",,,,,333.79/68,TN871 .U49 2008,,,OL17102686M,,0,,,,,1,,,725424,pdf,3fd2d748f0fa0b298d313619c6472e7c,,,_300773.3fd2d748f0fa0b298d313619c6472e7c.pdf,0,2000-01-01 01:00:00,2016-04-03 02:51:08,827000/3fd2d748f0fa0b298d313619c6472e7c-d.jpg,,
5450535,Matched Sampling for Causal Effects,,,,Donald B. Rubin,2006,1,Cambridge University Press,,502,0,English ,,,,"0521857627,9780521857628,9780511246791",,,,,,,,,OL7766982M,,0,,,,,1,,,2693760,pdf,3fd5ece2e36d509c7900b55915d65bdf,,,_6767.3fd5ece2e36d509c7900b55915d65bdf.pdf,0,2000-01-01 01:00:00,2016-04-03 02:51:08,827000/3fd5ece2e36d509c7900b55915d65bdf-d.jpg,,
5450532,El nacimiento del cristianismo,,,,Alfred Loisy,1948,,Argos Buenos Aires,,199,0,Spanish,,,,,,,,,,,,,,,0,,,,0,1,0,0,17163018,pdf,3fcefaea3e128be9c49f0493eabaee41,,,_314916.3fcefaea3e128be9c49f0493eabaee41.pdf,0,2000-01-01 01:00:00,2016-04-03 02:51:08,827000/3fcefaea3e128be9c49f0493eabaee41-g.jpg,,
5450533,"Gone (Wake Series, Book 3)",,,,Lisa McMann,2011,,,,126,0,English ,,,,,,,,,,,,,,,0,,,,,1,,,678621,pdf,3fd0e1696f7aeb97bc43689e17523d20,,,_308134.3fd0e1696f7aeb97bc43689e17523d20.pdf,0,2000-01-01 01:00:00,2016-04-03 02:51:08,827000/3fd0e1696f7aeb97bc43689e17523d20-g.jpg,,
5450530,A Comprehensive Text Book of Applied Physics,,,,Kumar Manoj,,,,,259,0,English ,,,,"9788182472266,8182472261",,,,,,,,,,,0,,,,,1,,,9351619,pdf,3fc2e81c291b1c05b89eb4454cdd35da,,,_210093.3fc2e81c291b1c05b89eb4454cdd35da.pdf,0,2000-01-01 01:00:00,2016-04-03 02:51:08,827000/3fc2e81c291b1c05b89eb4454cdd35da-g.jpg,,
5450531,"Internetworking with TCP IP Vol.1: Principles, Protocols, and Architecture (4th Edition)",,,,Douglas E. Comer,2000,4th,Prentice Hall,,783,0,English ,,,,"0130183806,9780130183804",,,,,,,,,OL18140857M,,0,,,,,1,1,0,38766735,pdf,3fcc0864f0c8976db1a0debf3cf9ba18,,,_307143.3fcc0864f0c8976db1a0debf3cf9ba18.pdf,0,2000-01-01 01:00:00,2016-04-03 02:51:08,827000/3fcc0864f0c8976db1a0debf3cf9ba18-d.jpg,,
5450529,Irish Elegies (New Directions in Irish and Irish American Literature),,New Directions in Irish and Irish American Literature ,,Chris Arthur,2009,,Palgrave Macmillan,,197,0,English ,,,,"0230615341,9780230615342",,,,,941.60824,DA990.U46 A727 2009,,,OL22553047M,,0,,,,1,0,1,1,1091774,pdf,3fc192983948cc77f832b72789ff33e8,,,_304768.3fc192983948cc77f832b72789ff33e8.pdf,0,2000-01-01 01:00:00,2016-04-03 02:51:08,827000/3fc192983948cc77f832b72789ff33e8-d.jpg,,
5450527,Mammakarzinom: Interdisziplinär 4. Auflage,,,,"Rolf Kreienberg, Volker Möbus, Walter Jonat, Thorsten Kühn",2010,4th Edition.,"Springer, Berlin",,416,0,German ,,,,"3642126804,9783642126802",,,,,,,,uE8ISYOMQ68C,,,0,,,,1,0,1,1,11724677,pdf,3fc04bd2053b561cbf7377fb670fb2c0,,,_311007.3fc04bd2053b561cbf7377fb670fb2c0.pdf,0,2000-01-01 01:00:00,2016-04-03 02:51:08,827000/3fc04bd2053b561cbf7377fb670fb2c0-d.jpg,,
5450528,The Power of Your Subconscious Mind,,,,"Joseph Murphy, Revised by Ian McMahan",2001,Revised,Bantam,,304,0,English ,,,,"0553583182,9780553583182",,,,,154.2,BF145 .M8 2001,,,OL22857884M,,0,,,,,1,,,1191348,pdf,3fc0d013154422767af8c2577211a2e8,,,_305855.3fc0d013154422767af8c2577211a2e8.pdf,0,2000-01-01 01:00:00,2016-04-03 02:51:08,827000/3fc0d013154422767af8c2577211a2e8-d.jpg,,
5450525,Language in the USA: Themes for the Twenty-first Century,,,,"Edward Finegan, John R. Rickford",2004,,Cambridge University Press,,522,0,English ,,,,"0521771757,9780521771757,052177747X,9780521777476",,,,,409/.73,P377 .L33 2004,,,OL22597192M,,0,,,,1,0,1,1,9355621,pdf,3fbbb486e2204c00a41250c36f580c00,,,_256575.3fbbb486e2204c00a41250c36f580c00.pdf,0,2000-01-01 01:00:00,2016-04-03 02:51:08,827000/3fbbb486e2204c00a41250c36f580c00-d.jpg,,
5450526,ИСТОРИЧЕСКИЕ ФАКТЫ  О ДЕЯНИЯХ АРМЯН НА АЗЕРБАЙДЖАНСКОЙ ЗЕМЛЕ,,,,Тамилла Мусаева,2003,,Нурлан,,69,0,Russian ,,,,,,,,,,,,,,,0,,,,0,0,0,1,1084078,pdf,3fbf5ec58e61799f0d28fb66bde0206a,,,_308334.3fbf5ec58e61799f0d28fb66bde0206a.pdf,0,2000-01-01 01:00:00,2016-04-03 02:51:08,827000/3fbf5ec58e61799f0d28fb66bde0206a-g.jpg,,
5450524,World Religions and Multiculturalism: A Dialectic Relation (International Comparative Social Studies),,International Comparative Social Studies ,,"Eliezer Ben-Rafael, Yitzhak Sternberg",2010,,Brill Academic Pub,,425,0,English ,,,,"9004188924,9789004188921",,,,,,,,chieSgAACAAJ,,,0,,,,1,0,1,1,1593600,pdf,3fbaafd8b70a24521e9ac07fb01a2612,,,_294677.3fbaafd8b70a24521e9ac07fb01a2612.pdf,0,2000-01-01 01:00:00,2016-04-03 02:51:08,827000/3fbaafd8b70a24521e9ac07fb01a2612-d.jpg,,
5450523,Career Imprints: Creating Leaders Across An Industry (J-B Warren Bennis Series),,,,Monica C. Higgins,2005,1,Jossey-Bass,,416,0,English ,,,,"0787977519,9780787977511,9780787979300",,,,,,,,,OL24271466M,,0,,,,,1,,,5266399,pdf,3fb596a7cc3995b944e4712118fcf4cd,,,_61524.3fb596a7cc3995b944e4712118fcf4cd.pdf,0,2000-01-01 01:00:00,2016-04-03 02:51:08,827000/3fb596a7cc3995b944e4712118fcf4cd-d.jpg,,
5450522,Essential Mathematical Methods for the Physical Sciences,,,,"K. F. Riley, M. P. Hobson",2011,,Cambridge University Press,,847,0,English ,,,,"052176114X,9780521761147",,,,,510,QA37.3 .R55 2011,,,OL24881336M,,0,,,,1,1,1,1,5963854,pdf,3fb0c4d9659ee7062afe9917938c2a4c,,,_254911.3fb0c4d9659ee7062afe9917938c2a4c.pdf,0,2000-01-01 01:00:00,2016-04-03 02:51:08,827000/3fb0c4d9659ee7062afe9917938c2a4c-d.jpg,,
5450520,Logic,,Science Primers ,,William Stanley Jevons,1879,,D. Aplleton and Company,,140,0,English ,,,,,,,,,,,,,,,0,,,,1,1,1,1,8074624,pdf,3faceb684083d10d961b3986544b3498,,,_302538.3faceb684083d10d961b3986544b3498.pdf,0,2000-01-01 01:00:00,2016-04-03 02:51:08,827000/3faceb684083d10d961b3986544b3498-g.jpg,,
5450521,"Christian Spirituality, Vol. 1: Origins to the Twelfth Century (World Spirituality, Vol. 16)",,,,"Bernard McGinn, John Meyendorf, Jean Leclercq",1987,,The Crossroad Publishing Company,,528,0,English ,,,,"0824508475,9780824508470",,,,,,,,,OL19289976M,,0,,,,0,1,0,1,2653796,pdf,3fae6858feedaf6ac474d8e5fc8c3894,,,_292982.3fae6858feedaf6ac474d8e5fc8c3894.pdf,0,2000-01-01 01:00:00,2016-04-03 02:51:08,827000/3fae6858feedaf6ac474d8e5fc8c3894-d.jpg,,
5450518,Constructions at Work: The Nature of Generalization in Language,,Oxford Linguistics ,,Adele Goldberg,2006,,"Oxford University Press, USA",,289,0,English ,,,,"0199268517,9780199268511,0199268525,9780199268528",,,,,,,,,OL22717829M,,0,,,,,0,1,1,2395025,pdf,3fa36a15fcf0c7e4f3a5827171d218f2,,,_256567.3fa36a15fcf0c7e4f3a5827171d218f2.pdf,0,2000-01-01 01:00:00,2016-04-03 02:51:08,827000/3fa36a15fcf0c7e4f3a5827171d218f2-d.jpg,,
5450519,Mémoire sur le Systéme Primitif des Voyelles dans les Langues Indo-Européennes (Cambridge Library Collection - Linguistics),,Cambridge Library Collection - Linguistics ,,Ferdinand de Saussure,2009,,Cambridge University Press,,322,0,French ,,,,"1108006590,9781108006590",,,,,,,,b7FqQgAACAAJ,,,0,,,,1,1,0,1,10951488,pdf,3faaad655a43cbbb3720eff6a4a26aa5,,,_335483.3faaad655a43cbbb3720eff6a4a26aa5.pdf,0,2000-01-01 01:00:00,2016-04-03 02:51:08,827000/3faaad655a43cbbb3720eff6a4a26aa5-d.jpg,,
5450516,Banking on Innovation: Modernisation of Payment Systems (Contributions to Economics),,,,"Tanai Khiaonarong, Jonathan Liebenau",2009,1,Physica-Verlag,,200,0,English ,,,,"3790823325,9783790823325",,,,,332.178,HG1710 .T37 2009,,sDhWme2ESPAC,OL24815216M,,0,,,,1,1,1,1,1638125,pdf,3f98b39c4409f7b491710de12cbabae8,,,_259504.3f98b39c4409f7b491710de12cbabae8.pdf,0,2000-01-01 01:00:00,2016-04-03 02:51:08,827000/3f98b39c4409f7b491710de12cbabae8-d.jpg,,
5450517,Music as Discourse: Semiotic Adventures in Romantic Music (Oxford Studies in Music Theory),,,,Kofi Agawu,2008,,"Oxford University Press, USA",,345,0,English ,,,,"0195370244,9780195370249",,,,,781.1/7,MT6 .A286 2008,,,OL16435839M,,0,,,,,1,1,1,6871539,pdf,3fa21bab00ade2850276fdc3d0f54c97,,,_292711.3fa21bab00ade2850276fdc3d0f54c97.pdf,0,2000-01-01 01:00:00,2016-04-03 02:51:08,827000/3fa21bab00ade2850276fdc3d0f54c97-d.jpg,,
5450515,Daal Recipes (Cookbook),,,,The Sify Food Contributors,2005,,Sify Food,,51,0,English ,,,,,,,,,,,,,,,0,,,,1,0,1,1,243256,pdf,3f9530347e0490536ef1e06ab212d22f,,,_309099.3f9530347e0490536ef1e06ab212d22f.pdf,0,2000-01-01 01:00:00,2016-04-03 02:51:08,827000/3f9530347e0490536ef1e06ab212d22f-g.jpg,,
5450513,Flesh of the God (Mystery of Ancient Egypt),,,,Lauren Haney,2003,First Edition,Avon,,352,0,English ,,,,"0060521899,9780060521899,9780061365935",,,,,,,,,OL22154666M,,0,,,,,1,,,1015678,pdf,3f93e138460aabcbdbb1b91d3d413908,,,_42014.3f93e138460aabcbdbb1b91d3d413908.pdf,0,2000-01-01 01:00:00,2016-04-03 02:51:08,827000/3f93e138460aabcbdbb1b91d3d413908-d.jpg,,
5450514,Ray Tracing from the Ground Up,,,,Kevin Suffern,2007,,A K Peters,,782,0,English ,,,,"1568812728,9781568812724",,,,,006.6,T385 .S7995 2007,,Ogq9GAAACAAJ,OL12190676M,,0,,,,1,0,0,1,109955254,pdf,3f940cf0724b02f7dc49f0ccf7159b82,,,_311102.3f940cf0724b02f7dc49f0ccf7159b82.pdf,0,2000-01-01 01:00:00,2016-04-03 02:51:08,827000/3f940cf0724b02f7dc49f0ccf7159b82-d.jpg,,
5450512,Açıklamalı İstiklal Marşı ve Gençliğe Hitabe,,,,İsmail Acar,,,,,143,0,Turkish ,,,,,,,,,,,,,,,0,,,,,1,,,633787,pdf,3f931de9b5fd2af6c9d31ab3520a3441,,,_313645.3f931de9b5fd2af6c9d31ab3520a3441.pdf,0,2000-01-01 01:00:00,2016-04-03 02:51:08,827000/3f931de9b5fd2af6c9d31ab3520a3441-g.jpg,,
5450510,Viva la Repartee: Clever Comebacks and Witty Retorts from History's Great Wits and Wordsmiths,,,,Mardy Grothe,2005,1ST,Harper,,303,0,English ,,,,"0060789484,9780060789480",,,,,082/.02/07,PN6084.H8 G76 2005,,,OL3423442M,,0,,,,0,1,0,1,9958343,pdf,3f92628bd806375648c685d86aab157c,,,_258723.3f92628bd806375648c685d86aab157c.pdf,0,2000-01-01 01:00:00,2016-04-03 02:51:08,827000/3f92628bd806375648c685d86aab157c-d.jpg,,
5450511,"Lorazepam - A Medical Dictionary, Bibliography, and Annotated Research Guide to Internet References",,,,ICON Health Publications,,,,,168,0,English ,,,,,,,,,,,,,,,0,,,,,1,,,1380987,pdf,3f930ce8d231c33d8ca655b4bbb0c8b8,,,_218035.3f930ce8d231c33d8ca655b4bbb0c8b8.pdf,0,2000-01-01 01:00:00,2016-04-03 02:51:08,827000/3f930ce8d231c33d8ca655b4bbb0c8b8-g.jpg,,
5450509,Crooked: A History of Cheating in Sports,,,,Fran Zimniuch,2009,,Taylor Trade Publishing,,240,0,English ,,,,"1589793854,9781589793859,9781589794191,1589794192",,,,,174.9796,GV706.3 .Z56 2009,,,OL22560443M,,0,,,,,1,,,1241098,pdf,3f909bfc6d69ed27d35e673b9137096d,,,_206868.3f909bfc6d69ed27d35e673b9137096d.pdf,0,2000-01-01 01:00:00,2016-04-03 02:51:08,827000/3f909bfc6d69ed27d35e673b9137096d-d.jpg,,
5450507,"Lexical-Functional Grammar (Syntax and Semantics, Volume 34)",,,,Mary Dalrymple,2001,1,Emerald Group Publishing Limited,,486,0,English ,,,,"9780126135343,9780585492216,0126135347",,,,,401/.43,"P1 .S9 vol. 34,P158.25 .S9 vol. 34",,,OL18730747M,,0,,,,,1,,,21246077,pdf,3f8d4ba9435d39214029ce141fa71000,,,_381548.3f8d4ba9435d39214029ce141fa71000.pdf,0,2000-01-01 01:00:00,2016-04-03 02:51:08,827000/3f8d4ba9435d39214029ce141fa71000-d.jpg,,
5450508,The Korean War: An Annotated Bibliography,,Routledge Research Guides to American Military Studies ,,Keith D. McFarland,2009,Rev. 2nd,Routledge,,452,0,English ,,,,"0415991978,9780415991971,0203865162,9780203865163",,,,,016.951904/2,"Z3319.K6 M38 2009,DS918 M38 2009",,yGCUE5nzvCYC,OL23392436M,,0,,,,1,0,1,1,1774930,pdf,3f8fba344dc7cbe805036665e8a8b99e,,,_302776.3f8fba344dc7cbe805036665e8a8b99e.pdf,0,2000-01-01 01:00:00,2016-04-03 02:51:08,827000/3f8fba344dc7cbe805036665e8a8b99e-d.jpg,,
5450505,Organic Geochemistry,,,,Stephen Killops and Vanessa Killops,,,,,406,0,English ,,,,,,,,,,,,,,,0,,,,,1,,,5374524,pdf,3f8a4e103f8df69949f7ec06dc79c7b2,,,_314810.3f8a4e103f8df69949f7ec06dc79c7b2.pdf,0,2000-01-01 01:00:00,2016-04-03 02:51:08,827000/3f8a4e103f8df69949f7ec06dc79c7b2-g.jpg,,
5450506,Displaying the Orient: Architecture of Islam at Nineteenth-Century World's Fairs,,Comparative Studies on Muslim Societies ,,Zeynep Çelik,1992,,University of California Press,,130,0,English ,,,,"0520074947,9780520074941",,,,,725/.91,NA957 .C44 1992,,,OL1535614M,,0,,,,0,1,0,1,24234486,pdf,3f8ae605583ef6209c83d22841804236,,,_254984.3f8ae605583ef6209c83d22841804236.pdf,0,2000-01-01 01:00:00,2016-04-03 02:51:08,827000/3f8ae605583ef6209c83d22841804236-d.jpg,,
5450503,Inventing Money: The Story of Long-Term Capital Management and the Legends Behind It,,,,Nicholas Dunbar,2001,1,John Wiley & Sons,,262,0,English ,,,,"0471498114,9780471498117",,,,,,,,,OL7618371M,,0,,,,,1,,,10422697,pdf,3f834a2fccef9c401e53167a73b5c233,,,_279577.3f834a2fccef9c401e53167a73b5c233.pdf,0,2000-01-01 01:00:00,2016-04-03 02:51:08,827000/3f834a2fccef9c401e53167a73b5c233-d.jpg,,
5450504,What Is Terrorism? (The Roots of Terrorism),,,,"Leonard Weinberg, William Lee Eubank",2006,,Chelsea House Pub (L),,104,0,English ,,,,"0791083055,9780791083055,9781438107219",,,,,303.6/25,HV6431 .W443 2005,,,OL3411497M,,0,,,,,1,,,1773987,pdf,3f89b2249b2e996f7fb645305298ed14,,,_51169.3f89b2249b2e996f7fb645305298ed14.pdf,0,2000-01-01 01:00:00,2016-04-03 02:51:08,827000/3f89b2249b2e996f7fb645305298ed14-d.jpg,,
5450502,Build Your Own PC Do-It-Yourself For Dummies (For Dummies (Computer Tech)),,,,Mark L. Chambers,2009,1,For Dummies,,336,0,English ,,,,"0470196114,9780470196113",,,,,,,,,,,0,,,,,1,,,7201824,pdf,3f8272c07fbe35a266377fa75324c477,,,_120954.3f8272c07fbe35a266377fa75324c477.pdf,0,2000-01-01 01:00:00,2016-04-03 02:51:08,827000/3f8272c07fbe35a266377fa75324c477-d.jpg,,
5450500,"Energy Minimization Methods in Computer Vision and Pattern Recognition: 7th International Conference, EMMCVPR 2009, Bonn, Germany, August 24-27, 2009, ... Vision, Pattern Recognition, and Graphics)",,Lecture Notes in Computer Science volume 5681,,"Daniel Cremers, Yuri Boykov, Andrew Blake, Frank R. Schmidt",2009,1,Springer,,501,0,English ,,,,"3642036406,9783642036408",,,,,,,,,,,0,,,,0,0,1,1,17622949,pdf,3f81e15e1f917906323a5c7d0992c3a6,,,_309290.3f81e15e1f917906323a5c7d0992c3a6.pdf,0,2000-01-01 01:00:00,2016-04-03 02:51:08,827000/3f81e15e1f917906323a5c7d0992c3a6-d.jpg,,
5450501,Wittgenstein's Poker: The Story of a Ten-Minute Argument Between Two Great Philosophers,,,,"David Edmonds, John Eidinow",2002,,Harper Perennial,,320,0,English ,,,,"0060936649,9780060936648",,,,,,,,,OL17087490M,,0,,,,1,0,0,1,2567074,pdf,3f81f84f4049a0f6b5d4346fcce9090e,,,_296971.3f81f84f4049a0f6b5d4346fcce9090e.pdf,0,2000-01-01 01:00:00,2016-04-03 02:51:08,827000/3f81f84f4049a0f6b5d4346fcce9090e-d.jpg,,
5450499,II vizio oscuro dell'Occidente: Manifesto dell'Antimodernità,,,,Massimo Fini,2002,,Marsilio,,69,0,Italian ,,,,8831781758,,,,,,,,,OL3743414M,,0,,,,0,1,0,1,360103,pdf,3f80474c4f3f7996d4e12c5c1c5515eb,,,_314115.3f80474c4f3f7996d4e12c5c1c5515eb.pdf,0,2000-01-01 01:00:00,2016-04-03 02:51:08,827000/3f80474c4f3f7996d4e12c5c1c5515eb-g.jpg,,
5450497,The Act of Writing: A Media Theory Approach,,,,Daniel Chandler,1995,,Prifysgol Cymru,,275,0,English ,,,,"0903878445,9780903878449",,,,,,,,,OL21723315M,,0,,,,1,0,1,1,1445538,pdf,3f7f9c0eb2ec896152ca4d1e934c3213,,,_296050.3f7f9c0eb2ec896152ca4d1e934c3213.pdf,0,2000-01-01 01:00:00,2016-04-03 02:51:08,827000/3f7f9c0eb2ec896152ca4d1e934c3213-d.jpg,,
5450498,"Russia, Freaks and Foreigners: Three Performance Texts (Intellect Books - Play Text)",,,,James MacDonald,2008,,Intellect Ltd,,224,0,English ,,,,"1841501867,9781841501864,9781435653269",,,,,,,,,,,0,,,,,1,,,785093,pdf,3f7ff0cd7936854a24523899f7f11c08,,,_208766.3f7ff0cd7936854a24523899f7f11c08.pdf,0,2000-01-01 01:00:00,2016-04-03 02:51:08,827000/3f7ff0cd7936854a24523899f7f11c08-d.jpg,,
5450495,Build Your Own Home Office Furniture (Popular Woodworking),,,,Danny Proulx,2001,,Popular Woodworking Books,,130,0,English ,,,,"1558705619,9781558705616",,,,,,,,,OL8607613M,,0,,,,0,1,0,0,18174984,pdf,3f7833aadfc4685a77240705659be9d4,,,_303904.3f7833aadfc4685a77240705659be9d4.pdf,0,2000-01-01 01:00:00,2016-04-03 02:51:08,827000/3f7833aadfc4685a77240705659be9d4-d.jpg,,
5450496,ESD : RF Technology and Circuits,,,,Steven H. Voldman,2006,1,Wiley,,420,0,English ,,,,"0470847557,9780470847558,9780470061398",,,,,,,,,OL22740650M,,0,,,,,1,,,4245967,pdf,3f7ce7a6c3b3e7048ee895e57b50976b,,,_181111.3f7ce7a6c3b3e7048ee895e57b50976b.pdf,0,2000-01-01 01:00:00,2016-04-03 02:51:08,827000/3f7ce7a6c3b3e7048ee895e57b50976b-d.jpg,,
5450494,Between Kant and Hegel: Texts in the Development of Post-Kantian Idealism,,,,"George Di Giovanni, H. S. Harris",2000,Revised,Hackett Pub Co Inc,,456,0,English ,,,,"0872205045,9780872205048",,,,,142/.3,B2741 .B485 2000,,,OL47887M,,0,,,,,1,1,1,26855154,pdf,3f76f7fd89372220d8b49c383b177b93,,,_312247.3f76f7fd89372220d8b49c383b177b93.pdf,0,2000-01-01 01:00:00,2016-04-03 02:51:08,827000/3f76f7fd89372220d8b49c383b177b93-d.jpg,,
5450491,Hadis Değerlendirmelerinde Bütünlük,,,,Selçuk Coşkun,,,,,357,0,Turkish ,,,,9756755733,,,,,,,,,,,0,,,,,1,,,16908439,pdf,3f6d9c9b9e2d38e71d86db5d1682ba61,,,_254699.3f6d9c9b9e2d38e71d86db5d1682ba61.pdf,0,2000-01-01 01:00:00,2016-04-03 02:51:08,827000/3f6d9c9b9e2d38e71d86db5d1682ba61-g.jpg,,
5450492,The International Encyclopedia of Communication,,,,Wolfgang Donsbach,2008,1,Wiley-Blackwell,,6128,0,English ,,,,"1405131993,9781405131995",,,,,302.203,P87.5 .I58 2008,,,OL11650132M,,0,,,,1,0,1,1,39691203,pdf,3f6f2cbbc6c809979a6db1c8646d7895,,,_296387.3f6f2cbbc6c809979a6db1c8646d7895.pdf,0,2000-01-01 01:00:00,2016-04-03 02:51:08,827000/3f6f2cbbc6c809979a6db1c8646d7895-d.jpg,,
5450493,Prevent and Tame: Protest under (Self)Control,,Manuskripte (Rosa-Luxemburg-Stiftung) volume 88,,"Florian Hessdörfer, Andrea Pabst, Peter Ullrich",2010,,"Dietz, Berlin",,122,0,English ,,,,"3320022466,9783320022464",,,,,,,,,,,0,,,,0,0,0,1,443500,pdf,3f769a7a56219361572ab74065904baa,,,_296888.3f769a7a56219361572ab74065904baa.pdf,0,2000-01-01 01:00:00,2016-04-03 02:51:08,827000/3f769a7a56219361572ab74065904baa-g.jpg,,
5450490,Analytical Chemistry of Bacillus thuringiensis (Acs Symposium Series),,,,"Leslie A. Hickle, William L. Fitch",1990,Proceedings,An American Chemical Society Publication,,154,0,English ,,,,"0841218153,9780841218154",,,,,632/.951,QP632.B3 A53 1990,DOI: 10.1021/bk-1990-0432,,OL1878461M,,0,,,,,0,,1,3723936,pdf,3f6a6700d29c900520794ead8283c6a8,,,_313783.3f6a6700d29c900520794ead8283c6a8.pdf,0,2000-01-01 01:00:00,2016-04-03 02:51:08,827000/3f6a6700d29c900520794ead8283c6a8-d.jpg,,
5450488,Comunicação e Política,,,,João Carlos Correia (Org.),2005,,LabCom,,232,0,Portuguese (Portugalian),,,,,,,,,,,,,,,0,,,,1,1,,,992881,pdf,3f59b9fbc30425d70a5b8683fc89d7b6,,,_297217.3f59b9fbc30425d70a5b8683fc89d7b6.pdf,0,2000-01-01 01:00:00,2016-04-03 02:51:08,827000/3f59b9fbc30425d70a5b8683fc89d7b6-g.jpg,,
5450489,Enabling Semantic Web Services: The Web Service Modeling Ontology,,,,"Dieter Fensel, Holger Lausen, Axel Polleres, Jos de Bruijn, Michael Stollberg, Dumitru Roman, John Domingue",2006,1,Springer,,191,0,English ,,,,"3540345191,9783540345190",,,,,,,,SThetVflcxwC,OL9056563M,,0,,,,0,0,0,1,3160943,pdf,3f681104cb86d73f1e02ab4f0875defd,,,_302288.3f681104cb86d73f1e02ab4f0875defd.pdf,0,2000-01-01 01:00:00,2016-04-03 02:51:08,827000/3f681104cb86d73f1e02ab4f0875defd-d.jpg,,
5450487,Meditation in Action,,,,Chogyam Trungpa,1996,,Shambhala,,96,0,English ,,,,"1570622027,9781570622021,9781590301593,1590301595,9780394730257,0394730259",,,,,,,,,OL22322485M,,0,,,,,1,,,27545214,pdf,3f588cc64b41e007885c34e2ea1d081f,,,_206459.3f588cc64b41e007885c34e2ea1d081f.pdf,0,2000-01-01 01:00:00,2016-04-03 02:51:08,827000/3f588cc64b41e007885c34e2ea1d081f-d.jpg,,
5450486,Insect Population Ecology: An Analytical Approach,,,,"G. C. Varley, G. R. Gradwell, M. P. Hassell",1974,,University of California Press,,212,0,English ,,,,"0520026675,9780520026674",,,,,595.7/05/24,QL496.15,,,OL22246972M,,0,,,,,1,,,51780002,pdf,3f57474bd392c47308a3bdf52b96996d,,,_303016.3f57474bd392c47308a3bdf52b96996d.pdf,0,2000-01-01 01:00:00,2016-04-03 02:51:08,827000/3f57474bd392c47308a3bdf52b96996d-d.jpg,,
5450484,Public Enemy,,,,Will Staeger,2007,,Harper,,480,0,English ,,,,"0060765909,9780060765903,0060765879,9780060765873,9780061192982",,,,,813/.6,PS3619.T343 P83 2006,,,OL24252832M,,0,,,,,1,,,2303588,pdf,3f56587cb48f1e01cb9d72f25d21e9c4,,,_42317.3f56587cb48f1e01cb9d72f25d21e9c4.pdf,0,2000-01-01 01:00:00,2016-04-03 02:51:08,827000/3f56587cb48f1e01cb9d72f25d21e9c4-d.jpg,,
5450485,Security for Debt in Ancient Near Eastern Law (Culture and History of the Ancient Near East),,Culture and History of the Ancient Near East volume 9,,"Richard Jasnow, Raymond Westbrook",2001,,Brill Academic Publishers,,368,0,English ,,,,"9004121242,9789004121249",,,,,,,,LkfeyR6QPRkC,OL9084292M,,300,,,,1,0,1,1,13992168,pdf,3f5693040fbc5ff807fa7053d6432d92,,,_297150.3f5693040fbc5ff807fa7053d6432d92.pdf,0,2000-01-01 01:00:00,2016-04-03 02:51:08,827000/3f5693040fbc5ff807fa7053d6432d92-d.jpg,,
5450482,Handfasting and Wedding Rituals: Welcoming Hera's Blessing,,,,"Raven Kaldera, Tannin Schwartzstein",2003,,Llewellyn Publications,,320,0,English ,,,,,,,,,,,,,,,0,,,,0,1,1,1,16198461,pdf,3f51058e0d53e2278780614f1ed30ca4,,,_314968.3f51058e0d53e2278780614f1ed30ca4.pdf,0,2000-01-01 01:00:00,2016-04-03 02:51:08,827000/3f51058e0d53e2278780614f1ed30ca4-g.jpg,,
5450483,Dynamic and Mobile GIS: Investigating Changes in Space and Time (Innovations in GIS),,,,"Roland Billen, Elsa Joao, David Forrest",2006,,CRC Press,,344,0,English ,,,,"0849390923,9780849390920",,,,,910.285,G70.212 .D96 2007,,,OL17551159M,,0,,,,,1,,,12362456,pdf,3f54b21235e2c50f01675187b734a265,,,_311592.3f54b21235e2c50f01675187b734a265.pdf,0,2000-01-01 01:00:00,2016-04-03 02:51:08,827000/3f54b21235e2c50f01675187b734a265-d.jpg,,
5450481,"Metals in the Environment: Analysis by Biodiversity (Books in Soils, Plants, and the Environment)",,"Books in Soils, Plants, and the Environment ",,M.N.V. Prasad,2001,1,CRC Press,,500,0,English ,,,,"0824705238,9780824705237",,,,,,,,,OL17023413M,,0,,,,1,0,,1,9136601,pdf,3f4f0f6f083661436e2a86a013865276,,,_312718.3f4f0f6f083661436e2a86a013865276.pdf,0,2000-01-01 01:00:00,2016-04-03 02:51:08,827000/3f4f0f6f083661436e2a86a013865276-d.jpg,,
5450480,Basil: The Genus Ocimum (Medicinal and Aromatic Plants - Industrial Profiles),,,,"Raimo Hiltunen, Yvonne Holm",1999,1,CRC Press,,152,0,English ,,,,"9057024322,9789057024320",,,,,583/.96,SB317.B25 B37 1999,,,OL3629734M,,0,,,,,1,,,2173516,pdf,3f4ef575a2311165a5b49f2e1ef0182d,,,_294270.3f4ef575a2311165a5b49f2e1ef0182d.pdf,0,2000-01-01 01:00:00,2016-04-03 02:51:08,827000/3f4ef575a2311165a5b49f2e1ef0182d-d.jpg,,
5450478,Radio Frequency Integrated Circuit Design,,,,"John M. W. Rogers, Calvin Plett",2010,2,Artech House Publishers,,534,0,English ,,,,"1607839792,9781607839798",,,,,,,,mL_dDPfWMxYC,,,0,,,,1,0,1,1,8657339,pdf,3f4b46addd24e64d236c16d007fadef8,,,_303534.3f4b46addd24e64d236c16d007fadef8.pdf,0,2000-01-01 01:00:00,2016-04-03 02:51:08,827000/3f4b46addd24e64d236c16d007fadef8-d.jpg,,
5450479,Protecting Intellectual Freedom in Your School Library: Scenarios from the Front Lines (Intellectual Freedom Front Lines),,,,Pat R. Scales,2009,,American Library Association,,148,0,English ,,,,"0838935818,9780838935811",,,,,025.2/13,Z675.S3 S258 2009,,,OL22551425M,,0,,,,,1,,,831879,pdf,3f4d62b0f6a5edc7afaf82b90c379635,,,_184185.3f4d62b0f6a5edc7afaf82b90c379635.pdf,0,2000-01-01 01:00:00,2016-04-03 02:51:08,827000/3f4d62b0f6a5edc7afaf82b90c379635-d.jpg,,
5450476,Biographical Dictionary of New Chinese Entrepreneurs and Business Leaders,,,,"Wenxian Zhang, Ilan Alon",2009,,Edward Elgar Pub,,269,0,English ,,,,"1847206360,9781847206367",,,,,,,,,,,0,,,,,1,,,1521178,pdf,3f42254b8d65b6a72b71d77cd68e3ae1,,,_296872.3f42254b8d65b6a72b71d77cd68e3ae1.pdf,0,2000-01-01 01:00:00,2016-04-03 02:51:08,827000/3f42254b8d65b6a72b71d77cd68e3ae1-d.jpg,,
5450477,The Many Roads to Japan,,,,Robert W. Norris,2005,,Lulu.com,,44,0,English ,,,,,,,,,,,,,,,0,,,,0,1,1,1,605708,pdf,3f44f6711ab5df24f7df9b41eac76ec9,,,_310948.3f44f6711ab5df24f7df9b41eac76ec9.pdf,0,2000-01-01 01:00:00,2016-04-03 02:51:08,827000/3f44f6711ab5df24f7df9b41eac76ec9-g.jpg,,
5450475,Children Talk About the Mind,,,,"Karen Bartsch, Henry M. Wellman",1995,1St Edition,"Oxford University Press, USA",,248,0,English ,,,,"019508005X,9780195080056,9781423734536",,,,,150/.83,BF723.C5 B27 1995,,,OL1084419M,,0,,,,,1,1,,14480528,pdf,3f3b000d94209358b18560720918e08a,,,_71522.3f3b000d94209358b18560720918e08a.pdf,0,2000-01-01 01:00:00,2016-04-03 02:51:08,827000/3f3b000d94209358b18560720918e08a-d.jpg,,
5450473,Teaching collocation - Further development in lexical approach,,,,Michael Lewis (Ed.),2000,,Thomson Heinle Language Teaching Publications ELT,,248,0,English ,,,,189939611X,,,,,,,,,,,0,,,,,1,,,26850347,pdf,3f370fc6a2ca6072e2eeda68591e461f,,,_314923.3f370fc6a2ca6072e2eeda68591e461f.pdf,0,2000-01-01 01:00:00,2016-04-03 02:51:08,827000/3f370fc6a2ca6072e2eeda68591e461f-d.jpg,,
5450474,Crucigramas Didacticos III,,,,Eduardo Rosset Cardenal,,,,,43,0,Spanish,,,,"8478732578,9788478732579,9781417581504",,,,,,,,,,,0,,,,1,0,1,1,1923525,pdf,3f376b3b2639c98f6d2ec72179820cae,,,_97772.3f376b3b2639c98f6d2ec72179820cae.pdf,0,2000-01-01 01:00:00,2016-04-03 02:51:08,827000/3f376b3b2639c98f6d2ec72179820cae-g.jpg,,
5450471,(تفسیر صديقى (جلد 17,,,,محمد عبدالقدير صديقى,,,,,108,0,Urdu ,,,,,,,,,,,,,,,0,,,,,1,,,4570557,pdf,3f2dd3b91f5033b795a63cd37d0dd055,,,_300233.3f2dd3b91f5033b795a63cd37d0dd055.pdf,0,2000-01-01 01:00:00,2016-04-03 02:51:08,827000/3f2dd3b91f5033b795a63cd37d0dd055-g.jpg,,
5450472,Методика преподавания английского языка в вузе,,,,Дмитренко Т.А.,2009,,Московский экономико-лингвистический институт,,92,0,Russian ,,,,,,,,,,,,,,,0,,,,,1,0,0,31420569,pdf,3f34aedd7bb7be7c8abbd8f8453369bd,,,_295666.3f34aedd7bb7be7c8abbd8f8453369bd.pdf,0,2000-01-01 01:00:00,2016-04-03 02:51:08,827000/3f34aedd7bb7be7c8abbd8f8453369bd-g.jpg,,
5450469,"Analysen zur passiven Synthesis: Aus Vorlesungs-und Forschungsmanuskripten (1918-1926) (Husserliana: Edmund Husserl - Gesammelte Werke, Vol.11)",,,,"Edmund Husserl, M. Fleischer",1966,,Matinus Nijhoff,,224,0,German ,,,,,,,,,,,,Iw7JPAAACAAJ,,xii-xxiv and 438-end (numeration of the book),0,,,,0,1,0,0,24735834,pdf,3f25751203af7706474bb7d3f370c067,,,_301931.3f25751203af7706474bb7d3f370c067.pdf,0,2000-01-01 01:00:00,2016-04-03 02:51:08,827000/3f25751203af7706474bb7d3f370c067-g.jpg,,
5450470,Communicate Effectively (The McGraw-Hill Professional Education Series),,,,Lani Arredondo,2007,,McGraw-Hill,,67,0,English ,,,,,,,,,,,,,,,0,,,,,1,,1,374836,pdf,3f281f4eecf9cbb0a8116ec1724fb762,,,_250157.3f281f4eecf9cbb0a8116ec1724fb762.pdf,0,2000-01-01 01:00:00,2016-04-03 02:51:08,827000/3f281f4eecf9cbb0a8116ec1724fb762-g.jpg,,
5450466,Branded Male: Marketing to Men,,,,Mark Tungate,2009,,Kogan Page Ltd,,257,0,English ,,,,"0749450118,9780749450113,9780749453565",,,,,,,,HX4kT1-OaWgC,OL10768864M,,0,,,,1,0,1,1,2982633,pdf,3f1b7a2c8e6838c2f6ce7727b59f75e9,,,_305249.3f1b7a2c8e6838c2f6ce7727b59f75e9.pdf,0,2000-01-01 01:00:00,2016-04-03 02:51:08,827000/3f1b7a2c8e6838c2f6ce7727b59f75e9-d.jpg,,
5450467,"Standards of Practice Handbook, Tenth Edition 2010",,,,CFA Institute,2010,,CFA Institute,,232,0,English ,,,,"0938367226,9780938367222",,,,,,,,,,,0,,,,,1,,,1250092,pdf,3f1ff9a7bde91a10597e89a53c222016,,,_306719.3f1ff9a7bde91a10597e89a53c222016.pdf,0,2000-01-01 01:00:00,2016-04-03 02:51:08,827000/3f1ff9a7bde91a10597e89a53c222016-d.jpg,,
5450468,Türkiyede Beş Yıl Cilt III,,,,Liman von Sanders,,,,,116,0,Turkish ,,,,,,,,,,,,,,,0,,,,,1,,,392184,pdf,3f20a6188c80bcb05ef147d541934a24,,,_313610.3f20a6188c80bcb05ef147d541934a24.pdf,0,2000-01-01 01:00:00,2016-04-03 02:51:08,827000/3f20a6188c80bcb05ef147d541934a24-g.jpg,,
5450465,"Making Silver Chains: Simple Techniques, Beautiful Designs",,,,Glen Waszek,2001,,Lark Books,,112,0,English ,,,,"1579901832,9781579901837",,,,,,,,,OL8759347M,,0,,,,0,1,0,0,39328180,pdf,3f1b459d2b33bcc805b31c9085c7f562,,,_313344.3f1b459d2b33bcc805b31c9085c7f562.pdf,0,2000-01-01 01:00:00,2016-04-03 02:51:08,827000/3f1b459d2b33bcc805b31c9085c7f562-d.jpg,,
5450463,Case Studies in Sleep Neurology: Common and Uncommon Presentations (Case Studies in Neurology),,,,Antonio Culebras,2010,,Cambridge University Press,,320,0,English ,,,,,,,,,,,,,,,0,,,,1,0,1,1,5497531,pdf,3f143f4881ae4879090cef536641cce1,,,_250107.3f143f4881ae4879090cef536641cce1.pdf,0,2000-01-01 01:00:00,2016-04-03 02:51:08,827000/3f143f4881ae4879090cef536641cce1-g.jpg,,
5450464,Les eaux continentales,,,,"Ghislain de Marsily, Collectif",2006,,EDP SCIENCES,,359,0,French ,,,,"2868838634,9782868838636",,,,,,,,,,,0,,,,,1,,,3690958,pdf,3f1719ca4835f98922cd77629a1e0166,,,_298731.3f1719ca4835f98922cd77629a1e0166.pdf,0,2000-01-01 01:00:00,2016-04-03 02:51:08,827000/3f1719ca4835f98922cd77629a1e0166-d.jpg,,
5450462,"Comprehensive Electrocardiology, Second Edition  (4-Volume Set)",,Springer Reference volume 4 Volume Set,,"Peter W. Macfarlane, Adriaan van Oosterom, Olle Pahlm, Paul Kligfield, Michiel Janse, John Camm",2010,2,Springer,,2310,0,English ,,,,"184882047X,9781848820470,1848820453,9781848820456,1848820461,9781848820463",,,,,,,,,,,0,,,,1,0,1,1,76135284,pdf,3f12cbeb8bd7cf8353244998ba5daba7,,,_252458.3f12cbeb8bd7cf8353244998ba5daba7.pdf,0,2000-01-01 01:00:00,2016-04-03 02:51:08,827000/3f12cbeb8bd7cf8353244998ba5daba7-d.jpg,,
5450460,How to Solve Word Problems in Geometry (How to Solve Word Problems),,,,Dawn B. Sova,1999,1,McGraw-Hill,,158,0,English ,,,,"007134652X,9780071346528",,,,,516,QA461 .S68 2000,,Vb59ajXYzrAC,OL43447M,,600,,,,0,1,0,1,854100,djvu,3f0be776bed2c39430bf9904d3134fcc,,,_299061.3f0be776bed2c39430bf9904d3134fcc.djvu,0,2000-01-01 01:00:00,2016-04-03 02:51:08,827000/3f0be776bed2c39430bf9904d3134fcc-d.jpg,,
5450461,Occupational Therapy Evidence in Practice for Mental Health,,,,"Cathy Long, Jane Cronin-Davis",2007,1,Wiley-Blackwell,,208,0,English ,,,,"1405146664,9781405146661",,,,,616.89/165,RC439.5 .O23 2006,,,OL18007333M,,0,,,,,1,1,1,2657614,pdf,3f0f5ccbde9257388a6710d97bc6d1ce,,,_252690.3f0f5ccbde9257388a6710d97bc6d1ce.pdf,0,2000-01-01 01:00:00,2016-04-03 02:51:08,827000/3f0f5ccbde9257388a6710d97bc6d1ce-d.jpg,,
5450458,"How to Read a Financial Report: Wringing Vital Signs Out of the Numbers, 5th Edition",,,,John A.  Tracy,1999,5th,Wiley,,192,0,English ,,,,"9780471327066,9780471329350,9780585277431,0471327069,0471329355",,,,,657/.3,HF5681.B2 T733 1999,,,OL386352M,,0,,,,,1,,,4302465,pdf,3f06eaa741873d2226510c72d3fe11be,,,_14871.3f06eaa741873d2226510c72d3fe11be.pdf,0,2000-01-01 01:00:00,2016-04-03 02:51:08,827000/3f06eaa741873d2226510c72d3fe11be-d.jpg,,
5450459,"Logique, informatique et paradoxes",,,,Jean-Paul Delahaye,1995,,Pour la Science,,156,0,French ,,,,"2902918941,9782902918942",,,,,,,,,OL9007510M,,0,,,,0,1,0,1,10420280,pdf,3f0a27e7fe14700ab5d4fe0f7ee3bd65,,,_298647.3f0a27e7fe14700ab5d4fe0f7ee3bd65.pdf,0,2000-01-01 01:00:00,2016-04-03 02:51:08,827000/3f0a27e7fe14700ab5d4fe0f7ee3bd65-d.jpg,,
5450456,Paraguay: Ecological Essays,,,,Richard Gorham,1973,,,,319,0,English ,,,,,,,,,,,,,,,0,,,,,1,,,75075914,pdf,3ef8dec4f92168b34d1affb14741d1c2,,,_308045.3ef8dec4f92168b34d1affb14741d1c2.pdf,0,2000-01-01 01:00:00,2016-04-03 02:51:08,827000/3ef8dec4f92168b34d1affb14741d1c2-g.jpg,,
5450457,The Foundations of Engineering Contracts,,,,"M.O C.Horgan OBE, TD, DL, MSc, C.Eng, FIEE and F.R.Roulston DLC, C.Eng, MIEE",,,,,188,0,English ,,,,,,,,,,,,ZcmT3QknR00C&am,,,0,,,,1,1,,1,1898005,pdf,3efe56c4414b2194988f2ec61860fb0c,,,_306813.3efe56c4414b2194988f2ec61860fb0c.pdf,0,2000-01-01 01:00:00,2016-04-03 02:51:08,827000/3efe56c4414b2194988f2ec61860fb0c-g.jpg,,
5450454,The Tujia Language,,,,"Brassett, Brassett, Lu",,,Lincom GmbH,,220,0,English ,,,,,,,,,,,,,,,0,,,,,1,0,0,26550606,pdf,3ee90d4192b61b8c9939e2b95c5a101b,,,_305015.3ee90d4192b61b8c9939e2b95c5a101b.pdf,0,2000-01-01 01:00:00,2016-04-03 02:51:08,827000/3ee90d4192b61b8c9939e2b95c5a101b-g.jpg,,
5450455,Fields of Logic and Computation: Essays Dedicated to Yuri Gurevich on the Occasion of His 70th Birthday (Lecture Notes in Computer Science   Programming and Software Engineering),,Lecture Notes in Computer Science volume 6300,,"Andreas Blass, Nachum Dershowitz, Wolfgang Reisig",2010,1st Edition.,Springer,,636,0,English ,,,,"3642150241,9783642150241",,,,,,,,,,,0,,,,0,0,1,1,6123357,pdf,3ee94a327a7d7077690c0c6807a709d8,,,_313516.3ee94a327a7d7077690c0c6807a709d8.pdf,0,2000-01-01 01:00:00,2016-04-03 02:51:08,827000/3ee94a327a7d7077690c0c6807a709d8-d.jpg,,
5450453,"SQL Server 2008: Das Programmierhandbuch, 3. Auflage",,,,"Dirk Mertins, Jörg Neumann, Andreas Kühnel",2009,3,Galileo Press,,1149,0,German ,,,,"3836213958,9783836213950",,,,,,,,,,,0,,,,1,0,1,1,59141927,pdf,3ee87bb5d889256449bdf4147f96af1c,,,_305077.3ee87bb5d889256449bdf4147f96af1c.pdf,0,2000-01-01 01:00:00,2016-04-03 02:51:08,827000/3ee87bb5d889256449bdf4147f96af1c-g.jpg,,
5450451,"Model Driven Engineering Languages and Systems: 13th International Conference, MODELS 2010, Oslo, Norway 3-8, 2010, Proceedings, Part II (Lecture ...   Programming and Software Engineering)",,,,"Dorina C. Petriu, Nicolas Rouquette, Øystein Haugen",2010,1st Edition.,Springer,,439,0,English ,,,,"3642161286,9783642161285",,,,,,,,,,,0,,,,0,0,1,1,8700617,pdf,3eda977071554e7c3318067a3c6ee093,,,_313793.3eda977071554e7c3318067a3c6ee093.pdf,0,2000-01-01 01:00:00,2016-04-03 02:51:08,827000/3eda977071554e7c3318067a3c6ee093-d.jpg,,
5450452,Emerging Technologies in Hazardous Waste Management (Acs Symposium Series),,,,"D. William Tedder, Frederick G. Pohland",1990,,An American Chemical Society Publication,,377,0,English ,,,,"0841217475,9780841217478",,,,,628.4/2 ,TD1020  .E44 1990,DOI: 10.1021/bk-1990-0422,,OL18299817M,,0,,,,,0,,1,6234028,pdf,3edc895b63edb5254b9e4734e45748cf,,,_313761.3edc895b63edb5254b9e4734e45748cf.pdf,0,2000-01-01 01:00:00,2016-04-03 02:51:08,827000/3edc895b63edb5254b9e4734e45748cf-g.jpg,,
5450448,Cwmtec,,,,Gareth Miles,2002,,Gwasg Carreg Gwalch,,150,0,Welsh ,,,,"0863817734,9780863817731",,,,,,,,,OL11047864M,,0,,,,,1,,,1578632,pdf,3ec0116a2b425dc0a421d4cbe03d280a,,,_310137.3ec0116a2b425dc0a421d4cbe03d280a.pdf,0,2000-01-01 01:00:00,2016-04-03 02:51:08,827000/3ec0116a2b425dc0a421d4cbe03d280a-d.jpg,,
5450449,Invent Your Own Computer Games with Python,,,,Al Sweigart,2010,2nd Edition,Al Sweigart,,435,0,English ,,,,"0982106017,9780982106013",,,,,,,,,,,0,,,,1,0,1,1,4858148,pdf,3ececd9133d75deb9bd8dfa5350568f1,,,_307366.3ececd9133d75deb9bd8dfa5350568f1.pdf,0,2000-01-01 01:00:00,2016-04-03 02:51:08,827000/3ececd9133d75deb9bd8dfa5350568f1-d.jpg,,
5450450,Unbound,,,,"Kim Harrison, Melissa Marr, Jeaniene Frost, Vicki Pettersson, Jocelynn Drake",2009,,Harper Voyager,,368,0,English ,,,,"0061699934,9780061699931",,,,,,,,,OL24244513M,,0,,,,,1,,,658531,pdf,3ed403d2f6629cd77dc1fb6c8f96b0e4,,,_306259.3ed403d2f6629cd77dc1fb6c8f96b0e4.pdf,0,2000-01-01 01:00:00,2016-04-03 02:51:08,827000/3ed403d2f6629cd77dc1fb6c8f96b0e4-d.jpg,,
5450447,Handbook of the Sociology of Mental Health,,Handbooks of Sociology and Social Research ,,"Carol S. Aneshensel, Jo C. Phelan",2006,1,Springer,,649,0,English ,,,,"0387325166,9780387325163",,,,,,,,QZRzvSiPrukC,OL7445412M,,0,,,,1,1,1,1,45484435,pdf,3ea957775fbfa0e85040d06a9c114c12,,,_310296.3ea957775fbfa0e85040d06a9c114c12.pdf,0,2000-01-01 01:00:00,2016-04-03 02:51:08,827000/3ea957775fbfa0e85040d06a9c114c12-d.jpg,,
5450445,"Kant's Theory of Mental Activity, A Commentary on the Transcendental Analytic of the Critique of Pure Reason",,,,Robert Paul Wolff,1970,,Peter Smith Publisher,,356,0,English ,,,,"0844640549,9780844640549",,,,,,,,,OL8244638M,,0,,,,,1,0,1,24346331,pdf,3e9ebd297c585d0febd27515b5f1e59b,,,_312367.3e9ebd297c585d0febd27515b5f1e59b.pdf,0,2000-01-01 01:00:00,2016-04-03 02:51:08,827000/3e9ebd297c585d0febd27515b5f1e59b-g.jpg,,
5450446,Functional Data Analysis with R and MATLAB (Use R!),,Use R! ,,"James Ramsay, Giles Hooker, Spencer Graves",2009,1,Springer,,220,0,English ,,,,"0387981845,9780387981840",,,,,,,,,,,0,,,,1,0,1,1,4693949,pdf,3ea65fb8c0b6f7c8fb85e34f7356de66,,,_305653.3ea65fb8c0b6f7c8fb85e34f7356de66.pdf,0,2000-01-01 01:00:00,2016-04-03 02:51:08,827000/3ea65fb8c0b6f7c8fb85e34f7356de66-d.jpg,,
5450443,An Essay on the Nature of the State,,,,Cem Eroğul,,,University Of Ankara Faculty Of Political Sciences,,194,0,English ,,,,,,,,,,,,,,,0,,,,0,1,0,0,34527660,pdf,3e9079c8c5d3b9f76683a558cba4bba0,,,_310589.3e9079c8c5d3b9f76683a558cba4bba0.pdf,0,2000-01-01 01:00:00,2016-04-03 02:51:08,827000/3e9079c8c5d3b9f76683a558cba4bba0-g.jpg,,
5450444,The Pomodoro Technique,,,,Francesco Cirillo,2009,,Lulu.com,,46,0,English ,,,,"1445219948,9781445219943",,,,,,,,,,,0,,,,,1,,,511646,pdf,3e971aba4fde10981ce887fbe37c0b7a,,,_305016.3e971aba4fde10981ce887fbe37c0b7a.pdf,0,2000-01-01 01:00:00,2016-04-03 02:51:08,827000/3e971aba4fde10981ce887fbe37c0b7a-d.jpg,,
5450442,The Magicians: A Study of the Use of Power in a Black Magic Group,,,,Gini Graham Scott,1983,,Irvington Pub,,219,0,English ,,,,"0829007075,9780829007077",,,,,306.6,BF1621 .S33 1983,,,OL3486943M,,0,,,,0,1,0,0,11585379,pdf,3e844f9308a0aae4f980de03d9d73789,,,_309998.3e844f9308a0aae4f980de03d9d73789.pdf,0,2000-01-01 01:00:00,2016-04-03 02:51:08,827000/3e844f9308a0aae4f980de03d9d73789-g.jpg,,
5450440,"Азербайджанцы, Историческо-этнографический очерк",,,,А.А. Аббасов,1998,,Элм,,205,0,Russian ,,,,,,,,,,,,,,,0,,,,0,0,0,1,2044566,pdf,3e7e958c0314606790f521cc7ecae6dd,,,_306629.3e7e958c0314606790f521cc7ecae6dd.pdf,0,2000-01-01 01:00:00,2016-04-03 02:51:08,827000/3e7e958c0314606790f521cc7ecae6dd-g.jpg,,
5450441,Introduction to Circuit Analysis and Design,,,,Tildon H. Glisson,2011,1st Edition.,Springer,,785,0,English ,,,,"9048194423,9789048194421",,,,,,,10.1007/978-90-481-9443-8,7nNjaH9B0_0C,,,0,,,,1,0,1,1,7412973,pdf,3e81dbb15cd4c2350f2f79b8d367ade8,,,_309363.3e81dbb15cd4c2350f2f79b8d367ade8.pdf,0,2000-01-01 01:00:00,2016-04-03 02:51:08,827000/3e81dbb15cd4c2350f2f79b8d367ade8-d.jpg,,
5450438,"Electronic Government and the Information Systems Perspective: First International Conference, EGOVIS 2010, Bilbao, Spain, August 31 - September2, ... Applications, incl. Internet Web, and HCI)",,Lecture Notes in Computer Science volume 6267,,"Kim Normann Andersen, Enrico Francesconi, Ake Grönlund, Tom M van Engers",2010,1st Edition.,Springer,,275,0,English ,,,,"364215171X,9783642151712",,,,,,,,,,,0,,,,0,0,1,1,6559835,pdf,3e783f8187eb091c9389751ffeb9b0c2,,,_313534.3e783f8187eb091c9389751ffeb9b0c2.pdf,0,2000-01-01 01:00:00,2016-04-03 02:51:08,827000/3e783f8187eb091c9389751ffeb9b0c2-d.jpg,,
5450439,Kant And Pre-Kantian Themes: Lectures By Wilfrid Sellars,,,,Wilfrid Sellars,2002,,Ridgeview Pub Co,,296,0,English ,,,,"0924922346,9780924922343",,,,,193,B945.S444 S45 2002,,,OL3320352M,,0,,,,,1,0,1,15391428,pdf,3e7d4c56f7ae0217f79ecf579b525ba8,,,_312349.3e7d4c56f7ae0217f79ecf579b525ba8.pdf,0,2000-01-01 01:00:00,2016-04-03 02:51:08,827000/3e7d4c56f7ae0217f79ecf579b525ba8-g.jpg,,
5450436,Generalized Linear Models with Random Effects: Unified Analysis via H-likelihood,,Monographs on Statistics and Applied Probability volume 106,,"Youngjo Lee, John A. Nelder, Yudi Pawitan",2006,1st,Chapman and Hall/CRC,,411,0,English ,,,,"1584886315,9781584886310",,,,,,,,JjDMeRM4woEC,OL8795510M,,0,,,,1,0,1,1,7520711,pdf,3e60a0b31f10d18040e9e0a18d4ef5d0,,,_307819.3e60a0b31f10d18040e9e0a18d4ef5d0.pdf,0,2000-01-01 01:00:00,2016-04-03 02:51:08,827000/3e60a0b31f10d18040e9e0a18d4ef5d0-d.jpg,,
5450437,Historical Dictionary of Ancient Egyptian Warfare,,,,Robert G. Morkot,2003,,"The Scarecrow Press, Inc.",,315,0,English ,,,,"0810848627,9780810848627",,,,,,,,,OL7996869M,,0,,,,0,1,0,1,79598786,pdf,3e6b2deb2c6639c5ebe02db3fdfe999c,,,_308315.3e6b2deb2c6639c5ebe02db3fdfe999c.pdf,0,2000-01-01 01:00:00,2016-04-03 02:51:08,827000/3e6b2deb2c6639c5ebe02db3fdfe999c-d.jpg,,
5450434,Collins French with Paul Noble (Collins Easy Learning) (French and English Edition),,,,Paul Noble,2010,,Collins,,96,0,English ,,,,"0007363958,9780007363957",,,,,,,,,,,0,,,,,1,,,2279458,pdf,3e53b3b2ea5e001b8aede9bf67c618f1,,,_309795.3e53b3b2ea5e001b8aede9bf67c618f1.pdf,0,2000-01-01 01:00:00,2016-04-03 02:51:08,827000/3e53b3b2ea5e001b8aede9bf67c618f1-d.jpg,,
5450435,Perl for Beginners,,,,Geoffrey Sampson,2010,,,,120,0,English ,,,,9788776816230,,,,,,,,,,,0,,,,0,0,,1,3961421,pdf,3e552fd72663b07a4f1812bbb2712036,,,_304528.3e552fd72663b07a4f1812bbb2712036.pdf,0,2000-01-01 01:00:00,2016-04-03 02:51:08,827000/3e552fd72663b07a4f1812bbb2712036-g.jpg,,
5450433,How to Shoot Great Travel Photos,,,,Susan McCartney,2007,,Allworth Press,,161,0,English ,,,,"1581153260,9781581153262",,,,,778.9/991,TR790 .M3797 2005,,7hfNvr9r9PwC,OL18014602M,,0,,,,1,0,1,1,15637324,pdf,3e3ae47f867e528fdbc9c8cb07ef6294,,,_316093.3e3ae47f867e528fdbc9c8cb07ef6294.pdf,0,2000-01-01 01:00:00,2016-04-03 02:51:08,827000/3e3ae47f867e528fdbc9c8cb07ef6294-d.jpg,,
5450431,Entangled Minds: Extrasensory Experiences in a Quantum Reality,,,,Dean Radin,2006,,Paraview Pocket Books,,253,0,English ,,,,"1416516778,9781416516774",,,,,133.8,BF1040 .R33 2006,,,OL3432387M,,0,,,,0,1,0,1,1626406,pdf,3e2565b1f776078f1d4d60928bf4b619,,,_307870.3e2565b1f776078f1d4d60928bf4b619.pdf,0,2000-01-01 01:00:00,2016-04-03 02:51:08,827000/3e2565b1f776078f1d4d60928bf4b619-d.jpg,,
5450432,Climate Governance in the Arctic (Environment & Policy),,,,Timo Koivurova,2009,1,Springer,,458,0,English ,,,,"1402095414,9781402095412",,,,,,,,,,,0,,,,1,0,1,1,2537301,pdf,3e30c0a063b2049f45142e9dd58dda25,,,_306600.3e30c0a063b2049f45142e9dd58dda25.pdf,0,2000-01-01 01:00:00,2016-04-03 02:51:08,827000/3e30c0a063b2049f45142e9dd58dda25-d.jpg,,
5450428,A Taste of Gaelic,,,,Flora McArthur,1995,,Edinburgh's Telford College,,62,0,English ,,,,"1900674009,9781900674003",,,,,,,,,OL18199454M,,0,,,,0,1,0,0,13867287,pdf,3e0ddbebef1c802f7545c6b1b37e5026,,,_310372.3e0ddbebef1c802f7545c6b1b37e5026.pdf,0,2000-01-01 01:00:00,2016-04-03 02:51:08,827000/3e0ddbebef1c802f7545c6b1b37e5026-g.jpg,,
5450429,"Fuckowski, Memorias de un ingeniero",,,,Alfredo de Hoces,,,,,94,0,Spanish,,,,,,,,,,,,,,,0,,,,,1,,1,702332,pdf,3e1147d8080e1ceae67458b3f875bae6,,,_313242.3e1147d8080e1ceae67458b3f875bae6.pdf,0,2000-01-01 01:00:00,2016-04-03 02:51:08,827000/3e1147d8080e1ceae67458b3f875bae6-g.jpg,,
5450430,CFA 2010 Level I Mock Exam Morning Afternoon Session,,,,CFA Institution,2010,,,,37,0,English ,,,,,,,,,,,,,,,0,,,,,1,,1,505532,pdf,3e117ed56d358e73ad7916acd607c2c6,,,_311748.3e117ed56d358e73ad7916acd607c2c6.pdf,0,2000-01-01 01:00:00,2016-04-03 02:51:08,827000/3e117ed56d358e73ad7916acd607c2c6-g.jpg,,
5450427,"The Modern World, Volume 1-5",,,,"Sarolta, Ph.D. Takacs",2008,,M.E. Sharpe,,881,0,English ,,,,"0765680963,9780765680969",,,,,903,CB357 .M65 2008,,,OL17026547M,,0,,,,1,0,1,1,34756928,pdf,3e0563c494a290386793d4d2fd341243,,,_306921.3e0563c494a290386793d4d2fd341243.pdf,0,2000-01-01 01:00:00,2016-04-03 02:51:08,827000/3e0563c494a290386793d4d2fd341243-g.jpg,,
5450425,"Contemporary Diagnosis and Management of Breast Disease, An Issue of Obstetrics and Gynecology Clinics (The Clinics: Internal Medicine)",,,,Douglas J. Marchant MD,,,,,246,0,English ,,,,,,,,,,,,,,,0,,,,,1,,,3930125,pdf,08fdb8d16dcb9ff2fedc1a895b98d86f,,,_288547.08fdb8d16dcb9ff2fedc1a895b98d86f.pdf,0,2000-01-01 01:00:00,2016-04-03 02:51:08,827000/08fdb8d16dcb9ff2fedc1a895b98d86f-g.jpg,,
5450426,"Building Genetic Medicine: Breast Cancer, Technology, and the Comparative Politics of Health Care (Inside Technology)",,,,Shobita Parthasarathy,2007,1,The MIT Press,,288,0,English ,,,,"0262162423,9780262162425",,,,,,,,,OL10237485M,,0,,,,,1,,,2824538,pdf,08feea2483c60a525290787b5d525262,,,_300073.08feea2483c60a525290787b5d525262.pdf,0,2000-01-01 01:00:00,2016-04-03 02:51:08,827000/08feea2483c60a525290787b5d525262-d.jpg,,
5450423,Effington Family 07 Love with the Proper Husband,,Effington Family volume Book 7,,Victoria Alexander,2004,,"HarperCollins Publishers, PerfectBound",,387,0,English ,,,,0060761245,,,,,,,,,,,0,,,,1,0,1,1,2404106,pdf,08fca44295f7b5307ffdbc3f846650bf,,,_311520.08fca44295f7b5307ffdbc3f846650bf.pdf,0,2000-01-01 01:00:00,2016-04-03 02:51:08,827000/08fca44295f7b5307ffdbc3f846650bf-g.jpg,,
5450424,Seg der Bogenschütze. 32. Roman der Saga von Dray Prescot,,Saga von Dray Prescot 32 ,,Alan Burt Akers,1989,,Heyne Verlag,,342,0,German ,,,,"3453034961,9783453034969",,,,,,,,,,,0,,,,0,1,1,1,1693817,pdf,08fd5794480f0f28d8f454041a1f795c,,,_305559.08fd5794480f0f28d8f454041a1f795c.pdf,0,2000-01-01 01:00:00,2016-04-03 02:51:08,827000/08fd5794480f0f28d8f454041a1f795c-g.jpg,,
5450421,Highly Efficient OLEDs with Phosphorescent Materials,,,,Hartmut Yersin,2007,1,Wiley-VCH,,458,0,English ,,,,"3527405941,9783527405947",,,,,,,,jO2miFqCfxYC,OL18295197M,,0,,,,1,0,1,1,4271339,pdf,08f77722b7ae20488add1b4fae9c8278,,,_310937.08f77722b7ae20488add1b4fae9c8278.pdf,0,2000-01-01 01:00:00,2016-04-03 02:51:08,827000/08f77722b7ae20488add1b4fae9c8278-d.jpg,,
5450422,PHP jQuery Cookbook,,,,Vijay Joshi,2010,,Packt Publishing,,332,0,English ,,,,"1849512744,9781849512749",,,,,,,,,,,0,,,,1,0,1,1,8507448,pdf,08fa0a99669a78132f868711afb0e9e9,,,_298418.08fa0a99669a78132f868711afb0e9e9.pdf,0,2000-01-01 01:00:00,2016-04-03 02:51:08,827000/08fa0a99669a78132f868711afb0e9e9-d.jpg,,
5450419,The Revenge of Thomas Eakins,,,,Sidney D. Kirkpatrick,2006,1,Yale University Press,,577,0,English ,,,,"0300108559,9780300108552",,,,,"759.13,B",ND237.E15 K55 2006,,,OL3411852M,,0,,,,0,1,0,1,2743291,pdf,08f62de562998b37a24c3eeb053e2730,,,_305490.08f62de562998b37a24c3eeb053e2730.pdf,0,2000-01-01 01:00:00,2016-04-03 02:51:08,827000/08f62de562998b37a24c3eeb053e2730-d.jpg,,
5450420,A Theology of Children,,,,Nove Vailaau,,,,,24,0,English ,,,,,,,,,,,,,,,0,,,,,1,,,678774,pdf,08f62e3b5f9f2a4275427a76483378f7,,,_299895.08f62e3b5f9f2a4275427a76483378f7.pdf,0,2000-01-01 01:00:00,2016-04-03 02:51:08,827000/08f62e3b5f9f2a4275427a76483378f7-g.jpg,,
5450418,Partial differential equations in biology,,,,Charles S Peskin,1976,,,,233,0,English ,,,,,,B0000EH001,,,,,,,,,0,,,,,1,,,2976135,pdf,08f48b287e1c6057b56a094f92e7b317,,,_197172.08f48b287e1c6057b56a094f92e7b317.pdf,0,2000-01-01 01:00:00,2016-04-03 02:51:08,827000/08f48b287e1c6057b56a094f92e7b317-g.jpg,,
5450416,"Transactional Memory, 2nd Edition (Synthesis Lectures on Computer Architecture)",,Synthesis Lectures on Computer Architecture ,,"Tim Harris, James Larus, Ravi Rajwar",2010,2,Morgan and Claypool Publishers,,264,0,English ,,,,"1608452352,9781608452354",,,,,,,,,,,0,,,,,0,,,2187116,pdf,08f3d930a93297a37b906aca83c76484,,,_292727.08f3d930a93297a37b906aca83c76484.pdf,0,2000-01-01 01:00:00,2016-04-03 02:51:08,827000/08f3d930a93297a37b906aca83c76484-d.jpg,,
5450417,Encyclopedia of Junk Food and Fast Food,,,,Andrew F. Smith,2006,1,Greenwood,,364,0,English ,,,,"0313335273,9780313335273",,,,,,,,,OL9713915M,,0,,,,0,0,0,1,6463675,pdf,08f44a85a45e438376356eb42f844256,,,_311032.08f44a85a45e438376356eb42f844256.pdf,0,2000-01-01 01:00:00,2016-04-03 02:51:08,827000/08f44a85a45e438376356eb42f844256-d.jpg,,
5450414,"The Wall Street Journal Asia Vol. XXXV No. 118 dated Thursday February 17, 2011",,,,Dow Jones Publishing Company (Asia),,,,,28,0,English ,,,,,,,,,,,,,,,0,,,,,1,,,3018546,pdf,08f0853df12ef37cd9e3ae11e615af0a,,,_305360.08f0853df12ef37cd9e3ae11e615af0a.pdf,0,2000-01-01 01:00:00,2016-04-03 02:51:08,827000/08f0853df12ef37cd9e3ae11e615af0a-g.jpg,,
5450415,Selling Solar: The Diffusion of Renewable Energy in Emerging Markets,,,,Damian Miller,2009,,Earthscan Publications Ltd.,,337,0,English ,,,,"1844075184,9781844075188",,,,,381/.4562147,TJ810 .M5275 2008,,6Od2CqEc0ywC,OL17075115M,,0,,,,1,0,1,1,5356507,pdf,08f20fe22c0e4ed0d12c31b0ee24ca82,,,_295140.08f20fe22c0e4ed0d12c31b0ee24ca82.pdf,0,2000-01-01 01:00:00,2016-04-03 02:51:08,827000/08f20fe22c0e4ed0d12c31b0ee24ca82-d.jpg,,
5450412,Decompositions of Operator Algebras I and II (Memoirs of the American Mathematical Society),,,,I. E. Segal,1951,Reprint,Amer Mathematical Society,,137,0,English ,,,,"0821812092,9780821812099",,,,,,,,,OL11419706M,,0,,,,,1,0,1,2747338,pdf,08ebbf240ceda9458ef5366b2e1443ed,,,_207426.08ebbf240ceda9458ef5366b2e1443ed.pdf,0,2000-01-01 01:00:00,2016-04-03 02:51:08,827000/08ebbf240ceda9458ef5366b2e1443ed-d.jpg,,
5450413,,,,Scientific american July 2004 volume 291 issue 1,Scientific American,2004,,Scientific American,,92,0,English ,,,,,,,,,,,,,,,0,,,,,1,,,3274034,pdf,08ecb769b308c7e24681051422896602,,,_337215.08ecb769b308c7e24681051422896602.pdf,0,2000-01-01 01:00:00,2016-04-03 02:51:08,827000/08ecb769b308c7e24681051422896602-g.jpg,,
5450410,Neck and Arm Pain (Pain Series),,,,Rene Cailliet,1981,2,F. A. Davis Company,,180,0,English ,,,,"0803616104,9780803616103",,,,,617.5/3,RC936 .C26 1990,,,OL1860467M,,0,,,,1,1,1,,15595706,pdf,08e6ab7e31401dc3aff7642152314fa4,,,_307365.08e6ab7e31401dc3aff7642152314fa4.pdf,0,2000-01-01 01:00:00,2016-04-03 02:51:08,827000/08e6ab7e31401dc3aff7642152314fa4-d.jpg,,
5450411,"Governance, Risk Management und Compliance: Innovative Konzepte und Strategien",,,,"Frank Keuper, Fritz Neumann",2010,2010,Gabler,,327,0,German ,,,,"3834915580,9783834915580",,,,,,,,,,,0,,,,1,0,1,1,2220939,pdf,08e7084ca7e80208db880c58fdb9a631,,,_296981.08e7084ca7e80208db880c58fdb9a631.pdf,0,2000-01-01 01:00:00,2016-04-03 02:51:08,827000/08e7084ca7e80208db880c58fdb9a631-d.jpg,,
5450408,"Business, Finance, and Government Administration (Top Careers in Two Years)",,,,Celia W. Seupel,2007,1,Ferguson Publishing Company,,126,0,English ,,,,"0816068992,9780816068999",,,,,331.7020973,HF5382.5.U5 T677 2007,,,OL11360600M,,0,,,,,1,1,1,1802964,pdf,08e4dff109aa1a183739c1bd12073522,,,_306403.08e4dff109aa1a183739c1bd12073522.pdf,0,2000-01-01 01:00:00,2016-04-03 02:51:08,827000/08e4dff109aa1a183739c1bd12073522-d.jpg,,
5450409,,,Radical Philosophy #137 ,,Radical Philosophy,2006,,,,56,0,English ,,,,,,,,,,,,,,,0,,,,1,1,,1,1467611,pdf,08e51576c430dc00ccb9b6280cb9dbb3,,,_304032.08e51576c430dc00ccb9b6280cb9dbb3.pdf,0,2000-01-01 01:00:00,2016-04-03 02:51:08,827000/08e51576c430dc00ccb9b6280cb9dbb3-g.jpg,,
5450406,The Seaward Margin of the Belize Barrier and Atoll Reefs (IAS Special Publiction No. 3),,IAS Special Publications volume 3,,"N. P. James, R. N. Ginsburg",1979,1,Wiley-Blackwell,,198,0,English ,,,,"0632005238,9780632005239",,,,,551.4/2,QE565 .J35,,,OL3804267M,,300,,,,1,1,1,1,24186269,pdf,08e1301916ebba0d8de7c90c4b77fa3f,,,_289922.08e1301916ebba0d8de7c90c4b77fa3f.pdf,0,2000-01-01 01:00:00,2016-04-03 02:51:08,827000/08e1301916ebba0d8de7c90c4b77fa3f-d.jpg,,
5450407,In Defense of Reading: Teaching Literature in the Twenty-First Century (Blackwell Manifestos),,,,Daniel R. Schwarz,2008,1,Wiley-Blackwell,,217,0,English ,,,,9781405130981,,,,,801/.3,PE68.U5 S39 2008,,,OL16383451M,,0,,,,0,1,,1,2565916,pdf,08e1bd7a2bf5d035a5d7f61f3c01d173,,,_296855.08e1bd7a2bf5d035a5d7f61f3c01d173.pdf,0,2000-01-01 01:00:00,2016-04-03 02:51:08,827000/08e1bd7a2bf5d035a5d7f61f3c01d173-d.jpg,,
5450404,"La hybris del punto cero: ciencia, raza e ilustración en la Nueva Granada (1750-1816)",,,,Santiago Castro-Gómez,2005,2a. Edicion,Pontificia Universidad Javeriana,,346,0,Spanish,,,,9586838080,,,,,986.103--dc19,,,,OL21870387M,,0,,,,0,0,0,1,2421557,pdf,08dde309a5daf0083737d3d327fb63fa,,,_315457.08dde309a5daf0083737d3d327fb63fa.pdf,0,2000-01-01 01:00:00,2016-04-03 02:51:08,827000/08dde309a5daf0083737d3d327fb63fa-g.jpg,,
5450405,The Ethics of Identity,,,,Kwame Anthony Appiah,2004,1st Ed.,Princeton University Press,,374,0,English ,,,,"0691120366,9780691120362",,,,,170,BJ1031 .A64 2005,,,OL22612360M,,0,,,,1,0,1,1,1539537,pdf,08dff9d4e76d62e503c5c02c15cf8d74,,,_301484.08dff9d4e76d62e503c5c02c15cf8d74.pdf,0,2000-01-01 01:00:00,2016-04-03 02:51:08,827000/08dff9d4e76d62e503c5c02c15cf8d74-d.jpg,,
5450402,The Routledge Handbook of World Englishes (Routledge Handbooks in Applied Linguistics),,,,Andy Kirkpatrick,2010,,Routledge,,727,0,English ,,,,"0415470390,9780415470391",,,,,427,PE1066 .K53 2010,,,OL23963185M,,0,,,,,1,0,1,36478663,pdf,08d475814c103553d25cb558b5ad4cd2,,,_207840.08d475814c103553d25cb558b5ad4cd2.pdf,0,2000-01-01 01:00:00,2016-04-03 02:51:08,827000/08d475814c103553d25cb558b5ad4cd2-d.jpg,,
5450403,Complex Functions Examples c-2 - Analytic Functions,,,,Leif Mejlbro,,,,,126,0,English ,,,,,,,,,,,,,,,0,,,,,1,,,3739541,pdf,08d9ad4e46d942d217e192336d55cf84,,,_296630.08d9ad4e46d942d217e192336d55cf84.pdf,0,2000-01-01 01:00:00,2016-04-03 02:51:08,827000/08d9ad4e46d942d217e192336d55cf84-g.jpg,,
5450400,Classroom Assessment: Enhancing the Quality of Teacher Decision Making,,,,Lorin W. Anderson,2002,,Routledge,,200,0,English ,,,,"0805836020,9780805836028",,,,,,,,6P4tlyFC5BgC,OL17067926M,,0,,,,1,1,1,1,9883553,pdf,08d0542370e89eed99446bdbc106a1ee,,,_301599.08d0542370e89eed99446bdbc106a1ee.pdf,0,2000-01-01 01:00:00,2016-04-03 02:51:08,827000/08d0542370e89eed99446bdbc106a1ee-d.jpg,,
5450401,"Making Chase (The Chase Brothers, Book 4)",,,,Lauren Dane,2008,,Samhain Publishing,,237,0,English ,,,,"1599987597,9781599987590",,,,,,,,,,,0,,,,,1,,,714505,pdf,08d2044dabcfa2fa5bf4f22beb291531,,,_288445.08d2044dabcfa2fa5bf4f22beb291531.pdf,0,2000-01-01 01:00:00,2016-04-03 02:51:08,827000/08d2044dabcfa2fa5bf4f22beb291531-d.jpg,,
5450399,Visual Synergies in Fiction and Documentary Film from Latin America (Studies of the Americas),,,,"Miriam Haddu, Joanna Page",2009,1st,Palgrave Macmillan,,272,0,English ,,,,"0230606385,9780230606388",,,,,791.430982,PN1995.9.D62 V57 2009,,,OL22680087M,,0,,,,1,1,1,1,2857313,pdf,08cf2ccc54e4d39397885e2db777f7ab,,,_313957.08cf2ccc54e4d39397885e2db777f7ab.pdf,0,2000-01-01 01:00:00,2016-04-03 02:51:08,827000/08cf2ccc54e4d39397885e2db777f7ab-d.jpg,,
5450397,"Human Interface and the Management of Information. Designing Information Environments: Symposium on Human Interface 2009, Held as Part of HCI ... Applications, incl. Internet Web, and HCI)",,Lecture Notes in Computer Science volume 5617,,"Michael J. Smith, Gavriel Salvendy",2009,1,Springer,,745,0,English ,,,,"3642025552,9783642025556",,,,,,,,,,,0,,,,0,0,1,1,27751932,pdf,08b9c7a371705671784809081dab1cc2,,,_309999.08b9c7a371705671784809081dab1cc2.pdf,0,2000-01-01 01:00:00,2016-04-03 02:51:08,827000/08b9c7a371705671784809081dab1cc2-d.jpg,,
5450398,An Experimental Approach to CDMA and Interference Mitigation: From System Architecture to Hardware Testing through VLSI Design,,,,"Luca Fanucci, Marco Luise, Filippo Giannetti, Massimo Rovini",2011,2004,Springer,,280,0,English ,,,,"144195421X,9781441954213",,,,,,,,eaGEZdZaMtEC,,,0,,,,,1,,,7348350,pdf,08c54144cf8ac1c5966d8c15875f9a99,,,_303253.08c54144cf8ac1c5966d8c15875f9a99.pdf,0,2000-01-01 01:00:00,2016-04-03 02:51:08,827000/08c54144cf8ac1c5966d8c15875f9a99-d.jpg,,
5450395,Aprendiz de Brujo (Monografias De Jugadores),,,,"David Bronstein, Tom Furstenberg",2001,,Paidotribo Editorial,,448,0,Spanish,,,,"8480193034,9788480193030",,,,,,,,,OL13315883M,,0,,,,,1,,,20754078,pdf,08acac6730c97694a667ed911b78b32b,,,_293818.08acac6730c97694a667ed911b78b32b.pdf,0,2000-01-01 01:00:00,2016-04-03 02:51:08,827000/08acac6730c97694a667ed911b78b32b-d.jpg,,
5450396,"The Warrant Chiefs: indirect rule in southeastern Nigeria, 1891-1929 (Ibadan history series)",,,,A. E Afigbo,1972,,Longman,,350,0,English ,,,,"0582645395,9780582645394",,,,,325/.31/096694,DT515.7 .A43 1972,,,OL5319785M,,0,,,,,1,,1,12749117,pdf,08b6435fc6d751b613a4a43c347668d0,,,_293563.08b6435fc6d751b613a4a43c347668d0.pdf,0,2000-01-01 01:00:00,2016-04-03 02:51:08,827000/08b6435fc6d751b613a4a43c347668d0-g.jpg,,
5450393,Internet-based Control Systems: Design and Applications,,Advances in Industrial Control ,,Shuang-Hua Yang,2011,1st Edition.,Springer,,225,0,English ,,,,"1849963584,9781849963589",1430-9491,,,,,,10.1007/978-1-84996-359-6,,,,0,,,,1,0,1,1,3097983,pdf,08a9862a9d6e04310dce8b310c596525,,,_302799.08a9862a9d6e04310dce8b310c596525.pdf,0,2000-01-01 01:00:00,2016-04-03 02:51:08,827000/08a9862a9d6e04310dce8b310c596525-d.jpg,,
5450394,Lucky Strikes...Again: (Feats and Foibles of Engineers),,,,Robert W. Lucky,1993,1,Wiley-IEEE Press,,298,0,English ,,,,"0780304330,9780780304338",,,,,621.3,TK159 .L83 1993,,IoOPttM4ZXcC,OL1726666M,,0,,,,1,0,1,1,6442148,pdf,08a9ba72ed6ee975f19415cc1f9dc1fb,,,_315373.08a9ba72ed6ee975f19415cc1f9dc1fb.pdf,0,2000-01-01 01:00:00,2016-04-03 02:51:08,827000/08a9ba72ed6ee975f19415cc1f9dc1fb-d.jpg,,
5450392,The Child as Thinker: The Development and Acquisition of Cognition in Childhood,,,,Sara Meadows,1993,1,Routledge,,484,0,English ,,,,"0415011434,9780415011433,0415011426,9780415011426,0203134001,0203177207",,,,,155.4/13,BF723.C5 M383 1993,,oewNAAAAQAAJ,OL1735493M,,0,,,,1,0,1,1,2507041,pdf,08a7eab8304aef6b627a3598458a933c,,,_295439.08a7eab8304aef6b627a3598458a933c.pdf,0,2000-01-01 01:00:00,2016-04-03 02:51:08,827000/08a7eab8304aef6b627a3598458a933c-d.jpg,,
5450389,Electromagnetism for Electronic Engineers,,,,Richard Carter,,,,,160,0,English ,,,,,,,,,,,,,,,0,,,,,1,,,4358758,pdf,08a08ae598414348db0d4d9319b7bd9e,,,_292959.08a08ae598414348db0d4d9319b7bd9e.pdf,0,2000-01-01 01:00:00,2016-04-03 02:51:08,827000/08a08ae598414348db0d4d9319b7bd9e-g.jpg,,
5450390,The Many-Worlds Interpretation of Quantum Mechanics,,Princeton Series in Physics ,,"Bryce S. DeWitt, Neill Graham, Editors",1973,1st,Princeton University Press,,262,0,English ,,,,"0691081263,9780691081267",,,,,530.1/2,QC174.12 .D48,,,OL5291844M,,0,,,,1,1,1,1,3361585,pdf,08a2aefa6bcdf290e17f9ed0101bfdbe,,,_295415.08a2aefa6bcdf290e17f9ed0101bfdbe.pdf,0,2000-01-01 01:00:00,2016-04-03 02:51:08,827000/08a2aefa6bcdf290e17f9ed0101bfdbe-g.jpg,,
5450391,Textbook of Healthcare Ethics,,,,"Erich E.H. Loewy, Roberta Springer Loewy",2004,2nd,Springer,,386,0,English ,,,,"1402014600,9781402014604",,,,,,,,,OL8370688M,,0,,,,1,1,,,2147177,pdf,08a2ede7811f231e36fd6930b496ee43,,,_307581.08a2ede7811f231e36fd6930b496ee43.pdf,0,2000-01-01 01:00:00,2016-04-03 02:51:08,827000/08a2ede7811f231e36fd6930b496ee43-d.jpg,,
5450387,"Eléments d'analyse : Tome 4, Chapitres XVIII à XX",,,,Jean Dieudonné,,,JACQUES GABAY,,437,0,French ,,,,"2876472147,9782876472143",,,,,,,,,,,600,,,,0,1,1,1,10695424,djvu,089f17d7fc8f2494c2c8636a6995c795,,,_198388.089f17d7fc8f2494c2c8636a6995c795.djvu,0,2000-01-01 01:00:00,2016-04-03 02:51:08,827000/089f17d7fc8f2494c2c8636a6995c795-d.jpg,,
5450388,"LE DROIT CHINOIS: conception generale,apercue historique",,,,Jean ESCARRA,,,,,120,0,French ,,,,,,,,,,,,,,,0,,,,,1,,,638151,pdf,089f569be8eb131288c898d5db2dddb8,,,_315228.089f569be8eb131288c898d5db2dddb8.pdf,0,2000-01-01 01:00:00,2016-04-03 02:51:08,827000/089f569be8eb131288c898d5db2dddb8-g.jpg,,
5450385,Innovation in Construction: A European Analysis,,,,"Marcela Miozzo, Paul Dewick",2004,illustrated edition,Edward Elgar Publishing,,165,0,English ,,,,"1843765217,9781843765219",,,,,338.45624094,,,LriPJ9Yw_y0C,OL11906733M,,0,,,,1,0,1,1,456092,pdf,08950e94654717495f169d47509f2d62,,,_300196.08950e94654717495f169d47509f2d62.pdf,0,2000-01-01 01:00:00,2016-04-03 02:51:08,827000/08950e94654717495f169d47509f2d62-d.jpg,,
5450386,Managing and Mining Uncertain Data (Advances in Database Systems),,,,Charu C. Aggarwal,2009,1st Edition. 2nd Printing.,Springer,,467,0,English ,,,,"0387096892,9780387096896",,,,,,,10.1007 978-0-387-09690-2,,OL10151759M,,0,,,,,0,1,1,5286123,pdf,089840fdfa5ee5c9fd9fed84c2cc3463,,,_176645.089840fdfa5ee5c9fd9fed84c2cc3463.pdf,0,2000-01-01 01:00:00,2016-04-03 02:51:08,827000/089840fdfa5ee5c9fd9fed84c2cc3463-d.jpg,,
5450383,Alms for Jihad: Charity and Terrorism in the Islamic World,,,,J. Millard Burr and Robert O. Collins.,2006,,Cambridge University Press,,378,0,English ,,,,"0521857309,9780521857307,0511247419,9780511161834",,,,,361.7/5/091767,HV435 .B87 2006,,,OL22731549M,pages disordered (e.g. between pp. 171-172),0,,,,0,1,0,0,27735625,pdf,088b7f85a5aa9004967b2cd2ef8664b8,,,_286041.088b7f85a5aa9004967b2cd2ef8664b8.pdf,0,2000-01-01 01:00:00,2016-04-03 02:51:08,827000/088b7f85a5aa9004967b2cd2ef8664b8-g.jpg,,
5450384,Comunicação e Ética - O sistema semiótico de Charles S. Peirce,,,,Anabela Gradim,2007,,LabCom,,506,0,Portuguese (Portugalian),,,,,,,,,,,,,,,0,,,,1,1,,,2489649,pdf,0891b80f8324e739879689061e1d0c17,,,_297234.0891b80f8324e739879689061e1d0c17.pdf,0,2000-01-01 01:00:00,2016-04-03 02:51:08,827000/0891b80f8324e739879689061e1d0c17-g.jpg,,
5450381,Restoration and Organic Development of the Roman Rite (T&T Clark Studies in Fundamental Liturgy),,T&T Clark Studies in Fundamental Liturgy ,,"Laszlo Dobszay, Laurence Paul Hemming",2010,,T & T Clark International,,302,0,English ,,,,"0567033864,9780567033864,0567033856,9780567033857",,,,,264.02,BX1970 .D53 2010,,FYpD7C7__TYC,OL24413177M,,0,,,,1,0,1,1,1178534,pdf,087c3a559ba7f053f1737642f17552b8,,,_290330.087c3a559ba7f053f1737642f17552b8.pdf,0,2000-01-01 01:00:00,2016-04-03 02:51:08,827000/087c3a559ba7f053f1737642f17552b8-d.jpg,,
5450382,Sonnenkönig: Kriminalroman,,,,Richard Lifka,2010,,Gmeiner Verlag,,246,0,German ,,,,"3839210968,9783839210963,9783839235546",,,,,,,,OHrhrWNTND0C,,,0,,,,1,0,1,1,643468,pdf,08854112faebdf9acbc3c1740aa5265d,,,_314239.08854112faebdf9acbc3c1740aa5265d.pdf,0,2000-01-01 01:00:00,2016-04-03 02:51:08,827000/08854112faebdf9acbc3c1740aa5265d-g.jpg,,
5450379,Ultimate Guide to Bicycle Maintenance,,,,Dennis Publishing,2010,,Dennis Publishing,,196,0,English ,,,,"1907232362,9781907232367",,,,,,,,,,,0,,,,1,1,0,0,38622054,pdf,0877a07ef8f77d46bc6dfabc9a6b386f,,,_308458.0877a07ef8f77d46bc6dfabc9a6b386f.pdf,0,2000-01-01 01:00:00,2016-04-03 02:51:08,827000/0877a07ef8f77d46bc6dfabc9a6b386f-d.jpg,,
5450380,Organizational Learning: A Theory of Action Perspective,,Addison-Wesley Series on Organization Development ,,"Chris Argyris, Donald A. Schön",1978,,Addison-Wesley,,352,0,English ,,,,"0201001748,9780201001747",,,,,658.4/06,HD58.8 .A75,,,OL4565877M,,600,,,,1,1,0,1,31329156,pdf,087b456ffdc951bfe2f00e858b29950a,,,_293947.087b456ffdc951bfe2f00e858b29950a.pdf,0,2000-01-01 01:00:00,2016-04-03 02:51:08,827000/087b456ffdc951bfe2f00e858b29950a-d.jpg,,
5450378,"Common Sense: Journal of the Edinburgh Conference of Socialist Economists, vol. 18",,,,Werner Bonefeld (ed),1995,,common sense,,100,0,English ,,,,,0957-240x,,,,,,,,,,0,,,,0,1,0,1,5955987,pdf,08763b41f4d939e3aab8b12964477f87,,,_314962.08763b41f4d939e3aab8b12964477f87.pdf,0,2000-01-01 01:00:00,2016-04-03 02:51:08,827000/08763b41f4d939e3aab8b12964477f87-g.jpg,,
5450375,Sexuality in Adolescence: Current Trends (Adolescence and Society Series),,,,"Susan Moore, Doreen Rosenthal",2006,2,Routledge,,248,0,English ,,,,"0415344964,9780415344968",,,,,,,,,OL18285013M,,0,,,,1,0,1,1,1683835,pdf,086d8438cb3906d343c06603a028e46f,,,_288971.086d8438cb3906d343c06603a028e46f.pdf,0,2000-01-01 01:00:00,2016-04-03 02:51:08,827000/086d8438cb3906d343c06603a028e46f-d.jpg,,
5450376,Ein Mord wird angekündigt (Hachette Collections - Band 35),,,,Agatha Christie,2009,,Hachette Collections,,211,0,German ,,,,,,,,,,,,,,,0,,,,1,0,1,1,971409,pdf,08727e0aede5d49e060d945ee2a1584a,,,_305673.08727e0aede5d49e060d945ee2a1584a.pdf,0,2000-01-01 01:00:00,2016-04-03 02:51:08,827000/08727e0aede5d49e060d945ee2a1584a-g.jpg,,
5450377,二十四史全譯: 史記·下册    Complete translation of 24 Histories: Shiji Volume 2,,,,"司馬遷, 譯：許嘉璐, 安平秋 Sima Qian, Xu Jialu, An Pingqiu",2004,,,,802,0,Chinese (Thaiwan),,,,"7543208725,9787543208728",,,,,,,,,,,0,,,,1,1,,,58339166,pdf,0874b9638a43fe14885b95c337bd34fe,,,_311862.0874b9638a43fe14885b95c337bd34fe.pdf,0,2000-01-01 01:00:00,2016-04-03 02:51:08,827000/0874b9638a43fe14885b95c337bd34fe-g.jpg,,
5450373,Structural Bioinformatics of Membrane Proteins,,,,D. Frishman,2010,1st Edition.,Springer,,294,0,English ,,,,"3709100445,9783709100448",,,,,,,,HJfqo00mSkAC,,,0,,,,1,0,1,1,4379632,pdf,0867eb479219096b8159c0cd1209eb8f,,,_303566.0867eb479219096b8159c0cd1209eb8f.pdf,0,2000-01-01 01:00:00,2016-04-03 02:51:08,827000/0867eb479219096b8159c0cd1209eb8f-d.jpg,,
5450374,Philosophy: A Very Short Introduction (Very Short Introductions),,,,Edward Craig,2002,1st,"Oxford University Press, USA",,144,0,English ,,,,"0192854216,9780192854216",,,,,,,,,OL3585224M,,0,,,,,1,,,2060792,pdf,0868aa29c6c3afff50f0e4fe51631d19,,,_292544.0868aa29c6c3afff50f0e4fe51631d19.pdf,0,2000-01-01 01:00:00,2016-04-03 02:51:08,827000/0868aa29c6c3afff50f0e4fe51631d19-d.jpg,,
5450372,Writings of the Revolution: Selected Readings on Software Engineering,,,,Edward Yourdon,1982,,Yourdon Press,,460,0,English ,,,,"0917072251,9780917072253",,,,,001.64/2,QA76.6 .W74 1982,,,OL3792107M,,0,,,,,1,,,5284842,djvu,08633472dc70e7fd16487b0d09103a73,,,_69398.08633472dc70e7fd16487b0d09103a73.djvu,0,2000-01-01 01:00:00,2016-04-03 02:51:08,827000/08633472dc70e7fd16487b0d09103a73-g.jpg,,
5450369,Schaum's Outline of Mathematics for Liberal Arts Majors (Schaum's Outline Series),,Schaum's Outline ,,Christopher Thomas,2008,1,McGraw-Hill,,237,0,English ,,,,"0071544291,9780071544290",,,,,510,QA37.3 .T46 2008,,7hJKnPLxJecC,OL16820731M,,0,,,,1,0,1,1,1525407,pdf,08549fee7825f8cc1e05aa1e20b0df5e,,,_293722.08549fee7825f8cc1e05aa1e20b0df5e.pdf,0,2000-01-01 01:00:00,2016-04-03 02:51:08,827000/08549fee7825f8cc1e05aa1e20b0df5e-d.jpg,,
5450370,Zitate für Manager: Immer die richtigen Worte schnell zur Hand 2. Auflage,,,,Laura Roberts,2009,2,Gabler,,420,0,German ,,,,"3834918911,9783834918918",,,,,,,,,,,0,,,,1,0,1,1,1163753,pdf,085cfbcb073c7c33a978d5e578384538,,,_296535.085cfbcb073c7c33a978d5e578384538.pdf,0,2000-01-01 01:00:00,2016-04-03 02:51:08,827000/085cfbcb073c7c33a978d5e578384538-d.jpg,,
5450371,Rousseaus politische Philosophie: Zur Geschichte des demokratischen Freiheitsbegriffs,,,,Iring Fetscher,1975,Neuauflage.,Suhrkamp Verlag,,399,0,German ,,,,"351827743X,9783518277430",,,,,,,,,OL12761744M,,0,,,,1,1,0,1,20776222,pdf,085d3a4ad38c1e8b2884133463727e78,,,_288819.085d3a4ad38c1e8b2884133463727e78.pdf,0,2000-01-01 01:00:00,2016-04-03 02:51:08,827000/085d3a4ad38c1e8b2884133463727e78-d.jpg,,
5450368,"Data Analysis and Graphics Using R: An Example-Based Approach, 3rd Edition",,,,"John Maindonald, W. John Braun",2010,3rd Edition,Cambridge University Press,,565,0,English ,,,,"0521762936,9780521762939,9780511712869",,,,,519.50285,QA276.4 .M245 2010,,8bMj8m-4RDQC,OL24013799M,,0,,,,1,0,1,1,6269520,pdf,0852ffffbca84a69449ab102729b1272,,,_182768.0852ffffbca84a69449ab102729b1272.pdf,0,2000-01-01 01:00:00,2016-04-03 02:51:08,827000/0852ffffbca84a69449ab102729b1272-d.jpg,,
5450366,Ciel et Espace Hors Serie 12,,,,Association française d'astronomie,,,,,100,0,French ,,,,,,,,,,,,,,,0,,,,,1,,,61852020,pdf,084a09a8d7df047aa2a2f1bb55f36052,,,_306147.084a09a8d7df047aa2a2f1bb55f36052.pdf,0,2000-01-01 01:00:00,2016-04-03 02:51:08,827000/084a09a8d7df047aa2a2f1bb55f36052-g.jpg,,
5450367,Degenerate Parabolic Equations (Universitext),,,,Emmanuele DiBenedetto,1993,,Springer-Verlag Berlin and Heidelberg GmbH & Co. K,,402,0,English ,,,,"3540940200,9783540940203,0387940200,9780387940205",,,,,515/.353,QA377 .D62 1993,,,OL1393148M,,0,,,,,1,1,1,14865467,pdf,08520efe773394b33a24a8071bfa9234,,,_207690.08520efe773394b33a24a8071bfa9234.pdf,0,2000-01-01 01:00:00,2016-04-03 02:51:08,827000/08520efe773394b33a24a8071bfa9234-g.jpg,,
5450364,"Space Time Play: Computer Games, Architecture and Urbanism: The Next Level",,,,"Friedrich von Borries, Steffen P. Walz, Matthias Böttger, Drew Davidson, Heather Kelley, Julian Kücklich",2007,1,Birkhäuser Architecture,,496,0,English ,,,,"376438414X,9783764384142",,,,,,,,isgsj244XeQC,OL12867132M,,0,,,,1,0,0,1,11773991,pdf,0844d5d01fea875a781a60978d44ba70,,,_298928.0844d5d01fea875a781a60978d44ba70.pdf,0,2000-01-01 01:00:00,2016-04-03 02:51:08,827000/0844d5d01fea875a781a60978d44ba70-d.jpg,,
5450365,"Learning from Experience: Minority Identities, Multicultural Struggles",,,,Paula M. L. Moya,2002,,University of California Press,,249,0,English ,,,,"0520230140,9780520230149",,,,,810.9/9287/0896872,PS153.M4 M69 2002,,,OL3938530M,,0,,,,1,0,1,1,1624311,pdf,084631baaa6137719830d018b46ab79b,,,_298439.084631baaa6137719830d018b46ab79b.pdf,0,2000-01-01 01:00:00,2016-04-03 02:51:08,827000/084631baaa6137719830d018b46ab79b-d.jpg,,
5450362,Art and Practice of Getting Material Things Through Creative Visualization,,,,Ophiel,1981,,Weiser Books,,120,0,English ,,,,"087728279X,9780877282792",,,,,133,,,,OL22913095M,,0,,,,,1,0,,1681077,pdf,0844109ec36f29621346cdf6d6ecab4b,,,_299929.0844109ec36f29621346cdf6d6ecab4b.pdf,0,2000-01-01 01:00:00,2016-04-03 02:51:08,827000/0844109ec36f29621346cdf6d6ecab4b-d.jpg,,
5450363,"Evolution in Action: Case studies in Adaptive Radiation, Speciation and the Origin of Biodiversity",,,,Matthias Glaubrecht,2010,First Edition,Springer,,611,0,English ,,,,"3642124240,9783642124242",,,,,,,,,,,0,,,,,1,,,21086687,pdf,08444361c60117d07c98085ecf65173b,,,_294937.08444361c60117d07c98085ecf65173b.pdf,0,2000-01-01 01:00:00,2016-04-03 02:51:08,827000/08444361c60117d07c98085ecf65173b-d.jpg,,
5450361,Urban Economic Theory: Land Use and City Size,,,,Masahisa Fujita,1989,,Cambridge University Press,,378,0,English ,,,,"0521346622,9780521346627",,,,,330.9173/2,HT321 .F85 1989,,,OL2042128M,,0,,,,0,1,0,1,8156295,pdf,083f420d46e88d649a233245aa54a89b,,,_294928.083f420d46e88d649a233245aa54a89b.pdf,0,2000-01-01 01:00:00,2016-04-03 02:51:08,827000/083f420d46e88d649a233245aa54a89b-d.jpg,,
5450359,Spectrum Wars The Policy and Technology Debate (Artech House Telecommunications Library),,,,Jennifer A. Manner,2003,,Artech House Publishers,,208,0,English ,,,,"158053483X,9781580534833",,,,,,,,,OL8780242M,,0,,,,,1,,,914472,pdf,08304309079687d43860dceb7db7b952,,,_302086.08304309079687d43860dceb7db7b952.pdf,0,2000-01-01 01:00:00,2016-04-03 02:51:08,827000/08304309079687d43860dceb7db7b952-d.jpg,,
5450360,The Institutional Context of Population Change: Patterns of Fertility and Mortality across High-Income Nations (Population and Development Series),,Population and Development Series ,,Fred C. Pampel,2001,1,University Of Chicago Press,,315,0,English ,,,,"0226645258,9780226645254",,,,,304.6/09172/2,HB883.5 .P35 2001,,,OL18343924M,,0,,,,1,0,1,1,1238097,pdf,083d7424f2010dac7b9400f4190a59eb,,,_304865.083d7424f2010dac7b9400f4190a59eb.pdf,0,2000-01-01 01:00:00,2016-04-03 02:51:08,827000/083d7424f2010dac7b9400f4190a59eb-d.jpg,,
5450357,"Agenda Setting, the UN, and NGOs: Gender Violence and Reproductive Rights (Advancing Human Rights)",,Advancing Human Rights ,,Jutta M. Joachim,2007,,Georgetown University Press,,255,0,English ,,,,"1589011759,9781589011755",,,,,342.08/78,HQ1236 .J63 2007,,,OL12328322M,,0,,,,0,1,1,1,858830,pdf,082f07bf3f077e9a4439ea9bd23193ca,,,_310757.082f07bf3f077e9a4439ea9bd23193ca.pdf,0,2000-01-01 01:00:00,2016-04-03 02:51:08,827000/082f07bf3f077e9a4439ea9bd23193ca-d.jpg,,
5450358,The Rule of Saint Benedict,,,,San Benedetto da Norcia,1934,,,,128,0,English ,,,,,,,,,,,,,,,0,,,,1,1,,1,3843443,pdf,082fa09e665ebc7942bd4038c07793b9,,,_294866.082fa09e665ebc7942bd4038c07793b9.pdf,0,2000-01-01 01:00:00,2016-04-03 02:51:08,827000/082fa09e665ebc7942bd4038c07793b9-g.jpg,,
5450355,"Einführung in Perl, 5. Auflage",,,,"Randal L. Schwartz, Tom Phoenix, brian d foy",,,,,384,0,German ,,,,"3897218879,9783897218871",,,,,,,,,,,0,,,,,1,,,1971522,pdf,082cc8a5c7eb50ad3507467f0025f324,,,_197847.082cc8a5c7eb50ad3507467f0025f324.pdf,0,2000-01-01 01:00:00,2016-04-03 02:51:08,827000/082cc8a5c7eb50ad3507467f0025f324-g.jpg,,
5450356,Evaluation for Workplace Discrimination and Harassment (Best Practices for Forensic Mental Health Assessment),,Best Practices for Forensic Mental Health Assessment ,,"Jane Goodman-Delahunty, William E. Foote",2010,1,"Oxford University Press, USA",,258,0,English ,,,,"0195371011,9780195371017",,,,,344.7301/133,KF3464 .F66 2011,,v6gAQQbZUPMC,OL24991052M,,0,,,,1,0,1,1,976726,pdf,082d9147f83f4acce0f1f67528f86e1d,,,_296020.082d9147f83f4acce0f1f67528f86e1d.pdf,0,2000-01-01 01:00:00,2016-04-03 02:51:08,827000/082d9147f83f4acce0f1f67528f86e1d-d.jpg,,
5450353,From Egypt to Europe: Globalisation and Migration Across the Mediterranean,,International Library of Migration Studies volume 5,,Leila Simona Talani,2009,,Tauris Academic Studies,,289,0,English ,,,,"1845116690,9781845116699",,,,,,,,peanGAAACAAJ,OL24086380M,,0,,,,1,0,1,1,1668030,pdf,0829e7cc7285548c815dbb5e1f9eaad4,,,_301140.0829e7cc7285548c815dbb5e1f9eaad4.pdf,0,2000-01-01 01:00:00,2016-04-03 02:51:08,827000/0829e7cc7285548c815dbb5e1f9eaad4-d.jpg,,
5450354,,,,National Geographic Vol. 1 No. 1 1888  ,National Geographic Society,1888,,National Geographic Society,,120,0,English ,,,,,0027-9358,,,,,,,,,,0,,,,,1,0,0,5196132,pdf,0829f23043563f6ec1db8a25cf48c951,,,_311677.0829f23043563f6ec1db8a25cf48c951.pdf,0,2000-01-01 01:00:00,2016-04-03 02:51:08,827000/0829f23043563f6ec1db8a25cf48c951-g.jpg,,
5450352,Deserts (Science Readers: Biomes and Ecosystems),,Science Readers: Biomes and Ecosystems ,,Yvonne Franklin,2010,Ill,Teacher Created Materials Publishing,,32,0,English ,,,,1433303159,,,,,,,,,,,0,,,,,1,,,4035845,pdf,08292dcd13b527be2f5d84c2294b4f5a,,,_291429.08292dcd13b527be2f5d84c2294b4f5a.pdf,0,2000-01-01 01:00:00,2016-04-03 02:51:08,827000/08292dcd13b527be2f5d84c2294b4f5a-d.jpg,,
5450350,Adaptive Security Management Architecture,,,,James S. Tiller,2010,1,Auerbach Publications,,484,0,English ,,,,"0849370523,9780849370526",,,,,,,,,OL11560113M,,0,,,,1,0,1,1,3132746,pdf,081f55cff1bb3a096c36040dcb7507f5,,,_289432.081f55cff1bb3a096c36040dcb7507f5.pdf,0,2000-01-01 01:00:00,2016-04-03 02:51:08,827000/081f55cff1bb3a096c36040dcb7507f5-d.jpg,,
5450351,Microarray Analysis of the Physical Genome: Methods and Protocols (Methods in Molecular Biology Vol 556),,,,Jonathan R. Pollack,2009,1,Humana Press,,236,0,English ,,,,"1603271910,9781603271912",,,,,,,,,OL24579199M,,0,,,,,1,1,,3998220,pdf,08279c044d173a8b95b3a54c234636b6,,,_304531.08279c044d173a8b95b3a54c234636b6.pdf,0,2000-01-01 01:00:00,2016-04-03 02:51:08,827000/08279c044d173a8b95b3a54c234636b6-d.jpg,,
5450348,Moonshadows: Conventional Truth in Buddhist Philosophy,,,,The Cowherds,2010,,"Oxford University Press, USA",,264,0,English ,,,,"0199751420,9780199751426,0199751439,9780199751433",,,,,121.088/2943,BQ4255 .C69 2010,,DiAlQwAACAAJ,OL23972476M,,0,,,,1,0,1,1,1147684,pdf,081a675662e5aa946eb5c427652d9bdb,,,_295937.081a675662e5aa946eb5c427652d9bdb.pdf,0,2000-01-01 01:00:00,2016-04-03 02:51:08,827000/081a675662e5aa946eb5c427652d9bdb-d.jpg,,
5450349,ActionScript 3 et le motion design,,,,Arzhur Caouissin,2010,,Pearson Education,,510,0,French ,,,,"2744023973,9782744023972",,,,,,,,,,,0,,,,,0,1,1,23066727,pdf,081be908a644390241904a8fa083f921,,,_302127.081be908a644390241904a8fa083f921.pdf,0,2000-01-01 01:00:00,2016-04-03 02:51:08,827000/081be908a644390241904a8fa083f921-d.jpg,,
5450346,,,,Hack in the Box (HITB) Magazine - Vol 1 Issue 5 - Feb 2011  ,Hack in The Box,,Feb 2011,,,31,0,English ,,,,,,,,,,,,,,,0,,,,0,0,0,1,4076321,pdf,08132c9b005bebc84b7999ac4e081d57,,,_299421.08132c9b005bebc84b7999ac4e081d57.pdf,0,2000-01-01 01:00:00,2016-04-03 02:51:08,827000/08132c9b005bebc84b7999ac4e081d57-g.jpg,,
5450347,Medical Analogy in Latin Satire,,,,Sari Kivistö,2009,,Palgrave Macmillan,,225,0,English ,,,,"0230228127,9780230228122",,,,,877/.0093561,PA3033 .K49 2009,,,OL23909525M,,0,,,,1,0,1,1,1693633,pdf,081348cf2eeac3d291fb355c10aaaf6f,,,_304839.081348cf2eeac3d291fb355c10aaaf6f.pdf,0,2000-01-01 01:00:00,2016-04-03 02:51:08,827000/081348cf2eeac3d291fb355c10aaaf6f-d.jpg,,
5450345,Integrated Coastal and Ocean Management: Concepts And Practices,,,,"Biliana Cicin-Sain, Robert Knecht",1998,1,Island Press,,545,0,English ,,,,"1559636033,9781559636032",,,,,333.91/7,HT391 .C483 1998,,,OL352950M,,0,,,,1,0,1,1,4036641,pdf,0810dc8071cd94aa3a71850943295328,,,_307225.0810dc8071cd94aa3a71850943295328.pdf,0,2000-01-01 01:00:00,2016-04-03 02:51:08,827000/0810dc8071cd94aa3a71850943295328-d.jpg,,
5450343,Governing the Metropolis: Principles and Cases,,,,Inter-American Development Bank,2008,,"Inter-American Development Bank, Harvard University David Rockefeller Center for Latin American",,320,0,English ,,,,"1597820709,9781597820707",,,,,,,,,,,0,,,,,1,,1,2412961,pdf,08067e3d829e8fbe6cb8b5246f60605a,,,_300366.08067e3d829e8fbe6cb8b5246f60605a.pdf,0,2000-01-01 01:00:00,2016-04-03 02:51:08,827000/08067e3d829e8fbe6cb8b5246f60605a-d.jpg,,
5450344,"The Modern World, Volume 1: Civilizations of Africa",,,,"Sarolta, Ph.D. Takacs",2008,,M.E. Sharpe,,176,0,English ,,,,"0765680963,9780765680969",,,,,903,CB357 .M65 2008,,,OL17026547M,,0,,,,1,0,1,1,7363902,pdf,080adbf2cdef2e444423cb235b49a50d,,,_305265.080adbf2cdef2e444423cb235b49a50d.pdf,0,2000-01-01 01:00:00,2016-04-03 02:51:08,827000/080adbf2cdef2e444423cb235b49a50d-g.jpg,,
5450341,Computer Vision: From Surfaces to 3D Objects,,,,Christopher W. Tyler,2011,1,Chapman and Hall/CRC,,292,0,English ,,,,"143981712X,9781439817124",,,,,006.3/7,TA1634 .C657 2010,,,OL24479065M,,0,,,,,1,,,7160682,pdf,08037ede6d7bf703ec05719ca10af1ad,,,_297416.08037ede6d7bf703ec05719ca10af1ad.pdf,0,2000-01-01 01:00:00,2016-04-03 02:51:08,827000/08037ede6d7bf703ec05719ca10af1ad-d.jpg,,
5450342,Strategic Value Analysis: Organize Your Company for Strategic Success (Executive Briefings),,,,Takeo Yoshikawa,2002,,Financial Times Management,,124,0,English ,,,,"0273654292,9780273654292",,,,,,,,,OL10287753M,,0,,,,,1,,1,453056,pdf,0805bed6be7a6069db736ca603896e31,,,_293685.0805bed6be7a6069db736ca603896e31.pdf,0,2000-01-01 01:00:00,2016-04-03 02:51:08,827000/0805bed6be7a6069db736ca603896e31-d.jpg,,
5450338,On the ancient contacts between Hamito-Semitic and north Caucasian,,,"Folia Linguistica Historica Volume 15, Issue 1-2  ",Vladimir Orel,1994,,,,10,0,English ,,,,,1614-7316,,,,,,,,,,0,,,,,1,,1,338464,pdf,07f75de572d7e39e58b06c6e1b48283a,,,_301432.07f75de572d7e39e58b06c6e1b48283a.pdf,0,2000-01-01 01:00:00,2016-04-03 02:51:08,827000/07f75de572d7e39e58b06c6e1b48283a-g.jpg,,
5450339,Audio Production and Critical Listening: Technical Ear Training,,,,Jason Corey,2010,1,Focal Press,,181,0,English ,,,,"0240812956,9780240812953",,,,,781.49,TA365 .C678 2010,,,OL24013585M,Missing table of contents,0,,,,0,0,0,1,2737758,pdf,080044436fc67601e71dc38aa63d0324,,,_302276.080044436fc67601e71dc38aa63d0324.pdf,0,2000-01-01 01:00:00,2016-04-03 02:51:08,827000/080044436fc67601e71dc38aa63d0324-d.jpg,,
5450340,Ancient Epic (Blackwell Introductions to the Classical World),,Blackwell Introductions to the Classical World ,,Katherine Callen King,2009,1,Wiley-Blackwell,,217,0,English ,,,,"1405159472,9781405159470",,,,,809.1/32,PN1307 .K56 2009,,nrH5wv2vl2AC,OL17101506M,,0,,,,1,0,1,1,1515047,pdf,08029b16ccf69e6152ebab84b9739076,,,_296022.08029b16ccf69e6152ebab84b9739076.pdf,0,2000-01-01 01:00:00,2016-04-03 02:51:08,827000/08029b16ccf69e6152ebab84b9739076-d.jpg,,
5450336,My SQL,,,,Sophia Fraser,,,,,72,0,English ,,,,"9789380168449,9380168446",,,,,,,,,,,0,,,,1,0,1,1,448728,pdf,07ee4e4d205f4fbf694f841ea79036a7,,,_177558.07ee4e4d205f4fbf694f841ea79036a7.pdf,0,2000-01-01 01:00:00,2016-04-03 02:51:08,827000/07ee4e4d205f4fbf694f841ea79036a7-g.jpg,,
5450337,Verzinsliche Wertpapiere: Bewertung und Strategien 3. Auflage,,,,Reto R. Gallati,2011,3.Aufl. 2011,Gabler,,301,0,German ,,,,"3834927996,9783834927996",,,,,,,,,,,0,,,,1,0,1,1,1283392,pdf,07f31c01fc2cc2613b5970f7162e7099,,,_304573.07f31c01fc2cc2613b5970f7162e7099.pdf,0,2000-01-01 01:00:00,2016-04-03 02:51:08,827000/07f31c01fc2cc2613b5970f7162e7099-d.jpg,,
5450333,Luganda-English Dictionary,,,,John D. Murphy,,,,,332,0,English ,,,,,,,,,,,,,,,0,,,,,1,,,26938543,pdf,07e95d534c8275f644232b24e43ed9e0,,,_303605.07e95d534c8275f644232b24e43ed9e0.pdf,0,2000-01-01 01:00:00,2016-04-03 02:51:08,827000/07e95d534c8275f644232b24e43ed9e0-g.jpg,,
5450334,Common Law Marriage: A Legal Institution for Cohabitation,,,,Goran Lind,2008,,"Oxford University Press, USA",,1244,0,English ,,,,"0195366816,9780195366815",,,,,346.7301/6,KF516 .L56 2008,,,OL10135435M,,0,,,,1,0,1,1,4733202,pdf,07ed0410092649f05cd233988678b409,,,_305175.07ed0410092649f05cd233988678b409.pdf,0,2000-01-01 01:00:00,2016-04-03 02:51:08,827000/07ed0410092649f05cd233988678b409-d.jpg,,
5450335,Millimeter-Wave Integrated Circuits,,,,"Eoin Carey, Sverre Lidholm",2004,1,Springer,,285,0,English ,,,,"0387236651,9780387236650,038723666X",,,,,621.3815,TK7876.5 .C37 2005,,ZW17tJ53tDwC,OL22625857M,,0,,,,1,0,1,1,10421064,pdf,07ee4864d381a557a766c40e39acc29b,,,_301579.07ee4864d381a557a766c40e39acc29b.pdf,0,2000-01-01 01:00:00,2016-04-03 02:51:08,827000/07ee4864d381a557a766c40e39acc29b-d.jpg,,
5450331,Biostatistics for Animal Science,,,,"Miroslav Kaps, William R. Lamberson",2004,,CABI,,460,0,English ,,,,"0851998208,9780851998206",,,,,,,,,OL8280118M,,0,,,,,1,,,3273739,pdf,07e633f4023c63692d9ff2daabbbe235,,,_310282.07e633f4023c63692d9ff2daabbbe235.pdf,0,2000-01-01 01:00:00,2016-04-03 02:51:08,827000/07e633f4023c63692d9ff2daabbbe235-d.jpg,,
5450332,"Matrix Partial Orders, Shorted Operators and Applications (Series in Algebra)",,,,"Sujit Kumar Mitra, P. Bhimasankaram, Saroj B. Malik",2010,,World Scientific Publishing Company,,464,0,English ,,,,"9812838449,9789812838445",,,,,,,,,,,0,,,,,1,,,3229730,pdf,07e76366e47159884fa48e3a00773f50,,,_199337.07e76366e47159884fa48e3a00773f50.pdf,0,2000-01-01 01:00:00,2016-04-03 02:51:08,827000/07e76366e47159884fa48e3a00773f50-d.jpg,,
5450330,Truth and Other Enigmas,,,,Michael Dummett,1978,First Edition,Harvard University Press,,526,0,English ,,,,"0674910753,0674910761,9780674910751,9780674910768",,,,,192,B29 .D85,,VB28AAAAIAAJ,OL4545049M,,300,,,,0,1,1,1,7699377,djvu,07e5fbedebf8f936be9992e7dcded341,,,_301008.07e5fbedebf8f936be9992e7dcded341.djvu,0,2000-01-01 01:00:00,2016-04-03 02:51:08,827000/07e5fbedebf8f936be9992e7dcded341-d.jpg,,
5450328,Zwischen Stilettos und Schlabberlatz: Stilvoll überleben als Mutter,,,,Grace Saunders,2008,,Campus Verlag,,270,0,German ,,,,"3593382628,9783593382623",,,,,,,,,,,0,,,,1,0,0,1,1616878,pdf,07d083f137001002da62a5e981ff1437,,,_300091.07d083f137001002da62a5e981ff1437.pdf,0,2000-01-01 01:00:00,2016-04-03 02:51:08,827000/07d083f137001002da62a5e981ff1437-d.jpg,,
5450329,"The Governance of Policing and Security: Ironies, Myths and Paradoxes (Crime Prevention and Security Management)",,Crime prevention and security management ,,"Bob Hoogenboom, Maurice Punch",2010,,Palgrave Macmillan,,245,0,English ,,,,"0230542654,9780230542655",,,,,,,,x4CsPwAACAAJ,,,0,,,,1,0,1,1,1319785,pdf,07e3242653d549af21d4df056d203267,,,_295451.07e3242653d549af21d4df056d203267.pdf,0,2000-01-01 01:00:00,2016-04-03 02:51:08,827000/07e3242653d549af21d4df056d203267-d.jpg,,
5450326,My So-Called Love Life (Love Inspired #359),,,,Allie Pleiter,2006,,Steeple Hill,,254,0,English ,,,,155254558X,,,,,,,,dtaKVIn0BG8C,OL24319788M,,0,,,,1,1,1,1,1005705,pdf,07c6b4ac474b18918e0937b08583ec79,,,_305812.07c6b4ac474b18918e0937b08583ec79.pdf,0,2000-01-01 01:00:00,2016-04-03 02:51:08,827000/07c6b4ac474b18918e0937b08583ec79-g.jpg,,
5450327,The Systematic Identification of Organic Compounds,,,,"Ralph L. Shriner, Christine K. F. Hermann, Terence C. Morrill, David Y. Curtin, Reynold C. Fuson",2004,Eighth,Wiley,,731,0,English ,,,,"0471215031,9780471215035",,,,,547/.34/078,QD261 .S965 2004,,,OL3684192M,,0,,,,0,1,1,1,42543623,pdf,07c7ce7485823eec709fa87bea04ed11,,,_290716.07c7ce7485823eec709fa87bea04ed11.pdf,0,2000-01-01 01:00:00,2016-04-03 02:51:08,827000/07c7ce7485823eec709fa87bea04ed11-d.jpg,,
5450325,Philosophy And Its Epistemic Neuroses,,,,Michael Hymers,1999,,Westview Press,,227,0,English ,,,,"0813391377,9780813391373",,,,,,,,WyjXAAAAMAAJ,OL16953710M,,0,,,,0,1,1,1,34547811,pdf,07c3e485d3688d3a632383e63943ba6d,,,_430261.07c3e485d3688d3a632383e63943ba6d.pdf,0,2000-01-01 01:00:00,2016-04-03 02:51:08,827000/07c3e485d3688d3a632383e63943ba6d-g.jpg,,
5450323,Industrial Dynamics and the Evolution of Markets in the Mutual Fund Industry,,,,Andreas Mattig,2009,2009,Gabler,,243,0,English ,,,,3834919381,,,,,,,,,,,0,,,,,1,,,10612281,pdf,07c0e06601c858d6fdb7c2405c4ade59,,,_291276.07c0e06601c858d6fdb7c2405c4ade59.pdf,0,2000-01-01 01:00:00,2016-04-03 02:51:08,827000/07c0e06601c858d6fdb7c2405c4ade59-d.jpg,,
5450324,"Женщины, огонь и опасные вещи: что категории языка говорят нам о мышлении",,(Язык. Семиотика. Культура) ,,Джордж Лакофф (George Lakoff),2004,,Языки славянской культуры,,790,0,Russian ,,,,"5944571292,9785944571298",1727-1630,,,,,,,,,,300,,,,,1,1,1,10877002,djvu,07c25d2718acce348add63a7aa474031,,,_295230.07c25d2718acce348add63a7aa474031.djvu,0,2000-01-01 01:00:00,2016-04-03 02:51:08,827000/07c25d2718acce348add63a7aa474031-g.jpg,,
5450321,Language two,,,,Heidi C Dulay,,,,,165,0,English ,,,,0195025520,,,,,,,,,,,0,,,,,1,,,3483747,pdf,07bd60561cafe2e21e99a4bb0e721222,,,_291371.07bd60561cafe2e21e99a4bb0e721222.pdf,0,2000-01-01 01:00:00,2016-04-03 02:51:08,827000/07bd60561cafe2e21e99a4bb0e721222-g.jpg,,
5450322,Drug Targets in Kinetoplastid Parasites (Advances in Experimental Medicine and Biology Vol 625),,Advances in Experimental Medicine and Biology volume 625,,Hemanta K. Majumder,2008,1,Springer,,174,0,English ,,,,"0387775692,9780387775692",,,,,615/.7,RM413 .D78 2008,,,OL16516274M,,0,,,,1,1,1,1,9185526,pdf,07c06b0e66bbc7b87f677ed8332166ac,,,_308392.07c06b0e66bbc7b87f677ed8332166ac.pdf,0,2000-01-01 01:00:00,2016-04-03 02:51:08,827000/07c06b0e66bbc7b87f677ed8332166ac-d.jpg,,
5450320,,,,"Drug Discovery Today, 2010 November, Volume 15, Numbers  21 22  ",Steve Carney,2010,,Elsevier,,112,0,English ,,,,,,,,,,,,,,,0,,,,1,1,0,1,28550854,pdf,07ba9ba84aae7181564ccdbb88922c86,,,_303020.07ba9ba84aae7181564ccdbb88922c86.pdf,0,2000-01-01 01:00:00,2016-04-03 02:51:08,827000/07ba9ba84aae7181564ccdbb88922c86-g.jpg,,
5450318,"Christmas Jazz, Rags & Blues, Bk 1",,,,Martha Mier,2005,,Alfred Publishing,,24,0,English ,,,,"0739038451,9780739038451",,,,,,,,,OL10657431M,,0,,,,,1,,,4958006,pdf,07b2f8e4a5962c5b23dc72bfa267a86b,,,_294007.07b2f8e4a5962c5b23dc72bfa267a86b.pdf,0,2000-01-01 01:00:00,2016-04-03 02:51:08,827000/07b2f8e4a5962c5b23dc72bfa267a86b-d.jpg,,
5450319,"Sherlock Holmes and the Mystery of Boscombe Pool (Penguin Readers, Level 3)",,,,"Arthur Conan Doyle, J.Y.K. Kerr (adaptation)",1991,,Pearson Education Limited,,26,0,English ,,,,"0582416981,9780582416987",,,,,,,,,OL18390222M,,0,,,,0,1,0,0,10634230,pdf,07b50648949dfdb9899a9db48990d7b3,,,_177386.07b50648949dfdb9899a9db48990d7b3.pdf,0,2000-01-01 01:00:00,2016-04-03 02:51:08,827000/07b50648949dfdb9899a9db48990d7b3-d.jpg,,
5450316,Creative Business: Achieving Your Goals Through Creative Thinking and Action,,,,"Chris Genasi, Tim Bills",2004,,Palgrave Macmillan,,161,0,English ,,,,"0333997352,9780333997352",,,,,,,,,OL17119940M,,0,,,,,1,,1,4837068,pdf,07ab759a80f2775e5d039efd84d211a7,,,_293920.07ab759a80f2775e5d039efd84d211a7.pdf,0,2000-01-01 01:00:00,2016-04-03 02:51:08,827000/07ab759a80f2775e5d039efd84d211a7-d.jpg,,
5450317,Science and Technology of Industrial Water Treatment,,,,Zahid Amjad,2010,,Intl Water Assn,,576,0,English ,,,,"1843393115,9781843393115",,,,,628.4/3,TD897 .S28 2010,,,OL24521185M,,0,,,,,1,,,10936683,pdf,07aee408a50b61a65db615d3f27d6a35,,,_292374.07aee408a50b61a65db615d3f27d6a35.pdf,0,2000-01-01 01:00:00,2016-04-03 02:51:08,827000/07aee408a50b61a65db615d3f27d6a35-d.jpg,,
5450314,"Enterprise 2.0: Planung, Einführung und erfolgreicher Einsatz von Social Software in Unternehmen",,,,"Michael Koch, Alexander Richter",2009,2nd,Oldenbourg,,259,0,German ,,,,"3486590545,9783486590548",,,,,,,10.1524/9783486593648,BNyKs3chIg0C,,,0,,,,0,0,,1,2932423,pdf,07a571ed32eb14224139fce8ee723b64,,,_310548.07a571ed32eb14224139fce8ee723b64.pdf,0,2000-01-01 01:00:00,2016-04-03 02:51:08,827000/07a571ed32eb14224139fce8ee723b64-g.jpg,,
5450315,The Well-Balanced Teacher: How to Work Smarter and Stay Sane Inside the Classroom and Out,,,,Mike Anderson,2010,,Association for Supervision & Curriculum Development,,147,0,English ,,,,"1416610693,9781416610694",,,,,371.1,LB1025.3 .M536 2010,,M24fcP-eA9kC,OL24452378M,,0,,,,1,0,1,1,1432467,pdf,07a72ef9a9d88a554702e28ca2b0b097,,,_311562.07a72ef9a9d88a554702e28ca2b0b097.pdf,0,2000-01-01 01:00:00,2016-04-03 02:51:08,827000/07a72ef9a9d88a554702e28ca2b0b097-d.jpg,,
5450312,Bridge Team Management,,,,"AJ Swift, T.J. Bailey",2004,2nd Revised edition,The Nautical Institute,,110,0,English ,,,,1870077660,,,,,,,,U--xQwAACAAJ,,,0,,,,,1,,,28553251,pdf,079d1dd51d55a26ccb46c27bb01ab573,,,_291409.079d1dd51d55a26ccb46c27bb01ab573.pdf,0,2000-01-01 01:00:00,2016-04-03 02:51:08,827000/079d1dd51d55a26ccb46c27bb01ab573-d.jpg,,
5450313,La Provincia del Hombre. Carnet de notas 1942-1972,,,,Elias Canetti,1982,,Taurus Editorial,,200,0,Spanish,,,,,,B0045VQM66,,,,,,,,,0,,,,,1,,,506399,pdf,079d4fe506401aa0d3668c7a7331fd79,,,_312242.079d4fe506401aa0d3668c7a7331fd79.pdf,0,2000-01-01 01:00:00,2016-04-03 02:51:08,827000/079d4fe506401aa0d3668c7a7331fd79-g.jpg,,
5450310,The Electron: Its Isolation and Measurements and the Determination of Some of Its Properties,,,,Robert Andrews Millikan,,,,,304,0,English ,,,,,,B0010W421U,,,,,,,,,0,,,,,1,,,5528462,djvu,079a7b25afbc72cbf882119492b1c58e,,,_35222.079a7b25afbc72cbf882119492b1c58e.djvu,0,2000-01-01 01:00:00,2016-04-03 02:51:08,827000/079a7b25afbc72cbf882119492b1c58e-g.jpg,,
5450311,Socialism after Hayek (Advances in Heterodox Economics),,,,Prof. Theodore A. Burczak Ph.D.,2006,,University of Michigan Press,,184,0,English ,,,,"0472099515,9780472099511",,,,,,,,,OL7633573M,,0,,,,,1,,,11729816,pdf,079cc08e2c9936ef45eee09c41831127,,,_295914.079cc08e2c9936ef45eee09c41831127.pdf,0,2000-01-01 01:00:00,2016-04-03 02:51:08,827000/079cc08e2c9936ef45eee09c41831127-d.jpg,,
5450308,"Tradition in the Ethics of Alasdair MacIntyre: Relativism, Thomism, and Philosophy",,,,Christopher Stephen Lutz,2009,,Lexington Books,,228,0,English ,,,,"0739141481,9780739141489,0739107496,9780739107492",,,,,,,,L0a1Nc3XWJQC,OL7913389M,,600,,,,1,1,0,0,22169997,pdf,0796480bd045336ddb88e57bfad35355,,,_304611.0796480bd045336ddb88e57bfad35355.pdf,0,2000-01-01 01:00:00,2016-04-03 02:51:08,827000/0796480bd045336ddb88e57bfad35355-d.jpg,,
5450309,I reietti dell'altro pianeta,,,,Ursula K. Le Guin,1974,,,,301,0,Italian ,,,,,,,,,,,,,,,0,,,,,1,0,1,1346155,pdf,0799143667cf1e1b29fec7f219485675,,,_300194.0799143667cf1e1b29fec7f219485675.pdf,0,2000-01-01 01:00:00,2016-04-03 02:51:08,827000/0799143667cf1e1b29fec7f219485675-g.jpg,,
5450306,The Rising Tide of Insignificancy (The Big Sleep),,,,Cornelius Castoriadis,,,,,444,0,English ,,,,,,,,,,,,,,,0,,,,,1,,,1705556,pdf,078f6c40617259cd8fede5c31cda2baf,,,_308258.078f6c40617259cd8fede5c31cda2baf.pdf,0,2000-01-01 01:00:00,2016-04-03 02:51:08,827000/078f6c40617259cd8fede5c31cda2baf-g.jpg,,
5450307,Faetar,,,,Naomi Nagy,2000,,LINCOM Europa,,143,0,English ,,,,"3895865486,9783895865480",,,,,,,,,OL4000464M,,0,,,,,1,0,0,21358542,pdf,0792eb0c42b23c0805a0ac294e430735,,,_310330.0792eb0c42b23c0805a0ac294e430735.pdf,0,2000-01-01 01:00:00,2016-04-03 02:51:08,827000/0792eb0c42b23c0805a0ac294e430735-g.jpg,,
5450304,Die Zukunft der Arten. Neue ökologische Überraschungen,,,,Josef H. Reichholf,2005,,C.H. Beck,,240,0,German ,,,,"3406527868,9783406527869",,,,,,,,,,,0,,,,1,0,0,1,2736572,pdf,0785009b90d8470f77dbb9e23f54cc31,,,_301131.0785009b90d8470f77dbb9e23f54cc31.pdf,0,2000-01-01 01:00:00,2016-04-03 02:51:08,827000/0785009b90d8470f77dbb9e23f54cc31-d.jpg,,
5450305,Survey of Energy Resources 2010,,,,World Energy Council,2010,,World Energy Council,,618,0,English ,,,,0946121265,,,,,,,,,,,0,,,,,1,,1,6771952,pdf,078e4649a2de0ef333a39d7aad57f814,,,_308686.078e4649a2de0ef333a39d7aad57f814.pdf,0,2000-01-01 01:00:00,2016-04-03 02:51:08,827000/078e4649a2de0ef333a39d7aad57f814-g.jpg,,
5450302,Dark Humor (Bloom's Literary Themes),,Bloom's Literary Themes ,,Harold Bloom,2010,Reprint,Blooms Literary Criticism,,290,0,English ,,,,"1604134402,9781604134407,9781438131023",,,,,809.7,PN56.H83 B56 2010,,5Vf6nC8XKWsC,OL23735928M,,0,,,,1,0,1,1,1162703,pdf,0780b42d17bc797f80c98d7a90dd2aec,,,_299155.0780b42d17bc797f80c98d7a90dd2aec.pdf,0,2000-01-01 01:00:00,2016-04-03 02:51:08,827000/0780b42d17bc797f80c98d7a90dd2aec-d.jpg,,
5450303,Krank in Deutschland: Ein Tatsachenreport,,,,Renate Hartwig,2010,,Pattloch,,107,0,German ,,,,"3629022766,9783629022769",,,,,,,,,,,0,,,,,0,0,1,608316,pdf,078432d4b9297ff1074ac3c20209d11a,,,_307330.078432d4b9297ff1074ac3c20209d11a.pdf,0,2000-01-01 01:00:00,2016-04-03 02:51:08,827000/078432d4b9297ff1074ac3c20209d11a-d.jpg,,
5450301,Seine Lordschaft lassen bitten. Sechs Erzählungen,,Serie Piper Band 5564 ,,Dorothy L. Sayers,1990,,Piper,,204,0,German ,,,,"3492155642,9783492155649",,,,,,,,,,,0,,,,0,1,1,1,713044,pdf,0780372eb42ceb4aae5ed2e515d0fd05,,,_311852.0780372eb42ceb4aae5ed2e515d0fd05.pdf,0,2000-01-01 01:00:00,2016-04-03 02:51:08,827000/0780372eb42ceb4aae5ed2e515d0fd05-g.jpg,,
5450299,,,Radical Philosophy #152 ,,Radical Philosophy,2008,,,,68,0,English ,,,,,,,,,,,,,,,0,,,,1,1,,1,1772430,pdf,077e2ac13aa91a6043f4922ea256b942,,,_303958.077e2ac13aa91a6043f4922ea256b942.pdf,0,2000-01-01 01:00:00,2016-04-03 02:51:08,827000/077e2ac13aa91a6043f4922ea256b942-g.jpg,,
5450300,Integrating Cardiology for Nuclear Medicine Physicians: A Guide to Nuclear Medicine Physicians,,,,"Assad Movahed, Gopinath Gnanasegaran, John Buscombe, Margaret Hall",2008,1,Springer,,529,0,English ,,,,"3540786732,9783540786733",,,,,,,,,,,0,,,,,1,1,1,15570984,pdf,077e375868d73686216485a4e6c0bda5,,,_289369.077e375868d73686216485a4e6c0bda5.pdf,0,2000-01-01 01:00:00,2016-04-03 02:51:08,827000/077e375868d73686216485a4e6c0bda5-d.jpg,,
5450296,Climate Change: Biological and Human Aspects,,,,Jonathan Cowie,2007,1,Cambridge University Press,,487,0,English ,,,,"0521696194,9780521696197",,,,,,,,,OL22754874M,,0,,,,1,1,,,4202635,pdf,0775dbd40deb0e3edb3276d23cc28be5,,,_307751.0775dbd40deb0e3edb3276d23cc28be5.pdf,0,2000-01-01 01:00:00,2016-04-03 02:51:08,827000/0775dbd40deb0e3edb3276d23cc28be5-d.jpg,,
5450297,Just Enough Software Architecture: A Risk-Driven Approach,,,,George H. Fairbanks,2010,1,Marshall & Brainerd,,378,0,English ,,,,"0984618104,9780984618101",,,,,,,,,,,0,,,,,1,1,,3562921,pdf,077822f2e64c3e4227842a5fb1b3ed26,,,_296995.077822f2e64c3e4227842a5fb1b3ed26.pdf,0,2000-01-01 01:00:00,2016-04-03 02:51:08,827000/077822f2e64c3e4227842a5fb1b3ed26-d.jpg,,
5450298,,,,"European Coatings Journal 2010,12  ",Vincentz Network GmbH & Co. KG,2010,,,,98,0,English ,,,,,,,,,,,,,,,0,,,,,1,,1,4281291,pdf,077917bf3d654706560fccb0c3905b36,,,_305428.077917bf3d654706560fccb0c3905b36.pdf,0,2000-01-01 01:00:00,2016-04-03 02:51:08,827000/077917bf3d654706560fccb0c3905b36-g.jpg,,
5450295,Phonology (Modern Linguistics),,,,Philip Carr,1993,,Palgrave Macmillan,,324,0,English ,,,,"0312101023,9780312101022",,,,,414,P217 .C35 1993,,,OL1394396M,,0,,,,0,1,0,0,15469741,pdf,077534647c084ba8961a64ea99fdb112,,,_256943.077534647c084ba8961a64ea99fdb112.pdf,0,2000-01-01 01:00:00,2016-04-03 02:51:08,827000/077534647c084ba8961a64ea99fdb112-g.jpg,,
5450293,Principles And Practice Of Aviation Medicine,,,,Claus Curdt-christiansen,2009,1,World Scientific Publishing Company,,852,0,English ,,,,9812388613,,,,,616.9/80213,RC1062 .P75 2009,,,OL13169197M,,0,,,,,1,,,6410722,pdf,077446e5c3855f5edc27b8e2d4aad325,,,_291281.077446e5c3855f5edc27b8e2d4aad325.pdf,0,2000-01-01 01:00:00,2016-04-03 02:51:08,827000/077446e5c3855f5edc27b8e2d4aad325-d.jpg,,
5450294,Knowing Knowledge,,,,George Siemens,2006,,Lulu.com,,176,0,English ,,,,"1430302305,9781430302308",,,,,,,,,OL8544090M,,0,,,,,1,,,8623064,pdf,07749fab751b7fa09408acc7382f0fc2,,,_308451.07749fab751b7fa09408acc7382f0fc2.pdf,0,2000-01-01 01:00:00,2016-04-03 02:51:08,827000/07749fab751b7fa09408acc7382f0fc2-d.jpg,,
5450291,VoIP Emergency Calling: Foundations and Practice,,,,"Karl Heinz Wolf, Richard Barnes",2011,1,Wiley,,237,0,English ,,,,"0470665947,9780470665947,9780470976968,9780470976975,9780470976944",,,,,384.6,,,,,,0,,,,1,0,1,1,1548049,pdf,076b25b51125ff443c829f5d5362130c,,,_289025.076b25b51125ff443c829f5d5362130c.pdf,0,2000-01-01 01:00:00,2016-04-03 02:51:08,827000/076b25b51125ff443c829f5d5362130c-d.jpg,,
5450292,Molecular and Genetic Basis of Renal Disease: A Companion to Brenner and Rector's The Kidney,,,,"David B. Mount MD, Martin R. Pollak MD",2007,1,Saunders,,592,0,English ,,,,"1416002529,9781416002529",,,,,616.6/1042,RC903.9 .M65 2008,,,OL11756645M,,0,,,,,1,,,20131556,pdf,077430f252aa8e1696309911faaef88d,,,_295892.077430f252aa8e1696309911faaef88d.pdf,0,2000-01-01 01:00:00,2016-04-03 02:51:08,827000/077430f252aa8e1696309911faaef88d-d.jpg,,
5450289,Essential Primary Science,,,,"Alan Cross, Adrian Bowden",2009,1,Open University Press,,330,0,English ,,,,"0335234615,9780335234615,033523934X,9780335239344",,,,,,,,,,,0,,,,1,0,1,1,7982492,pdf,075ba135d6550e010d46c6668e3fbebe,,,_294904.075ba135d6550e010d46c6668e3fbebe.pdf,0,2000-01-01 01:00:00,2016-04-03 02:51:08,827000/075ba135d6550e010d46c6668e3fbebe-d.jpg,,
5450290,"Short-Period Binary Stars: Observations, Analyses, and Results (Astrophysics and Space Science Library 352)",,Astrophysics and Space Science Library volume 352,,"Eugene F. Milone, Denis A. Leahy, David W. Hobill, Editors",2008,Softcover reprint of hardcover 1st ed. 2008,Springer,,289,0,English ,,,,"9048176662,9789048176663",,,,,,,,,,,0,,,,1,0,1,1,10009372,pdf,076af56b08819c2b385df8274479d6b6,,,_291802.076af56b08819c2b385df8274479d6b6.pdf,0,2000-01-01 01:00:00,2016-04-03 02:51:08,827000/076af56b08819c2b385df8274479d6b6-d.jpg,,
5450288,Russian Trade Unions and Industrial Relations in Transition,,,,"Simon Clarke, Sarah Ashwin",2003,,Palgrave Macmillan,,303,0,English ,,,,"0333735188,9780333735183",,,,,,,,,OL9620532M,,0,,,,,1,,1,1777010,pdf,075b57fe2aba1bd7b6ce8585fd2fccb8,,,_305835.075b57fe2aba1bd7b6ce8585fd2fccb8.pdf,0,2000-01-01 01:00:00,2016-04-03 02:51:08,827000/075b57fe2aba1bd7b6ce8585fd2fccb8-d.jpg,,
5450286,Around Glare: A New Aircraft Material in Context,,,,Coen Vermeeren,2002,,Springer,,228,0,English ,,,,"1402007787,9781402007781",,,,,629.134,TL680 .A73 2002,,,OL21801418M,,0,,,,,1,,,20512754,pdf,074fb72b2644e32ef48b9b5dc642d443,,,_303261.074fb72b2644e32ef48b9b5dc642d443.pdf,0,2000-01-01 01:00:00,2016-04-03 02:51:08,827000/074fb72b2644e32ef48b9b5dc642d443-g.jpg,,
5450287,Water for Energy 2010,,,,World Energy Council,2010,,World Energy Council,,56,0,English ,,,,9780946121106,,,,,,,,,,,0,,,,,0,1,1,2179741,pdf,075573bdecd202733eaa78c2b2bb81b4,,,_308822.075573bdecd202733eaa78c2b2bb81b4.pdf,0,2000-01-01 01:00:00,2016-04-03 02:51:08,827000/075573bdecd202733eaa78c2b2bb81b4-g.jpg,,
5450283,Barrier Properties of Polymer Clay Nanocomposites (Nanotechnology Science and Technology),,,,Vikas Mittal,2010,,Nova Science Pub Inc,,271,0,English ,,,,1608760219,,,,,,,,,,,0,,,,,1,,,13274388,pdf,074c3ccab0d832e7978359c5eaa32216,,,_291665.074c3ccab0d832e7978359c5eaa32216.pdf,0,2000-01-01 01:00:00,2016-04-03 02:51:08,827000/074c3ccab0d832e7978359c5eaa32216-d.jpg,,
5450284,The Poverty of Historicism,,,,Karl R. Popper,1957,,Boston The Beacon Press,,124,0,English ,,,,,,,,,,,,,,,0,,,,,1,,1,1003031,pdf,074d6a311eec4fabf1ead2ef23363c53,,,_310439.074d6a311eec4fabf1ead2ef23363c53.pdf,0,2000-01-01 01:00:00,2016-04-03 02:51:08,827000/074d6a311eec4fabf1ead2ef23363c53-g.jpg,,
5450285,"Searching for Extraterrestrial Intelligence: SETI Past, Present, and Future",,The Frontiers Collection ,,H. Paul Shuch,2011,1st Edition.,Springer,,561,0,English ,,,,"3642131956,9783642131950",1612-3018,,,,,,10.1007/978-3-642-13196-7,jAk9bTm3Sj4C,,,0,,,,1,0,1,1,12407873,pdf,074e5f3b7cb52cfb445bec22f5ecff1f,,,_305104.074e5f3b7cb52cfb445bec22f5ecff1f.pdf,0,2000-01-01 01:00:00,2016-04-03 02:51:08,827000/074e5f3b7cb52cfb445bec22f5ecff1f-d.jpg,,
5450281,Living as Equals: How Three White Communities Struggled to Make Interracial Connections During the Civil Rights Era,,,,Phyllis Palmer,2008,,Vanderbilt University Press,,313,0,English ,,,,"0826515975,9780826515971,0826515967,9780826515964",,,,,305.800973,E185.615 .P35 2008,,CP3dx7F5nNsC,OL18027450M,,0,,,,1,0,1,1,2382866,pdf,074a67c1ee52e1be06acd38e633d3e6b,,,_300668.074a67c1ee52e1be06acd38e633d3e6b.pdf,0,2000-01-01 01:00:00,2016-04-03 02:51:08,827000/074a67c1ee52e1be06acd38e633d3e6b-d.jpg,,
5450282,Counterterrorism Strategies for Corporations: The Ackerman Principles,,,,Mike Ackerman,2008,,Prometheus Books,,328,0,English ,,,,"1591026547,9781591026549",,,,,658.4/77,HV8290 .A35 2008,,,OL18687738M,,0,,,,,0,,1,1593266,pdf,074acb73a7f3e2cccc32a610b699e4df,,,_300559.074acb73a7f3e2cccc32a610b699e4df.pdf,0,2000-01-01 01:00:00,2016-04-03 02:51:08,827000/074acb73a7f3e2cccc32a610b699e4df-d.jpg,,
5450279,电动力学 (第二版) 学习辅导书,,,,"黄迺本, 方奕忠",2004,,,,185,0,Chinese (PRC),,,,"7040155672,9787040155679",,,,,,,,sYaNAAAACAAJ,,,0,,,,,0,1,1,1114990,pdf,0747f43e040c189fe729775501161a7a,,,_307932.0747f43e040c189fe729775501161a7a.pdf,0,2000-01-01 01:00:00,2016-04-03 02:51:08,827000/0747f43e040c189fe729775501161a7a-g.jpg,,
5450280,"On the Theory and Solution of Algebraical Equations, with the Recent Researches of Budan, Fourier and Sturm on the Separation of the Real and Imaginary Roots of Equations",,,,John Radford Young,1835,,"John Souter, London",,271,0,English ,,,,,,,,,,,,,,,0,,,,0,1,0,0,5988675,pdf,0748c191a2350a2fe4df53b423d632ef,,,_273616.0748c191a2350a2fe4df53b423d632ef.pdf,0,2000-01-01 01:00:00,2016-04-03 02:51:08,827000/0748c191a2350a2fe4df53b423d632ef-g.jpg,,
5450277,"Architecture de l'ordinateur : Portes logiques, circuits combinatoires, arithmétique binaire, circuits séquentiels et mémoires, exemple d'architecture",,,,"Robert Strandh, Irène Durand",,,,,221,0,French ,,,,2100492144,,,,,,,,,,,0,,,,,1,,,2701842,pdf,07401f4ec4449eb862f42e834bd876fe,,,_329766.07401f4ec4449eb862f42e834bd876fe.pdf,0,2000-01-01 01:00:00,2016-04-03 02:51:08,827000/07401f4ec4449eb862f42e834bd876fe-d.jpg,,
5450278,Monsieur Pain,,(Narrativas Hispánicas) ,,Roberto Bolaño,1999,,Editorial Anagrama,,171,0,Spanish,,,,"8433924451,9788433924452",,,,,,,,7hxfAAAAMAAJ,OL6845473M,,0,,,,,1,,,292652,pdf,07402bc26362f19fdb3afbcffdf1967e,,,_303432.07402bc26362f19fdb3afbcffdf1967e.pdf,0,2000-01-01 01:00:00,2016-04-03 02:51:08,827000/07402bc26362f19fdb3afbcffdf1967e-d.jpg,,
5450275,Democracy and Efficiency in the Economic Enterprise (Routledge Studies in Business Organizations and Networks),,,,"Ugo Pagano, Bob Rowthorn",1996,,Routledge,,352,0,English ,,,,"0415125863,9780415125864",,,,,331/.01/12,HD5650 .D445 1996,,,OL792011M,,0,,,,,1,,1,1909984,pdf,073b4b5d2335d40672da46a73366545e,,,_293941.073b4b5d2335d40672da46a73366545e.pdf,0,2000-01-01 01:00:00,2016-04-03 02:51:08,827000/073b4b5d2335d40672da46a73366545e-d.jpg,,
5450276,"L'Italia spiegata a mio nonno. Lavoro, pensioni e famiglia: un paese che ha rinunciato al futuro",,,,Federico Mello,2007,,Mondadori,,145,0,Italian ,,,,"8804573759,9788804573753",,,,,,,,H02EOgAACAAJ,,,0,,,,1,0,0,1,874521,pdf,073f410225838cd33b5cd90c951cc58f,,,_299982.073f410225838cd33b5cd90c951cc58f.pdf,0,2000-01-01 01:00:00,2016-04-03 02:51:08,827000/073f410225838cd33b5cd90c951cc58f-d.jpg,,
5450274,"Pediatric, Adolescent and Young Adult Gynecology",,,,"Albert Altchek, Liane Deligdisch",2009,1,Wiley-Blackwell,,520,0,English ,,,,"1405153474,9781405153478",,,,,618.92/098,RJ478 .P335 2008,,,OL11650339M,,0,,,,0,1,1,,19982411,pdf,073a6291e34a2441bd5d00da49b3b7f3,,,_313212.073a6291e34a2441bd5d00da49b3b7f3.pdf,0,2000-01-01 01:00:00,2016-04-03 02:51:08,827000/073a6291e34a2441bd5d00da49b3b7f3-d.jpg,,
5450272,Overthrow: America's Century of Regime Change from Hawaii to Iraq,,,,Stephen Kinzer,2007,,Times Books,,416,0,English ,,,,"0805082409,9780805082401",,,,,,,,,OL7933274M,,300,,,,0,1,0,1,15635824,pdf,073505da5f0081f55eb39895965af817,,,_300616.073505da5f0081f55eb39895965af817.pdf,0,2000-01-01 01:00:00,2016-04-03 02:51:08,827000/073505da5f0081f55eb39895965af817-d.jpg,,
5450273,Orphism and Christianity in Late Antiquity (Sozomena Studies in the Recovery of Ancient Texts - Vol. 7),,Sozomena - Studies in the Recovery of Ancient Texts volume 7,,Miguel Herrero de Jáuregui,2010,1,De Gruyter,,457,0,English ,,,,"3110206331,9783110206333",,,,,261.2/2,BL820.O7 H4713 2009,,84f5zVB6ewgC,OL23972502M,,0,,,,1,0,1,1,3701952,pdf,073581d62d9243cdc75e0c0a1cf59963,,,_289558.073581d62d9243cdc75e0c0a1cf59963.pdf,0,2000-01-01 01:00:00,2016-04-03 02:51:08,827000/073581d62d9243cdc75e0c0a1cf59963-d.jpg,,
5450270,The Production Manual: A Graphic Design Handbook,,,,"Gavin Ambrose, Paul Harris",2008,,Ava Publishing,,191,0,English ,,,,"2940373639,9782940373635,2940439591,9782940439591",,,,,,,,,OL12658121M,,0,,,,,1,,,26212774,pdf,073448d9a46968ecb053fa96b717ee1c,,,_201112.073448d9a46968ecb053fa96b717ee1c.pdf,0,2000-01-01 01:00:00,2016-04-03 02:51:08,827000/073448d9a46968ecb053fa96b717ee1c-d.jpg,,
5450271,The Serbs and Byzantium during the reign of Tsar Stephen Dusan (1331-1355) and his successors,,,,Georgios Christos Soulis,1984,,Dumbarton Oaks Library and Collection,,389,0,English ,,,,"0884021378,9780884021377",,,,,949.7/101,DR1992 .S68 1984,,,OL2839836M,,0,,,,1,1,0,0,49346578,pdf,07349497588e8d0903b31352774888a6,,,_308749.07349497588e8d0903b31352774888a6.pdf,0,2000-01-01 01:00:00,2016-04-03 02:51:08,827000/07349497588e8d0903b31352774888a6-g.jpg,,
5450268,Fault Injection Techniques and Tools for Embedded Systems Reliability Evaluation (Frontiers in Electronic Testing),,,,"Alfredo Benso, Paolo Prinetto",2003,1,Springer,,245,0,English ,,,,"1402075898,9781402075896",,,,,,,,,OL8372759M,,0,,,,,1,,,10275493,pdf,072cf9d1c9c8b3a458186d9c82ceecf8,,,_308195.072cf9d1c9c8b3a458186d9c82ceecf8.pdf,0,2000-01-01 01:00:00,2016-04-03 02:51:08,827000/072cf9d1c9c8b3a458186d9c82ceecf8-d.jpg,,
5450269,Darwins Irrtum. Vorsintflutliche Funde beweisen: Dinosaurier und Menschen lebten gemeinsam,,,,Hans-Joachim Zillmer,2003,,Langen/Müller,,329,0,German ,,,,"378442709X,9783784427096",,,,,,,,,OL12911144M,,0,,,,,0,1,,9554373,pdf,07313b77a0997d525b41abbd27038fc8,,,_306649.07313b77a0997d525b41abbd27038fc8.pdf,0,2000-01-01 01:00:00,2016-04-03 02:51:08,827000/07313b77a0997d525b41abbd27038fc8-d.jpg,,
5450266,"ETFs for the Long Run: What They Are, How They Work, and Simple Strategies for Successful Long-Term Investing",,,,Lawrence Carrel,2008,1,Wiley,,323,0,English ,,,,"0470138947,9780470138946",,,,,332.63/27,HG6043 .C37 2008,,,OL16818592M,,0,,,,,1,1,1,1269247,pdf,072658c56ba1fbc04727464d221ed99b,,,_297010.072658c56ba1fbc04727464d221ed99b.pdf,0,2000-01-01 01:00:00,2016-04-03 02:51:08,827000/072658c56ba1fbc04727464d221ed99b-d.jpg,,
5450267,Beat Your Goals: The Definitive Guide to Personal Success (Colour Guides),,,,"David Molden, Denise Parker",2002,,Financial Times Management,,177,0,English ,,,,"0273656708,9780273656708",,,,,158.1,,,,OL10287853M,,0,,,,,1,,1,1342993,pdf,072b2ad316c42b4d5fbb9b3d4c2fd7ed,,,_293700.072b2ad316c42b4d5fbb9b3d4c2fd7ed.pdf,0,2000-01-01 01:00:00,2016-04-03 02:51:08,827000/072b2ad316c42b4d5fbb9b3d4c2fd7ed-d.jpg,,
5450264,Social and Economic Networks,,,,Matthew O. Jackson,2008,,Princeton University Press,,648,0,English ,,,,,,,,,,,,,,,0,,,,0,1,0,1,4562129,pdf,072025cd8771c6276e951d900bd665fa,,,_295345.072025cd8771c6276e951d900bd665fa.pdf,0,2000-01-01 01:00:00,2016-04-03 02:51:08,827000/072025cd8771c6276e951d900bd665fa-g.jpg,,
5450265,"Rule Interchange and Applications: International Symposium, RuleML 2009, Las Vegas, Nevada, USA, November 5-7, 2009. Proceedings (Lecture Notes in ...   Programming and Software Engineering)",,Lecture Notes in Computer Science volume 5858,,"Adrian Paschke, Guido Governatori, John Hall",2009,1,Springer,,366,0,English ,,,,"3642049842,9783642049842",,,,,004n/a,QA76.76.H94 R88 2009,,,OL25114833M,,0,,,,0,0,1,1,5727861,pdf,0725ce48a860b4360d03fb27aea2feb2,,,_309593.0725ce48a860b4360d03fb27aea2feb2.pdf,0,2000-01-01 01:00:00,2016-04-03 02:51:08,827000/0725ce48a860b4360d03fb27aea2feb2-d.jpg,,
5450262,Силы ужаса: эссе об отвращении,,Гендерные исследования,,Юлия Кристева,2003,,Алетейя,,256,0,Russian,Философия,,0,5893296206,,,,,,,,,,,0,,,,1,1,1,1,2211355,djvu,071cfad05e4a9f0e15a4cfaeb0c51de3,,,_296227.071cfad05e4a9f0e15a4cfaeb0c51de3.djvu,0,2000-01-01 01:00:00,2016-04-03 02:51:08,827000/071cfad05e4a9f0e15a4cfaeb0c51de3-g.jpg,,
5450263,What Teachers Really Need to Know About Formative Assessment,,,,Laura Greenstein,2010,,Association for Supervision & Curriculum Development,,205,0,English ,,,,"1416609962,9781416609964",,,,,371.26/4,LB3051 .G72 2010,,,OL24110547M,,0,,,,1,0,1,1,1867431,pdf,071daed37bc7434768746d870764a404,,,_294242.071daed37bc7434768746d870764a404.pdf,0,2000-01-01 01:00:00,2016-04-03 02:51:08,827000/071daed37bc7434768746d870764a404-d.jpg,,
5450260,A History of UNESCO (UNESCO reference books),,,,Fernando Valderrama,1995,,Unesco,,470,0,English ,,,,"9231031341,9789231031342",,,,,001/.06/01,AS4.U8 V35 1995,,,OL584971M,,0,,,,1,0,1,1,6070683,pdf,071913fb3914ca289435af45d5836f04,,,_304221.071913fb3914ca289435af45d5836f04.pdf,0,2000-01-01 01:00:00,2016-04-03 02:51:08,827000/071913fb3914ca289435af45d5836f04-g.jpg,,
5450261,The Third Millennium: Living in the Posthistoric World,,,,Ken Carey,1996,,HarperOne,,224,0,English ,,,,"0062514083,9780062514080",,,,,,,,,OL22975732M,,0,,,,,1,,,4298858,pdf,071a576391b0929ff5357adc5cdb6350,,,_307933.071a576391b0929ff5357adc5cdb6350.pdf,0,2000-01-01 01:00:00,2016-04-03 02:51:08,827000/071a576391b0929ff5357adc5cdb6350-d.jpg,,
5450258,"Analyse numérique, vol. 3 : Itérations et approximation",,,,Moïse Sibony,1997,,Hermann,,479,0,French ,,,,"2705614212,9782705614218,2705614214",,,,,,,,,OL12521797M,,0,,,,,1,,,5011285,djvu,0712fd7d9a61ed6a9317af09f18c9d57,,,_204210.0712fd7d9a61ed6a9317af09f18c9d57.djvu,0,2000-01-01 01:00:00,2016-04-03 02:51:08,827000/0712fd7d9a61ed6a9317af09f18c9d57-d.jpg,,
5450259,Easy Microsoft Word 2010,,,,Sherry Kinkoph Gunter,2010,1,Que,,250,0,English ,,,,"0789743299,9780789743299",,,,,005.52,Z52.5.M52 G86 2010,,,OL24383482M,,0,,,,1,0,1,1,93634338,pdf,0715e2d94969491bcc4149fd00f5f955,,,_314150.0715e2d94969491bcc4149fd00f5f955.pdf,0,2000-01-01 01:00:00,2016-04-03 02:51:08,827000/0715e2d94969491bcc4149fd00f5f955-d.jpg,,
5450256,Europeana: A Brief History of the Twentieth Century (Eastern European Literature),,,,Patrik Ouředník,2005,,Dalkey Archive Press,,64,0,English ,,,,"1564783820,9781564783820",,,,,940.5,D424 .O813 2005,,,OL3311679M,,0,,,,0,1,0,0,4690890,pdf,07115b81cac43638ca9bbc1bdc6c8c87,,,_301880.07115b81cac43638ca9bbc1bdc6c8c87.pdf,0,2000-01-01 01:00:00,2016-04-03 02:51:08,827000/07115b81cac43638ca9bbc1bdc6c8c87-d.jpg,,
5450257,And Then There Were None,,,,Agatha Christie,2003,,HarperCollins Publishers,,315,0,English ,,,,006073633X,,,,,,,,,,,0,,,,0,0,1,1,1600464,pdf,07122308dc8f4eb47314784b7cec6ec7,,,_295445.07122308dc8f4eb47314784b7cec6ec7.pdf,0,2000-01-01 01:00:00,2016-04-03 02:51:08,827000/07122308dc8f4eb47314784b7cec6ec7-g.jpg,,
5450254,"Fluid Mechanics, Fourth Edition",,,,"Ira M. Cohen, Pijush K. Kundu",2007,4,Academic Press,,901,0,English ,,,,"0123737354,9780123737359,9780123814005,9780123813992,0123813999",,,,,620.1/06,QA901 .K86 2008,,,OL10071986M,,0,,,,,1,1,1,9981879,pdf,07085407e052b7e0b0018ba7ccdfc907,,,_207666.07085407e052b7e0b0018ba7ccdfc907.pdf,0,2000-01-01 01:00:00,2016-04-03 02:51:08,827000/07085407e052b7e0b0018ba7ccdfc907-d.jpg,,
5450255,Wybór Idiomów Włoskich,,,,"Piotr Salwa, Małgorzata Szleszyńska",,,Wiedza Powszechna,,104,0,Polish ,,,,8321413471,,,,,,,,,,,0,,,,0,1,0,0,24527536,pdf,070e332eb016ddb41c2c0c0398b60220,,,_308600.070e332eb016ddb41c2c0c0398b60220.pdf,0,2000-01-01 01:00:00,2016-04-03 02:51:08,827000/070e332eb016ddb41c2c0c0398b60220-g.jpg,,
5450253,New Trends in Algebraic Geometry (London Mathematical Society Lecture Note Series (No. 264)),,London Mathematical Society Lecture Note Series (No. 264) ,,"K. Hulek (editor), M. Reid (editor), C. Peters (editor), F. Catanese (editor)",1999,,Cambridge University Press,,495,0,English ,,,,"9780511721540,9780521646598",,,,,,,10.1017/CBO9780511721540,77_WFOhnnGMC,OL7750008M,,0,,,,1,1,1,1,6167236,pdf,0706c8521652bad9dc473a842381cf6f,,,_405590.0706c8521652bad9dc473a842381cf6f.pdf,0,2000-01-01 01:00:00,2016-04-03 02:51:08,827000/0706c8521652bad9dc473a842381cf6f-d.jpg,,
5450251,Inside the Civano Project: A Case Study of Large-Scale Sustainable Neighborhood Development (Mcgraw-Hill's Greensource Series),,McGraw-Hill's GreenSource ,,"Al Nichols, Jason Laros",2009,1,McGraw-Hill Professional,,320,0,English ,,,,"0071599312,9780071599313,9780071599320",,,,,711/.420979177,TH24.A6 N53 2010,,uZNXV4WaKd0C,OL23621879M,,0,,,,1,0,1,1,3720100,pdf,06f663f4f63aea57cff1be823943b929,,,_295139.06f663f4f63aea57cff1be823943b929.pdf,0,2000-01-01 01:00:00,2016-04-03 02:51:08,827000/06f663f4f63aea57cff1be823943b929-d.jpg,,
5450252,"L'argent, mode d'emploi",,,,Paul Jorion,,,Fayard,,401,0,French ,,,,"2213644047,9782213644042",,,,,,,,,OL24082639M,,0,,,,,1,,,4603853,pdf,07022bafc57409eff11dd7f35375073d,,,_206747.07022bafc57409eff11dd7f35375073d.pdf,0,2000-01-01 01:00:00,2016-04-03 02:51:08,827000/07022bafc57409eff11dd7f35375073d-d.jpg,,
5450250,Global Imbalances and the Lessons of Bretton Woods (Cairoli Lectures),,,,Barry Eichengreen,2006,,The MIT Press,,206,0,English ,,,,"0262050846,9780262050845",,,,,,,,,OL16141357M,,0,,,,,1,,1,1134780,pdf,06f5ba444097f06f20b6709b6a874ace,,,_293681.06f5ba444097f06f20b6709b6a874ace.pdf,0,2000-01-01 01:00:00,2016-04-03 02:51:08,827000/06f5ba444097f06f20b6709b6a874ace-d.jpg,,
5450248,Model Predictive Control of Wastewater Systems (Advances in Industrial Control),,,,Carlos Ocampo-Martinez,2010,1st Edition.,Springer,,247,0,English ,,,,"1849963525,9781849963527",,,,,,,,,,,0,,,,,1,,,5023577,pdf,06f3596e2c84cbe0af2db7b34685d838,,,_299714.06f3596e2c84cbe0af2db7b34685d838.pdf,0,2000-01-01 01:00:00,2016-04-03 02:51:08,827000/06f3596e2c84cbe0af2db7b34685d838-d.jpg,,
5450249,Critical Theory and Performance: Revised and Enlarged Edition (Theater: Theory Text Performance),,,,"Janelle G. Reinelt, Joseph Roach",,,,,608,0,English ,,,,0472068865,,,,,,,,,,,0,,,,,1,,,98015879,pdf,06f4d9a29aa4f0a95afd12a3a9b12725,,,_291765.06f4d9a29aa4f0a95afd12a3a9b12725.pdf,0,2000-01-01 01:00:00,2016-04-03 02:51:08,827000/06f4d9a29aa4f0a95afd12a3a9b12725-g.jpg,,
5450246,Democratic Tradition Of The Chinese People's Liberation Army,,,,Ho Lung (He Long),1965,,FOREIGN LANGUAGES PRESS PEKING 1965,,23,0,English ,,,,,,,,,,,,,,,0,,,,,1,,,2407652,pdf,06efdd65fb3d614f4b7c6840334665d3,,,_303614.06efdd65fb3d614f4b7c6840334665d3.pdf,0,2000-01-01 01:00:00,2016-04-03 02:51:08,827000/06efdd65fb3d614f4b7c6840334665d3-g.jpg,,
5450247,"Rhythm and Blues, Rap, and Hip-Hop (American Popular Music)",,,,Frank W. Hoffmann,2005,,Facts on File,,332,0,English ,,,,"0816053154,9780816053155",,,,,781.643/0973/03,ML102.P66 H6 2006,,,OL3394033M,,0,,,,,1,,,23174404,pdf,06efe182f687742c95b68a8aceb6227f,,,_308828.06efe182f687742c95b68a8aceb6227f.pdf,0,2000-01-01 01:00:00,2016-04-03 02:51:08,827000/06efe182f687742c95b68a8aceb6227f-d.jpg,,
5450244,Listening to the Cicadas: A Study of Plato's Phaedrus (Cambridge Classical Studies),,,,G. R. F. Ferrari,1987,1,Cambridge University Press,,293,0,English ,,,,"0521267781,9780521267786",,,,,184,B380 .F47 1987,,Z0RDEiGkIcQC,OL2739261M,,0,,,,,1,1,1,8433396,pdf,06e72032a6a0172ad192c9ad9c3b8a56,,,_294991.06e72032a6a0172ad192c9ad9c3b8a56.pdf,0,2000-01-01 01:00:00,2016-04-03 02:51:08,827000/06e72032a6a0172ad192c9ad9c3b8a56-d.jpg,,
5450245,Read My Desire: Lacan against the Historicists (October Books),,October Books ,,Joan Copjec,1994,First Edition,The MIT Press,,283,0,English ,,,,"0262032198,9780262032193",,,,,150.19/5,BF175.4.C84 C66 1994,,,OL1077193M,,0,,,,0,1,0,1,5684418,pdf,06ef7939baf4da38f5e3931c1d9f169e,,,_298366.06ef7939baf4da38f5e3931c1d9f169e.pdf,0,2000-01-01 01:00:00,2016-04-03 02:51:08,827000/06ef7939baf4da38f5e3931c1d9f169e-d.jpg,,
5450243,Die Johannesoffenbarung und Kaiser Hadrian: Studien zur Datierung der neutestamentlichen Apokalpyse (Forschungen zur Religion und Literatur des Alten und Neuen Testaments 221),,Forschungen zur Religion und Literatur des Alten und Neuen Testaments (FRLANT) volume 221,,Thomas Witulski,2007,,Vandenhoeck & Ruprecht,,417,0,German ,,,,"3525530854,9783525530856",,,,,,,,,OL23156849M,,400,,,,1,1,1,1,25556333,pdf,06e70cbe500dc99e932801da683ecfea,,,_298570.06e70cbe500dc99e932801da683ecfea.pdf,0,2000-01-01 01:00:00,2016-04-03 02:51:08,827000/06e70cbe500dc99e932801da683ecfea-d.jpg,,
5450241,Getting StartED Building Websites,,,,Alexander Dawson,2009,1,Apress,,682,0,English ,,,,"1430225173,9781430225171,9781430225188",,,,,,,,tIGeXUdJxbUC,,,0,,,,1,0,1,1,23257552,pdf,06e207cf51a0805b328c01ecd7b0e69d,,,_294702.06e207cf51a0805b328c01ecd7b0e69d.pdf,0,2000-01-01 01:00:00,2016-04-03 02:51:08,827000/06e207cf51a0805b328c01ecd7b0e69d-d.jpg,,
5450242,Nonsense: A Handbook of Logical Fallacies,,,,Robert J. Gula,2002,,Axios Press,,513,0,English ,,,,"0966190858,9780966190854",,,,,160,BF774 .G84 2007,,,OL17968604M,,0,,,,,1,,0,43915138,pdf,06e6c0beaea06e97acfd65ae71dd125c,,,_340855.06e6c0beaea06e97acfd65ae71dd125c.pdf,0,2000-01-01 01:00:00,2016-04-03 02:51:08,827000/06e6c0beaea06e97acfd65ae71dd125c-d.jpg,,
5450239,Theory of Mind and Language in Developmental Contexts (The Springer Series on Human Exceptionality),,,,"Alessandro Antonietti, Olga Liverta-Sempio, Antonella Marchetti (Editors",2006,1,Springer,,210,0,English ,,,,"038724994X,9780387249940",,,,,153,,,,OL7444742M,,0,,,,,1,,,1629080,pdf,06de517180eeca8e6b670f60881af514,,,_171773.06de517180eeca8e6b670f60881af514.pdf,0,2000-01-01 01:00:00,2016-04-03 02:51:08,827000/06de517180eeca8e6b670f60881af514-d.jpg,,
5450240,"Auferstehung und Jenseits im koptischen ''Buch der Auferstehung Jesu Christi, unseres Herrn''",,Orientalia Biblica et Christiana volume 11,,Matthias Westerhoff,1999,,Harrassowitz Verlag,,410,0,German ,,,,"3447040904,9783447040907",,,,,,,,,OL138471M,,400,,,,0,1,1,1,17423403,pdf,06df56573ef18405d3b29f53e6dd477b,,,_294029.06df56573ef18405d3b29f53e6dd477b.pdf,0,2000-01-01 01:00:00,2016-04-03 02:51:08,827000/06df56573ef18405d3b29f53e6dd477b-g.jpg,,
5450237,,,,"Journal of Ancient Near Eastern Religions (Volume 8, Number 2, 2008)  ",Seth Sanders,2008,,,,122,0,English ,,,,,1569-2116,,,,,,,,,,0,,,,1,0,1,1,2186582,pdf,06d1869883c414553dba7069ee341728,,,_297377.06d1869883c414553dba7069ee341728.pdf,0,2000-01-01 01:00:00,2016-04-03 02:51:08,827000/06d1869883c414553dba7069ee341728-g.jpg,,
5450238,"Najbolji način da se nauči astrologija: Matematičke metode i tehnike tumačenja, Knjiga 2",,,,"Marion Marč, Džoan Mekevers",1989,,"Dečje novine, Gornji Milanovac",,118,0,Serbian ,,,,,,,,,,,,,,,0,,,,,1,,,20520146,pdf,06d19907ec6be4e2bd6ad04752e34642,,,_313030.06d19907ec6be4e2bd6ad04752e34642.pdf,0,2000-01-01 01:00:00,2016-04-03 02:51:08,827000/06d19907ec6be4e2bd6ad04752e34642-g.jpg,,
5450235,OECD-FAO Agricultural Outlook 2010-2019,,OECD-FAO Agricultural Outlook ,,OECD Organisation for Economic Co-operation and Development,2010,,OECD Publishing,,251,0,English ,,,,"9264083758,9789264083752,9789264083769",1563-0447,,,,,,10.1787/19991142,l-ScEVN-GEUC,,,0,,,,,0,1,1,4958891,pdf,06c6151632fd702f7b5fd10f032f024b,,,_325357.06c6151632fd702f7b5fd10f032f024b.pdf,0,2000-01-01 01:00:00,2016-04-03 02:51:08,827000/06c6151632fd702f7b5fd10f032f024b-d.jpg,,
5450236,Organización y Arquitectura de Computadores 7º Edición,,,,William Stallings,2006,7,Prentice-Hall,,823,0,Spanish,,,,"8489660824,9788489660823",,,,,,,,,OL13330603M,,0,,,,0,1,0,0,122361106,pdf,06c8ea6aaaf214652c149fc69f4714de,,,_295448.06c8ea6aaaf214652c149fc69f4714de.pdf,0,2000-01-01 01:00:00,2016-04-03 02:51:08,827000/06c8ea6aaaf214652c149fc69f4714de-d.jpg,,
5450233,,,,Studies in French Cinema volume 8 issue 2,Various Authors,2008,,Intellect Ltd,,92,0,English ,,,,,1471-5880,,,,,,,,,,0,,,,,1,,1,2160568,pdf,06c1328713432d860cb3f259b75df570,,,_311419.06c1328713432d860cb3f259b75df570.pdf,0,2000-01-01 01:00:00,2016-04-03 02:51:08,827000/06c1328713432d860cb3f259b75df570-g.jpg,,
5450234,Building Walking Bass Lines (Bass Instruction),,,,Ed Friedland,1995,CD,Hal Leonard Corporation,,66,0,English ,,,,"0793542049,9780793542048",,,,,,,,,OL7813775M,,0,,,,,1,0,1,3315197,pdf,06c15e966ae87c9f2a342f86c03761dc,,,_207728.06c15e966ae87c9f2a342f86c03761dc.pdf,0,2000-01-01 01:00:00,2016-04-03 02:51:08,827000/06c15e966ae87c9f2a342f86c03761dc-d.jpg,,
5450232,What We Remember: The Construction of Memory in Military Discourse,,"Discourse Approaches to Politics, Society and Culture ",,Mariana Achugar,2008,,John Benjamins Publishing Company,,246,0,English ,,,,"9027206171,9789027206176",,,,,401/.41,P302.8 .A24 2008,,,OL18725691M,,0,,,,,1,,,2513769,pdf,06bfd34e41bed925252dd2b936a2c27d,,,_288867.06bfd34e41bed925252dd2b936a2c27d.pdf,0,2000-01-01 01:00:00,2016-04-03 02:51:08,827000/06bfd34e41bed925252dd2b936a2c27d-d.jpg,,
5450230,Gertrude Coogan's Bluff: Greenback Populism as Conservative Economics,,,,Gary North,2010,,Ludwig von Mises Institute,,41,0,English ,,,,,,,,,,,,,,,0,,,,1,0,1,1,312842,pdf,06ba871e127b10a622cb927f362de6fe,,,_313416.06ba871e127b10a622cb927f362de6fe.pdf,0,2000-01-01 01:00:00,2016-04-03 02:51:08,827000/06ba871e127b10a622cb927f362de6fe-g.jpg,,
5450231,"Public Key Cryptography - PKC 2010: 13th International Conference on Practice and Theory in Public Key Cryptography, Paris, France, May 26-28, 2010, ... Computer Science   Security and Cryptology)",,,,"Phong Q. Nguyen, David Pointcheval",2010,1st Edition.,"LNCS, Springer",,517,0,English ,,,,"3642130127,9783642130120",,,,,,,,,,,0,,,,0,0,1,1,5791008,pdf,06bb776ea96943303b786e11e82ce907,,,_313275.06bb776ea96943303b786e11e82ce907.pdf,0,2000-01-01 01:00:00,2016-04-03 02:51:08,827000/06bb776ea96943303b786e11e82ce907-d.jpg,,
5450228,"Personal Identity, the Self and Ethics",,,,"Ferdinand Santos, Santiago Sia",2007,First Edition,Palgrave Macmillan,,256,0,English ,,,,"0230522033,9780230522039",,,,,,,,,OL10194450M,,0,,,,,1,,,1448956,pdf,06b56844a1998827dfe37a2622ab4f47,,,_315110.06b56844a1998827dfe37a2622ab4f47.pdf,0,2000-01-01 01:00:00,2016-04-03 02:51:08,827000/06b56844a1998827dfe37a2622ab4f47-d.jpg,,
5450229,RASA: Affect and Intuition in Javanese Musical Aesthetics (Ams Studies in Music),,,,Marc Benamou,2010,,"Oxford University Press, USA",,343,0,English ,,,,"0195189434,9780195189438",,,,,780.9598/2,ML3758.I53 B46 2009,,,OL23180798M,,0,,,,1,1,1,1,2184915,pdf,06b7d6483a4ddc70468fbf18d38da3aa,,,_293778.06b7d6483a4ddc70468fbf18d38da3aa.pdf,0,2000-01-01 01:00:00,2016-04-03 02:51:08,827000/06b7d6483a4ddc70468fbf18d38da3aa-d.jpg,,
5450227,A text-book of physics: Electricity and magnetism,,,,J. H Poynting and Sir J. J. Thomson,,,,,372,0,English ,,,,,,B0008D1HME,,,,,,,,,0,,,,,1,,,17725717,djvu,06b4e87b233548ec2df9160a01619899,,,_35220.06b4e87b233548ec2df9160a01619899.djvu,0,2000-01-01 01:00:00,2016-04-03 02:51:08,827000/06b4e87b233548ec2df9160a01619899-g.jpg,,
5450225,,,,National Geographic September 2010 volume 218 issue 3,National Geographic Magazine,2010,,National Geographic Society,,180,0,English ,,,,,,,,,,,,,,,0,,,,,0,0,1,18054561,pdf,06afcb2818fb5a3428745123ca273f87,,,_309785.06afcb2818fb5a3428745123ca273f87.pdf,0,2000-01-01 01:00:00,2016-04-03 02:51:08,827000/06afcb2818fb5a3428745123ca273f87-g.jpg,,
5450226,"High Performance Computing and Applications: Second International Conference, HPCA 2009, Shanghai, China, August 10-12, 2009, Revised Selected Papers ... Computer Science and General Issues)",,Lecture Notes in Computer Science volume 5938,,"Wu Zhang, Zhangxin Chen, Craig C. Douglas, Weiqin Tong",2010,1st Edition.,Springer,,601,0,English ,,,,"3642118410,9783642118418",,,,,,,,,,,0,,,,0,0,1,1,15071313,pdf,06b0aacf2ec1a08d62a96d15fa656c9b,,,_313154.06b0aacf2ec1a08d62a96d15fa656c9b.pdf,0,2000-01-01 01:00:00,2016-04-03 02:51:08,827000/06b0aacf2ec1a08d62a96d15fa656c9b-d.jpg,,
5450223,How to Cook a Tapir: A Memoir of Belize (At Table),,,,Joan Fry,2009,,University of Nebraska Press,,294,0,English ,,,,"0803219032,9780803219038",,,,,"305.897/423097282092,B",F1465.2.K5 F78 2009,,,OL22541849M,,0,,,,1,0,1,1,3282390,pdf,06a48f9b0f0660c26e35566fd7e57b09,,,_309771.06a48f9b0f0660c26e35566fd7e57b09.pdf,0,2000-01-01 01:00:00,2016-04-03 02:51:08,827000/06a48f9b0f0660c26e35566fd7e57b09-d.jpg,,
5450224,Happiness: The Science behind Your Smile,,,,Daniel Nettle,2006,1,"Oxford University Press, USA",,224,0,English ,,,,"0192805592,9780192805591",,,,,152.42,,,,OL7383392M,,0,,,,,1,1,,851991,pdf,06a8dd754afddeb38661bf8f4aeb7bc9,,,_47521.06a8dd754afddeb38661bf8f4aeb7bc9.pdf,0,2000-01-01 01:00:00,2016-04-03 02:51:08,827000/06a8dd754afddeb38661bf8f4aeb7bc9-d.jpg,,
5450222,A la découverte de Windows 7 : Cahier 1,,Les cahiers ,,Mathieu Lavant,2009,1ère édition,Eyrolles,,168,0,French ,,,,"221212595X,9782212125955",,,,,,,,,,,0,,,,1,0,1,1,79073591,pdf,06a2609f79f7444f83d1e31a23284a40,,,_289656.06a2609f79f7444f83d1e31a23284a40.pdf,0,2000-01-01 01:00:00,2016-04-03 02:51:08,827000/06a2609f79f7444f83d1e31a23284a40-d.jpg,,
5450220,Power and Restraint: A Shared Vision for the U.S.-China Relationship,,,,"Richard Rosecrance, Gu Guoliang",2009,1,PublicAffairs,,269,0,English ,,,,"1586487426,9781586487423",,,,,303.48/273051,JZ1480.A57 C67 2009,,,OL22665134M,,0,,,,1,1,1,,934508,pdf,069c2e8bb606fc06e1925126cac42f74,,,_297837.069c2e8bb606fc06e1925126cac42f74.pdf,0,2000-01-01 01:00:00,2016-04-03 02:51:08,827000/069c2e8bb606fc06e1925126cac42f74-d.jpg,,
5450221,"U.S. Marines in Vietnam: The war that would not end, 1971-1973",,,,Charles D. Melson,1991,,University of Michigan Library,,325,0,English ,,,,,,B0038HF8KY,,,,,,,,,0,,,,1,1,,1,47110534,pdf,06a07f9da631c171d1fc48eacffc4e7b,,,_311929.06a07f9da631c171d1fc48eacffc4e7b.pdf,0,2000-01-01 01:00:00,2016-04-03 02:51:08,827000/06a07f9da631c171d1fc48eacffc4e7b-g.jpg,,
5450218,"Women, Gender and Radical Religion in Early Modern Europe (Studies in Medieval and Reformation Traditions)",,Studies in Medieval and Reformation Traditions volume 129,,"Brown, S. (ed.)",2007,,BRILL,,340,0,English ,,,,"9004163069,9789004163065",,,,,274/.07082,BV639.W7 W6173 2007,,,OL12799363M,,0,,,,0,1,1,1,2248352,pdf,069121c22471998195cbf20fc3cc6999,,,_293766.069121c22471998195cbf20fc3cc6999.pdf,0,2000-01-01 01:00:00,2016-04-03 02:51:08,827000/069121c22471998195cbf20fc3cc6999-d.jpg,,
5450219,Traite De Radioactivite Tom 1,,,,Madame P. (Marie) Curie,1910,,"Gauthier-Villars, Imprimeur-Libraire, Paris",,426,0,French ,,,,,,,,,,,,,,,0,,,,0,1,0,,50813339,pdf,06939a7d122086c341196cd035f8b1d4,,,_298944.06939a7d122086c341196cd035f8b1d4.pdf,0,2000-01-01 01:00:00,2016-04-03 02:51:08,827000/06939a7d122086c341196cd035f8b1d4-g.jpg,,
5450217,Thermohydraulique des réacteurs,,,,"Jean-Marc Delaye, Michel Giot, Laurent Mahias, Patrick Raymond, Claude Rénault",2008,,EDP SCIENCES,,527,0,French ,,,,"2868838235,9782868838230",,,,,,,,,,,0,,,,,1,,,6942960,pdf,068f743807ea2b2c442c4aceaa94cef0,,,_298745.068f743807ea2b2c442c4aceaa94cef0.pdf,0,2000-01-01 01:00:00,2016-04-03 02:51:08,827000/068f743807ea2b2c442c4aceaa94cef0-d.jpg,,
5450215,Kukai and His Major Works,,,,Yoshito S. Hakeda,,,,,318,0,English ,,,,0231036272,,,,,,,,,,,0,,,,,1,,,9669742,pdf,0689de922656efb8e2597d8abf1ea9b8,,,_291756.0689de922656efb8e2597d8abf1ea9b8.pdf,0,2000-01-01 01:00:00,2016-04-03 02:51:08,827000/0689de922656efb8e2597d8abf1ea9b8-g.jpg,,
5450216,Micromechanics of Defects in Solids (Mechanics of Elastic and Inelastic Solids),,,,T. Mura,1987,2nd,Springer,,590,0,English ,,,,9024732565,,,,,620.1/05,QC176.8.M5 M87 1987,,,OL2547715M,,0,,,,,1,,,40217502,pdf,068a2617054ee9da1d5109d126d4b5c5,,,_315476.068a2617054ee9da1d5109d126d4b5c5.pdf,0,2000-01-01 01:00:00,2016-04-03 02:51:08,827000/068a2617054ee9da1d5109d126d4b5c5-d.jpg,,
5450213,The Rise of Indonesian Communism,,,,Ruth T. McVey,2006,1st Equinox Ed,Equinox Publishing,,532,0,English ,,,,"9793780363,9789793780368",,,,,,,,,OL9192248M,,0,,,,1,1,0,1,48158691,pdf,0680df796c71c6de5cd9ab90a988b84b,,,_315547.0680df796c71c6de5cd9ab90a988b84b.pdf,0,2000-01-01 01:00:00,2016-04-03 02:51:08,827000/0680df796c71c6de5cd9ab90a988b84b-d.jpg,,
5450214,The Syntax and Semantics of Discourse Markers,,Continuum Studies in Theoretical Linguistics ,,Miriam Urgelles-Coll,2010,,Continuum International Publishing Group,,179,0,English ,,,,"1441195505,9781441195500",,,,,401.41,P302.35 U75 2010,,,OL24430620M,,0,,,,1,0,1,1,1417332,pdf,0682db82ea14473deca4f45249d7345d,,,_397420.0682db82ea14473deca4f45249d7345d.pdf,0,2000-01-01 01:00:00,2016-04-03 02:51:08,827000/0682db82ea14473deca4f45249d7345d-d.jpg,,
5450211,中国戏曲精华史,,,,金登才,,,,,309,0,Chinese (PRC),,,,9787541123252,,,,,,,,,,,0,,,,,1,,,2755475,pdf,068038cf5d2362e0217a1961b4e0a17d,,,_296607.068038cf5d2362e0217a1961b4e0a17d.pdf,0,2000-01-01 01:00:00,2016-04-03 02:51:08,827000/068038cf5d2362e0217a1961b4e0a17d-g.jpg,,
5450212,,,Radical Philosophy #164 ,,Radical Philosophy,2010,,,,60,0,English ,,,,,,,,,,,,,,,0,,,,1,1,,1,1607625,pdf,0680d3f57e33f1de212decd5caf0199a,,,_305825.0680d3f57e33f1de212decd5caf0199a.pdf,0,2000-01-01 01:00:00,2016-04-03 02:51:08,827000/0680d3f57e33f1de212decd5caf0199a-g.jpg,,
5450209,"Logic, Rationality, and Interaction: Second International Workshop, LORI 2009, Chongqing, China, October 8-11, 2009, Proceedings (Lecture Notes in ...   Lecture Notes in Artificial Intelligence)",,Lecture Notes in Computer Science volume 5834,,"Xiangdong He, John Horty, Eric Pacuit",2009,1,Springer,,338,0,English ,,,,"3642048927,9783642048920",,,,,,,,,,,0,,,,0,0,1,1,4206900,pdf,067ae75dae705b65fe94e4eb07317609,,,_309568.067ae75dae705b65fe94e4eb07317609.pdf,0,2000-01-01 01:00:00,2016-04-03 02:51:08,827000/067ae75dae705b65fe94e4eb07317609-d.jpg,,
5450210,The Extreme Searcher's Internet Handbook: A Guide for the Serious Searcher,,,,Randolph Hock,2007,2nd,"Information Today, Inc.",,360,0,English ,,,,"0910965765,9780910965767",,,,,,,,,OL8297893M,,0,,,,,1,,,9096726,pdf,067bf35edb07e6342fbe9c08094bbe2b,,,_298270.067bf35edb07e6342fbe9c08094bbe2b.pdf,0,2000-01-01 01:00:00,2016-04-03 02:51:08,827000/067bf35edb07e6342fbe9c08094bbe2b-d.jpg,,
5450207,"The Grothendieck Festschrift, Volume III: A Collection of Articles Written in Honor of the 60th Birthday of Alexander Grothendieck (Progress in Mathematics   Modern Birkhäuser Classics)",,,,"Pierre Cartier, Luc Illusie, Nicholas M. Katz, Gérard Laumon, Yuri I. Manin, Kenneth A. Ribet",1990,1,Birkhäuser Boston,,498,0,English ,,,,"9780817634872,0817634878,0817645683,9780817645687",,,,,516.3/5,QA564 .G717 1990,,,OL1966226M,,0,,,,0,1,0,1,20430954,pdf,067a08e7665a5b2f2876355e276fe3a0,,,_99539.067a08e7665a5b2f2876355e276fe3a0.pdf,0,2000-01-01 01:00:00,2016-04-03 02:51:08,827000/067a08e7665a5b2f2876355e276fe3a0-g.jpg,,
5450208,中国不能永远为世界打工,,,,薛涌,1991,,Yunnan People s Publishing House,,175,0,Chinese (PRC),,,,9787222045927,,,,,,,,,,,0,,,,,1,,,7110479,pdf,067acccb185e090096d2350c8f32d17c,,,_289358.067acccb185e090096d2350c8f32d17c.pdf,0,2000-01-01 01:00:00,2016-04-03 02:51:08,827000/067acccb185e090096d2350c8f32d17c-g.jpg,,
5450205,The Human Face of E-Business: Engendering Consumer Initial Trust Through the Use of Images of Sales Personnel on E-Commerce Web Sites,,,,Khalid Aldiri,,,,,22,0,English ,,,,,,,,,,,,,,,0,,,,,1,,,975516,pdf,0677c53af40710a551376646ce7caee1,,,_290871.0677c53af40710a551376646ce7caee1.pdf,0,2000-01-01 01:00:00,2016-04-03 02:51:08,827000/0677c53af40710a551376646ce7caee1-g.jpg,,
5450206,Along the Socialist or Capitalist Road?,,,,"Renmin Ribao, Liberation Army Daily Editorial Boards Hongqi",1968,,"Foreign Languages Press - Peking, China",,28,0,English ,,,,,,,,,,,,,,,0,,,,,1,,,1831809,pdf,0677e0e0ebc6d08c36ea2edb76fbd1f9,,,_309578.0677e0e0ebc6d08c36ea2edb76fbd1f9.pdf,0,2000-01-01 01:00:00,2016-04-03 02:51:08,827000/0677e0e0ebc6d08c36ea2edb76fbd1f9-g.jpg,,
5450203,An Implementation Guide to Compiler Writing,,,,Jean-Paul Tremblay,1982,,Mcgraw-Hill (Tx),,259,0,English ,,,,"0070651663,9780070651661",,,,,001.64/25,QA76.6,,,OL20949665M,,0,,,,,1,,,1791115,djvu,066e6bf4bf9c47a7df8e01f56bdd7726,,,_295465.066e6bf4bf9c47a7df8e01f56bdd7726.djvu,0,2000-01-01 01:00:00,2016-04-03 02:51:08,827000/066e6bf4bf9c47a7df8e01f56bdd7726-g.jpg,,
5450204,Letters from the Editor: Lessons on Journalism and Life,,,,William F. Woo,2007,1,University of Missouri Press,,216,0,English ,,,,"0826217508,9780826217509",,,,,"070.4/1092,B",PN4733 .W66 2007,,,OL11453987M,,0,,,,,1,,,814799,pdf,0672e05e6db8526b5d4818cc03c7da0f,,,_309817.0672e05e6db8526b5d4818cc03c7da0f.pdf,0,2000-01-01 01:00:00,2016-04-03 02:51:08,827000/0672e05e6db8526b5d4818cc03c7da0f-d.jpg,,
5450200,Mass Transfer in Multiphase Systems and its Applications,,,,Mohamed El-Amin,,,,,792,0,English ,,,,,,,,,,,,,,,0,,,,,1,,,42655431,pdf,06606948d926a6527898310867e813b1,,,_305997.06606948d926a6527898310867e813b1.pdf,0,2000-01-01 01:00:00,2016-04-03 02:51:08,827000/06606948d926a6527898310867e813b1-g.jpg,,
5450201,"Understandable Electric Circuits (IET Circuits, Devices and Systems, Volume 23)",,"IET Circuits, Devices and Systems volume 23",,M. Wang,2010,Reprint,Institution of Engineering and Technology,,385,0,English ,,,,"0863419526,9780863419522,9781849191142",,,,,,,,5v3lYoiVfgEC,,,0,,,,1,0,1,1,1918496,pdf,06635c23756feae1be3da60db6442990,,,_298363.06635c23756feae1be3da60db6442990.pdf,0,2000-01-01 01:00:00,2016-04-03 02:51:08,827000/06635c23756feae1be3da60db6442990-d.jpg,,
5450202,Trigger Points and Muscle Chains in Osteopathy (Complementary Medicine (Thieme Hardcover)),,,,"Philipp Richter, Eric Hebgen",2008,1,Thieme,,242,0,English ,,,,"3131450517,9783131450517",,,,,615.5/33,RZ341 .R5213 2008,,,OL17008461M,,0,,,,0,1,0,1,29421560,pdf,0664c484b60c6ca378080f6e38d8f7a3,,,_302615.0664c484b60c6ca378080f6e38d8f7a3.pdf,0,2000-01-01 01:00:00,2016-04-03 02:51:08,827000/0664c484b60c6ca378080f6e38d8f7a3-d.jpg,,
5450198,National Accounts at a Glance 2010,,,,OECD,2011,,OECD Publishing,,102,0,English ,,,,"926409587X,9789264095878,9789264095885,9789264095915",2220-0436,,,,,,10.1787/9789264095885-en,,,,0,,,,,0,1,1,2509562,pdf,065cf9e08800a97eb1698457e60c0c50,,,_301807.065cf9e08800a97eb1698457e60c0c50.pdf,0,2000-01-01 01:00:00,2016-04-03 02:51:08,827000/065cf9e08800a97eb1698457e60c0c50-d.jpg,,
5450199,"Foundations of Intelligent Systems: 18th International Symposium, ISMIS 2009, Prague, Czech Republic, September 14-17, 2009, Proceedings (Lecture ...   Lecture Notes in Artificial Intelligence)",,Lecture Notes in Computer Science volume 5722,,"Jan Rauch, Zbigniew W. Ras, Petr Berka, Tapio Elomaa",2009,1,Springer,,636,0,English ,,,,"3642041248,9783642041242",,,,,,,,,,,0,,,,0,0,1,1,11121713,pdf,06605224baf0fe41e4b4d608968bdf9c,,,_309373.06605224baf0fe41e4b4d608968bdf9c.pdf,0,2000-01-01 01:00:00,2016-04-03 02:51:08,827000/06605224baf0fe41e4b4d608968bdf9c-d.jpg,,
5450196,A Companion to Marx's Capital,,,,David Harvey,2010,,Verso,,348,0,English ,,,,"1844673596,9781844673599",,,,,,,,,OL24571692M,pages 88-89; 276-281 missing,0,,,,0,0,1,1,3240433,pdf,065adf16ca6414138de5baf6255c2512,,,_307772.065adf16ca6414138de5baf6255c2512.pdf,0,2000-01-01 01:00:00,2016-04-03 02:51:08,827000/065adf16ca6414138de5baf6255c2512-d.jpg,,
5450197,Walden: A Fully Annotated Edition,,,,Henry D. Thoreau,2004,Annotated,Yale University Press,,399,0,English ,,,,"0300104669,9780300104660,9780300128048",,,,,"818/.303,B",PS3048.A2 C73 2004,,,OL3292103M,,0,,,,1,0,1,1,2456931,pdf,065b5b8e2a566be55d4ae7d21e2cf772,,,_175387.065b5b8e2a566be55d4ae7d21e2cf772.pdf,0,2000-01-01 01:00:00,2016-04-03 02:51:08,827000/065b5b8e2a566be55d4ae7d21e2cf772-d.jpg,,
5450194,Literatura: Helena,,,,Machado de Assis,1876,,,,139,0,Portuguese ,,,,,,B002WN35LY,,,,,,,,,0,,,,1,1,,1,696347,pdf,064e5ca70cee5a1b94aeb9743c7fcc19,,,_314967.064e5ca70cee5a1b94aeb9743c7fcc19.pdf,0,2000-01-01 01:00:00,2016-04-03 02:51:08,827000/064e5ca70cee5a1b94aeb9743c7fcc19-g.jpg,,
5450195,Golf World Monday - 14 February 2011,,,,Geoff Russell (Editor),,,,,20,0,English ,,,,,,,,,,,,,,,0,,,,,1,,,6106804,pdf,0659c84b5b7af32227d65bb99fea4061,,,_303394.0659c84b5b7af32227d65bb99fea4061.pdf,0,2000-01-01 01:00:00,2016-04-03 02:51:08,827000/0659c84b5b7af32227d65bb99fea4061-g.jpg,,
5450193,"The Essential René Guénon: Metaphysics, Tradition, and the Crisis of Modernity",,Perennial Philosophy ,,René Guénon,2009,,World Wisdom,,330,0,English ,,,,"1933316578,9781933316574",,,,,194,B2430.G82 E54 2009,,U8CFSlU_K2IC,OL23622218M,,0,,,,1,0,1,1,1915456,pdf,064401541697cefaed62d806cb1be996,,,_296146.064401541697cefaed62d806cb1be996.pdf,0,2000-01-01 01:00:00,2016-04-03 02:51:08,827000/064401541697cefaed62d806cb1be996-d.jpg,,
5450191,"The Theory of Electricity and Magnetism, Being Lectures on Mathematical Physics",,,,Arthur Gordon Webster,,,,,594,0,English ,,,,,,B0018H4EYW,,,,,,,,,0,,,,,1,,,18191835,djvu,0641f9054e141b71472343113dc47eb9,,,_35374.0641f9054e141b71472343113dc47eb9.djvu,0,2000-01-01 01:00:00,2016-04-03 02:51:08,827000/0641f9054e141b71472343113dc47eb9-g.jpg,,
5450192,,,,Psychophysiology 47(5)  ,Robert F. Simons,2010,,Wiley Online,,207,0,English ,,,,,1469-8986,,,,,,,,,,0,,,,0,1,0,1,15271618,pdf,0642f3f0bd0aac2487499cc49b30158a,,,_303126.0642f3f0bd0aac2487499cc49b30158a.pdf,0,2000-01-01 01:00:00,2016-04-03 02:51:08,827000/0642f3f0bd0aac2487499cc49b30158a-g.jpg,,
5450189,"Dictionary of Basic Joseki, Vol. 3",,,,Yoshio Ishida,1977,,Ishi Press,,276,0,English ,,,,"9784906574230,4906574238",,,,,,,,,,,0,,,,,1,,,7811363,pdf,06407e161e6db85818890aed4fc07dd6,,,_301951.06407e161e6db85818890aed4fc07dd6.pdf,0,2000-01-01 01:00:00,2016-04-03 02:51:08,827000/06407e161e6db85818890aed4fc07dd6-g.jpg,,
5450190,"ICTS Foreign Language: French Sample Test 127 Teacher Certification, 2nd Edition (XAM ICTS)",,XAM ICTS ,,Sharon Wynne,2007,2,XAMOnline.com,,67,0,English ,,,,9781607878179,,,,,,,,,,,0,,,,1,0,1,1,2049213,pdf,06417de2e36ad407fed57e44b9eb33eb,,,_298269.06417de2e36ad407fed57e44b9eb33eb.pdf,0,2000-01-01 01:00:00,2016-04-03 02:51:08,827000/06417de2e36ad407fed57e44b9eb33eb-g.jpg,,
5450187,Cardamom: The Genus Elettaria (Medicinal and Aromatic Plants - Industrial Profiles),,,,"P. N. Ravindran, K.J. Madhusoodanan",2002,1,CRC Press,,384,0,English ,,,,"0415284937,9780415284936",,,,,633.8/3,SB307.C3 C37 2002,,,OL21661637M,,0,,,,1,0,1,1,11992324,pdf,063d43a7afe7063f7abfe888fcf543bb,,,_315383.063d43a7afe7063f7abfe888fcf543bb.pdf,0,2000-01-01 01:00:00,2016-04-03 02:51:08,827000/063d43a7afe7063f7abfe888fcf543bb-d.jpg,,
5450188,Combination Cancer Therapy: Modulators and Potentiators (Cancer Drug Discovery and Development),,,,Gary K. Schwartz,2004,1,Humana Press,,294,0,English ,,,,"1588292002,9781588292001",,,,,,,,,OL8828374M,,0,,,,,1,,,2482390,pdf,063f304abaa416959eda66238b55608f,,,_307712.063f304abaa416959eda66238b55608f.pdf,0,2000-01-01 01:00:00,2016-04-03 02:51:08,827000/063f304abaa416959eda66238b55608f-d.jpg,,
5450185,Pif Gadget 055 (Mar 1970),,,,Editions Vaillant,,,,,76,0,French ,,,,,,,,,,,,,,,0,,,,,1,,,20326667,pdf,063a82a57d440c5e5c0eda340ad2999e,,,_291907.063a82a57d440c5e5c0eda340ad2999e.pdf,0,2000-01-01 01:00:00,2016-04-03 02:51:08,827000/063a82a57d440c5e5c0eda340ad2999e-g.jpg,,
5450186,"Phantasy, Image Consciousness, and Memory (1898-1925) (Husserliana: Edmund Husserl  Collected Works)",,,,"Edmund Husserl, John B. Brough (Translator)",2006,1,Springer,,793,0,English ,,,,"1402032153,9781402032158",,,,,,,,,OL8371380M,,0,,,,,1,,,1918563,pdf,063c5c012908b39b1c2c3e633d7a8818,,,_290542.063c5c012908b39b1c2c3e633d7a8818.pdf,0,2000-01-01 01:00:00,2016-04-03 02:51:08,827000/063c5c012908b39b1c2c3e633d7a8818-d.jpg,,
5450183,International encyclopedia of the social sciences volume2,,,,edited by David L. Sills,1968,,the macmillan company and the free press,,573,0,English ,,,,,,,,,,,,,,,0,,,,,1,,1,24227284,pdf,063677e54c731f4a51abe01362f31a25,,,_472737.063677e54c731f4a51abe01362f31a25.pdf,0,2000-01-01 01:00:00,2016-04-03 02:51:08,827000/063677e54c731f4a51abe01362f31a25-g.jpg,,
5450184,Alt und schön: Geschlecht und Körperbilder im Kontext neoliberaler Gesellschaften,,VS Research ,,Grit Höppner,2011,2011,Vs Verlag,,131,0,German ,,,,"3531179055,9783531179056",,,,,,,,zXSnz8luXLIC,,,0,,,,1,0,1,1,1343229,pdf,06373f41ab5230afb4419a91e8b3933b,,,_302712.06373f41ab5230afb4419a91e8b3933b.pdf,0,2000-01-01 01:00:00,2016-04-03 02:51:08,827000/06373f41ab5230afb4419a91e8b3933b-d.jpg,,
5450181,Toon Boom Studio V3.5 Guide,,,,www.toonboom.com,,,,,420,0,English ,,,,,,,,,,,,,,,0,,,,,1,,,10021430,pdf,06335ad4bd7092a078865afbd9aba704,,,_311917.06335ad4bd7092a078865afbd9aba704.pdf,0,2000-01-01 01:00:00,2016-04-03 02:51:08,827000/06335ad4bd7092a078865afbd9aba704-g.jpg,,
5450182,"Psyche: Inventions of the Other, Volume II (Meridian: Crossing Aesthetics)",,Meridian: Crossing Aesthetics ,,Jacques Derrida,2008,,Stanford University Press,,169,0,English ,,,,"0804757674,9780804757676",,,,,194,B2430.D483 P7813 2007,,,OL11275301M,,0,,,,0,1,0,1,14351224,pdf,0634aae74411ef06d575b135442656f7,,,_291960.0634aae74411ef06d575b135442656f7.pdf,0,2000-01-01 01:00:00,2016-04-03 02:51:08,827000/0634aae74411ef06d575b135442656f7-d.jpg,,
5450180,A Patristic Greek Lexicon,,,,G.W.H. Lampe,1961,,"Oxford UP, Clarendon Press",,1615,0,English ,,,,,,,,,,,,,,,0,,,,,1,1,0,139253021,pdf,0631e2b4d0b1d5e8cc1a9c4d78f92926,,,_304200.0631e2b4d0b1d5e8cc1a9c4d78f92926.pdf,0,2000-01-01 01:00:00,2016-04-03 02:51:08,827000/0631e2b4d0b1d5e8cc1a9c4d78f92926-g.jpg,,
5450178,Maintaining Stability in a Changing Financial System,,,,Gary Gorton,,,,,1693,0,English ,,,,,,,,,,,,,,,0,,,,,1,,,27029271,pdf,062bc01a9685dae1bf7cb9e7938c1b47,,,_292325.062bc01a9685dae1bf7cb9e7938c1b47.pdf,0,2000-01-01 01:00:00,2016-04-03 02:51:08,827000/062bc01a9685dae1bf7cb9e7938c1b47-g.jpg,,
5450179,"Advances in Spatial and Temporal Databases: 11th International Symposium, SSTD 2009 Aalborg, Denmark, July 8-10, 2009 Proceedings (Lecture Notes in ... Applications, incl. Internet Web, and HCI)",,Lecture Notes in Computer Science volume 5644,,"Nikos Mamoulis, Thomas Seidl",2009,1,Springer,,477,0,English ,,,,"3642029817,9783642029813",,,,,,,,,,,0,,,,0,0,1,1,11946198,pdf,062f7e90b7abccf8da0823deb253b06a,,,_309213.062f7e90b7abccf8da0823deb253b06a.pdf,0,2000-01-01 01:00:00,2016-04-03 02:51:08,827000/062f7e90b7abccf8da0823deb253b06a-d.jpg,,
5450176,WHO Monographs on Selected Medical Plants (Volume 4),,,,WHO,2009,,World Health Organization,,444,0,English ,,,,"9241547057,9789241547055",,,,,,,,,,,0,,,,,1,,,1624628,pdf,0625cc15cafdfdd57eb4c5bcc0d9d3ba,,,_306848.0625cc15cafdfdd57eb4c5bcc0d9d3ba.pdf,0,2000-01-01 01:00:00,2016-04-03 02:51:08,827000/0625cc15cafdfdd57eb4c5bcc0d9d3ba-d.jpg,,
5450177,"Maintaining Body Balance, Flexibility & Stability: A Practical Guide to the Prevention & Treatment of Musculoskeletal Pain & Dysfunction",,,,Leon Chaitow,2003,,A Churchill Livingstone Title,,216,0,English ,,,,"0443073511,9780443073519",,,,,,,,,OL9335323M,,0,,,,,1,1,,8384493,pdf,0627b85b2184e511ef87bc189fc0a2ed,,,_310150.0627b85b2184e511ef87bc189fc0a2ed.pdf,0,2000-01-01 01:00:00,2016-04-03 02:51:08,827000/0627b85b2184e511ef87bc189fc0a2ed-d.jpg,,
5450174,Quantifying Environmental Impact Assessments Using Fuzzy Logic,,Springer Series on Environmental Management ,,Richard B. Shepard,2005,1,Springer,,289,0,English ,,,,"0387243984,9780387243986",,,,,,,,C1kOVIysXm8C,OL7444693M,,0,,,,1,0,1,1,1567018,pdf,061c77bb5bf99ab7aab67db95712c407,,,_309344.061c77bb5bf99ab7aab67db95712c407.pdf,0,2000-01-01 01:00:00,2016-04-03 02:51:08,827000/061c77bb5bf99ab7aab67db95712c407-d.jpg,,
5450175,Current Trends in the Development And Teaching of the Four Language Skills (Studies on Language Acquisition),,,,"Esther Uso-Juan, Alicia Martinez-Flor (Editors)",2006,,Mouton de Gruyter,,516,0,English ,,,,"3110189682,9783110189681",,,,,,,,,OL22740923M,,0,,,,1,1,1,1,1518883,pdf,061cf8bcb3fd38a86dc449abd59c7cdb,,,_294547.061cf8bcb3fd38a86dc449abd59c7cdb.pdf,0,2000-01-01 01:00:00,2016-04-03 02:51:08,827000/061cf8bcb3fd38a86dc449abd59c7cdb-d.jpg,,
5450172,"Cosmical Electrodynamics, 2nd Ed. (International Series of Monographs on Physics)",,,,"Hannes Alfvén, C-.Y. Falthammar; Hannes Alfven",1963,Second,Oxford University Press,,240,0,English ,,,,"0198512015,9780198512011",,"B001QANNXO,B000Y3A58U,B001P4UOJ2,B0041WBKQG,B0006BLK9I",,,,,,,,,600,,,,0,1,0,0,1599060,djvu,061821135fba21ad52ed14be5f8e0551,,,_207575.061821135fba21ad52ed14be5f8e0551.djvu,0,2000-01-01 01:00:00,2016-04-03 02:51:08,827000/061821135fba21ad52ed14be5f8e0551-g.jpg,,
5450173,Fertilizers and their Use,,,,Food and Agriculture Organization of the United Nations,,,,,70,0,English ,,,,,,,,,,,,,,,0,,,,1,1,,,1652225,pdf,061aee8c4519687382ca10b6733690db,,,_304995.061aee8c4519687382ca10b6733690db.pdf,0,2000-01-01 01:00:00,2016-04-03 02:51:08,827000/061aee8c4519687382ca10b6733690db-g.jpg,,
5450170,"Antidieta, La",,,,"Harvey Diamond, Marilyn Diamond",1986,Rep Tra,Urano,,154,0,Spanish,,,,"8492516631,9788492516636",,,,,,,,,,,0,,,,1,1,,1,485190,pdf,061616e846813dfdbe580d27569e4802,,,_295918.061616e846813dfdbe580d27569e4802.pdf,0,2000-01-01 01:00:00,2016-04-03 02:51:08,827000/061616e846813dfdbe580d27569e4802-d.jpg,,
5450171,Ethos and Pathos from Aristotle to Cicero,,,,Jakob Wisse,1989,,"Adolf M. Hakkert, Amsterdam",,384,0,English ,,,,9025609632,,,,,,,,,OL16590595M,,400,,,,0,1,0,1,21707680,pdf,06167ab8df1e3f0135cc5725d39f2c5e,,,_297019.06167ab8df1e3f0135cc5725d39f2c5e.pdf,0,2000-01-01 01:00:00,2016-04-03 02:51:08,827000/06167ab8df1e3f0135cc5725d39f2c5e-g.jpg,,
5450167,The Columbia Companion to American History on Film: How the Movies Have Portrayed the American Past,,,,Peter C. Rollins,2006,,Columbia University Press,,696,0,English ,,,,"0231112238,9780231112239",,,,,,,,,OL9319768M,,0,,,,,1,1,1,6565032,pdf,060b0ef4f195f5c3d96b8d185c4d4828,,,_303064.060b0ef4f195f5c3d96b8d185c4d4828.pdf,0,2000-01-01 01:00:00,2016-04-03 02:51:08,827000/060b0ef4f195f5c3d96b8d185c4d4828-d.jpg,,
5450168,"Textbook of Hemophilia, Second Edition",,,,"Christine A. Lee, Erik E. Berntorp, W. Keith Hoots",2010,2,Wiley-Blackwell,,476,0,English ,,,,1405169141,,,,,,,,,,,0,,,,,1,,,5938831,pdf,060dea4dde05055ad823690a78b26140,,,_291296.060dea4dde05055ad823690a78b26140.pdf,0,2000-01-01 01:00:00,2016-04-03 02:51:08,827000/060dea4dde05055ad823690a78b26140-d.jpg,,
5450169,Perspectives on Public Choice: A Handbook,,,,Dennis C. Mueller (editor),1997,,Cambridge University Press,,687,0,English ,,,,"9780511664458,9780521553773,9780521556545",,,,,,,10.1017/CBO9780511664458,lUavB8Ms2E0C,OL7746155M,,0,,,,1,1,1,1,7742779,pdf,060ef79094f27c599dee65cb56b98c44,,,_403279.060ef79094f27c599dee65cb56b98c44.pdf,0,2000-01-01 01:00:00,2016-04-03 02:51:08,827000/060ef79094f27c599dee65cb56b98c44-d.jpg,,
5450166,"Introduction to Distributed Algorithms, First Edition (1994)",,,,Gerard Tel,2000,2,Cambridge University Press,,612,0,English ,,,,"0521794838,9780521794831,0521470692,9780521470698",,,,,005.2/76,QA76.9.D5 T44 1994,,,OL1091848M,,0,,,,,1,,,23372623,djvu,0606bd15204ec5a79270be3f61557518,,,_202265.0606bd15204ec5a79270be3f61557518.djvu,0,2000-01-01 01:00:00,2016-04-03 02:51:08,827000/0606bd15204ec5a79270be3f61557518-d.jpg,,
5450163,Ein Schaubild der Mathematik: 30 Vorlesungen über klassische Mathematik,,,,"Dmitry Fuchs, Serge Tabachnikov",2011,1st Edition.,Springer,,556,0,German ,,,,"3642129595,9783642129599",,,,,,,10.1007/978-3-642-12960-5,,,,0,,,,1,0,1,1,7541329,pdf,05fe2cc1c3f2457b47ac6c28eb0db804,,,_290994.05fe2cc1c3f2457b47ac6c28eb0db804.pdf,0,2000-01-01 01:00:00,2016-04-03 02:51:08,827000/05fe2cc1c3f2457b47ac6c28eb0db804-d.jpg,,
5450164,The Palestinian Syriac Version of the Holy Scriptures,,,,G. Margoliouth,,,,,74,0,English ,,,,,,,,,,,,,,,0,,,,,1,,,1623911,djvu,06044dab8f43d2e08557ac66a6dd551a,,,_292282.06044dab8f43d2e08557ac66a6dd551a.djvu,0,2000-01-01 01:00:00,2016-04-03 02:51:08,827000/06044dab8f43d2e08557ac66a6dd551a-g.jpg,,
5450165,Transactions on Computational Science IX: Special Issue on Voronoi Diagrams in Science and Engineering (Lecture Notes in Computer Science   Transactions on Computational Science),,Lecture Notes in Computer Science volume 6290,,"C. J. Kenneth Tan, Francois Anton",2010,1st Edition.,Springer,,212,0,English ,,,,"3642160069,9783642160066",,,,,,,,,,,0,,,,0,0,1,1,3787349,pdf,0604d89a21b90abe3848ec98dd2a8092,,,_313767.0604d89a21b90abe3848ec98dd2a8092.pdf,0,2000-01-01 01:00:00,2016-04-03 02:51:08,827000/0604d89a21b90abe3848ec98dd2a8092-d.jpg,,
5450161,A Rediscovered Text of Porphyry on Mystic Formulae,,,,Christopher K. Callanan,1995,,,,16,0,English ,,,,,,,,,,,,,,,0,,,,,1,,1,457860,pdf,05f8b2df68b896f1b49224215579f4c7,,,_312932.05f8b2df68b896f1b49224215579f4c7.pdf,0,2000-01-01 01:00:00,2016-04-03 02:51:08,827000/05f8b2df68b896f1b49224215579f4c7-g.jpg,,
5450162,Chip Carving: Techniques & Patterns,,,,Wayne Barton,1984,,Sterling,,125,0,English ,,,,"0806979240,9780806979243",,,,,736/.4,TT199.7 .B37 1984,,,OL2846671M,,0,,,,1,1,1,0,13225104,pdf,05fd1bd582e608f7ce0c2bac4f43db47,,,_290549.05fd1bd582e608f7ce0c2bac4f43db47.pdf,0,2000-01-01 01:00:00,2016-04-03 02:51:08,827000/05fd1bd582e608f7ce0c2bac4f43db47-d.jpg,,
5450159,"Restless Giant: The United States from Watergate to Bush vs. Gore (Oxford History of the United States, Volume 11)",,Oxford history of the United States volume 11,,James T. Patterson,2005,1St Edition,"Oxford University Press, USA",,498,0,English ,,,,"019512216X,9780195122169",,,,,973.92,E839 .P38 2005,,oD5LvvZP45gC,OL3401956M,,0,,,,1,0,1,1,5026867,pdf,05f47185a4ea32a0d16236cfd99b9d11,,,_302339.05f47185a4ea32a0d16236cfd99b9d11.pdf,0,2000-01-01 01:00:00,2016-04-03 02:51:08,827000/05f47185a4ea32a0d16236cfd99b9d11-d.jpg,,
5450160,"Contemporary Adulthood: Calendars, Cartographies and Constructions",,,,Judith Burnett,2010,,Palgrave Macmillan,,184,0,English ,,,,"023058103X,9780230581036",,,,,305.24,HQ799.95 .C65 2010,,oogbAQAAMAAJ,OL24054726M,,0,,,,1,0,1,1,625575,pdf,05f740f49e201d2db283772b3abf531f,,,_311138.05f740f49e201d2db283772b3abf531f.pdf,0,2000-01-01 01:00:00,2016-04-03 02:51:08,827000/05f740f49e201d2db283772b3abf531f-d.jpg,,
