29683158,Простейшие примеры математических доказательств,,Математическое просвещение,,Успенский В. А.,2009,,МЦНМО,,,59,Russian,,,,978-5-94057-492-7,,,,,,,,,,,0,,,,,,0,1,3303183,pdf,cb46655978919e7dc87c74c04a59df65,,,Успенский В. А.;Простейшие примеры математических доказательств;Математическое просвещение;;МЦНМО;2009;978-5-94057-492-7;;Russian,0,2000-01-01 01:00:00,2016-11-27 12:07:36,1587000/cb46655978919e7dc87c74c04a59df65-g.jpg,,
29683159,Choices: Inside the Making of India’s Foreign Policy,,Geopolitics in the 21st Century,,Shivshankar Menon,2016,,Brookings Institution Press,,176,166,English,,,0,"0815729103,9780815729105",,,,,,,,,,,0,,,,,,,1,13285881,pdf,a2649f2809129c72aa06f598634ff264,,,Choices.pdf,0,2000-01-01 01:00:00,2016-11-27 12:14:49,http://ecx.images-amazon.com/images/I/51XMfLlH-uL.jpg,Diplomacy;International & World Politics;Politics & Government;Politics & Social Sciences;Asian;International & World Politics;Politics & Government;Politics & Social Sciences;History & Theory;Political Science;Politics & Government;Politics & Social Sciences;National & International Security;Specific Topics;Politics & Government;Politics & Social Sciences,"0815729103,9780815729105"
29683160,Guide de l’astronome debutant,,,,"Jean Victor, Vincent",2016,4e edition.,Eyrolles,Paris,109,120,French,,,0,"9782212118759,2212118759",,,,,,,,,,,0,,,,,,,1,23881188,pdf,ec36381064bc992fabcb364ab7dab7f5,,,Guide de l__039;astronome de¦Бbutant.o.pdf,0,2000-01-01 01:00:00,2016-11-27 12:35:58,1587000/ec36381064bc992fabcb364ab7dab7f5-g.jpg,Astronomie -- Manuels d’observation;Astronomie -- Instruments -- Guides pratiques et mémentos,"9782212118759,2212118759"
29683161,"S’initier a la programmation et a l’oriente objet : avec des exemples en C, C++, C#, Java, Python et PHP",,,,"Delannoy, Claude",2014,2e édition.,Eyrolles,Paris,360,384,French,,,0,"9782212140675,2212140673",,,,,,,,,,,0,,,,,,,1,63742750,pdf,48870637ff5ce252b2797ba98d01be8d,,,S_initier a¦А la programmation et a¦А l_oriente¦Б objet.o.pdf,0,2000-01-01 01:00:00,2016-11-27 12:36:34,1587000/48870637ff5ce252b2797ba98d01be8d-g.jpg,Ordinateurs -- Programmation -- Manuels d’enseignement;Conception orientée objets (informatique),"9782212140675,2212140673"
29683162,L’enigma Dorieo,,,,"Braccesi, Lorenzo",1999,,L’Erma di Bretschneider,,96,93,Italian,64,,0,8882650634 / 9788882650636,,,,,,,,,,,0,,,,,,,0,4811786,pdf,852118c3bf2a80688fb919052ec0328a,,,"Braccesi, L__039;enigma Dorieo.pdf",0,2000-01-01 01:00:00,2016-11-27 12:40:16,1587000/852118c3bf2a80688fb919052ec0328a-g.jpg,,8882650634/9788882650636
29683163,Науки о Земле,,,,Крепша Н.В.,2004,,Томск  Издательство Томского Политехнического Университета,,,160,Russian,,,,,,,,,,,,,,,0,,,,,,0,1,3424510,pdf,1b1b2cd7eedbdf6f6f5d1df77993b82c,,,Крепша Н.В.;Науки о Земле;;;Томск  Издательство Томского Политехнического Университета;2004;;;Russian,0,2000-01-01 01:00:00,2016-11-27 12:47:40,1587000/1b1b2cd7eedbdf6f6f5d1df77993b82c-g.jpg,,
29683164,Installing Extensions in LibreOffice,,,,Ron Faile Jr.; Andreas Mantke; Gustavo Buzzatti Pacheco; Luis Fernando Heckler; with Peter Hillier-Brook; with Jean Hollis Weber; with Michele Zarri,2011Aug12©2010,Based on LibreOffice 3.3.,LibreOffice: The Document Foundation,,8,8,English,94,,0,,,,,,,,,,,,0,1,,0,1,0,,1,480208,pdf,f2fd7629cde9d0d11e7aab381af50001,,,Installingextensions.pdf,0,2000-01-01 01:00:00,2016-11-27 12:50:06,1587000/f2fd7629cde9d0d11e7aab381af50001-g.jpg,,
29683165,Special Functions and Orthogonal Polynomials,,Cambridge Studies in Advanced Mathematics,,"Richard Beals, Roderick Wong",2016,2,Cambridge University Press,,480,488,English,132,,0,"1107106982,9781107106987",,,,,,,,,,,0,,,,,,,1,3443268,pdf,04f627c5be24a3bd76bff2d78ca1b45c,,,beals_wong_2nd.pdf,0,2000-01-01 01:00:00,2016-11-27 12:50:23,http://ecx.images-amazon.com/images/I/51yO-A1fq4L.jpg,,"1107106982,9781107106987"
29683166,Информатика и ИКТ. 3 класс. Методическое пособие,,,,"Бененсон Е.П., Паутова А.Г.",2012,,АкадемкнигаУчебник,,,249,Russian,,,,,,,,,,,,,,,0,,,,,,0,1,3678070,pdf,c354584927fa3e7a35c72a1697733e8e,,,"Бененсон Е.П., Паутова А.Г.;Информатика и ИКТ. 3 класс. Методическое пособие;;;АкадемкнигаУчебник;2012;;;Russian",0,2000-01-01 01:00:00,2016-11-27 12:53:48,1587000/c354584927fa3e7a35c72a1697733e8e-g.jpg,,
29683167,Applied Veterinary Histology,,,,William J. Banks DVM PhD,1993,,Hardcover,,,495,English.,,,,,,,,,,,,,,,0,,,,,,0,0,219860161,pdf,988f1db6b6e8034333c9d30a7372db18,,,William J. Banks DVM PhD;Applied Veterinary Histology;;;Hardcover;1993;;;English.,0,2000-01-01 01:00:00,2016-11-27 12:53:54,1587000/988f1db6b6e8034333c9d30a7372db18-g.jpg,,
29683168,Handbook of Veterinary Nursing,,,,"Hilary Orpet, Perdi Welsh",2002,,Paperback,,,374,English.,,,,,,,,,,,,,,,0,,,,,,0,1,3421254,pdf,6341de0a926303f0c20433b032a84320,,,"Hilary Orpet, Perdi Welsh;Handbook of Veterinary Nursing;;;Paperback;2002;;;English.",0,2000-01-01 01:00:00,2016-11-27 12:54:22,1587000/6341de0a926303f0c20433b032a84320-g.jpg,,
29683169,Театрал,,,,Греч Н.И.,1853,,Типография Н. Греча,,,162,Russian,,,,-,,,,,,,,,,,0,,,,,,0,1,37959134,pdf,25c2fd4d768b164089e605624a96fb6a,,,Греч Н.И.;Театрал;;;Типография Н. Греча;1853;-;;Russian,0,2000-01-01 01:00:00,2016-11-27 13:07:36,1573000/25c2fd4d768b164089e605624a96fb6a-g.jpg,,
29683170,Иллюстрированный практический путеводитель по Одессе,,,,Москвич Г.Г.,1904,,Типография Л. Нитче (Одесса),,,193,Russian,,,,-,,,,,,,,,,,0,,,,,,0,1,114294202,pdf,6056c19c1332a4c10e4a7a718155860f,,,Москвич Г.Г.;Иллюстрированный практический путеводитель по Одессе;;;Типография Л. Нитче (Одесса);1904;-;;Russian,0,2000-01-01 01:00:00,2016-11-27 13:07:36,1577000/6056c19c1332a4c10e4a7a718155860f-g.jpg,,
29683171,«Отчизну сердцем защитили»  Стихи поэтов Тейковского района,,,,,2011,,"ОАО «Издательство «Иваново»,",,,64,Russian,,,,-,,,,,,,,,,,0,,,,,,0,1,2010197,pdf,ca229279281b8a331bc80b0e6cfa53f2,,,";«Отчизну сердцем защитили»  Стихи поэтов Тейковского района;;;ОАО «Издательство «Иваново»,;2011;-;;Russian",0,2000-01-01 01:00:00,2016-11-27 13:07:36,1585000/ca229279281b8a331bc80b0e6cfa53f2-g.jpg,,
29683172,Recettes Angéliques. Le bœuf: Le goût d’être ensemble,,,,(Collective),2012,,INTERBEV,,0,32,French,,,0,-,,,,,,,,,,,0,,,,,,0,1,3164060,pdf,be017384eb788f84803d6cf2728a3a68,,,;Recettes Angliques. Le boeuf Le got d’tre ensemble;;;INTERBEV;2012;-;;French,0,2000-01-01 01:00:00,2016-11-27 13:07:36,1585000/be017384eb788f84803d6cf2728a3a68-g.jpg,,
29683173,A World Of Animals Vol. 2,,Painting- Animals,,Ana Bernabe,2002,,Viking folk Art,,,60,English,,,,-,,,,,,,,,,,0,,,,,,0,0,50405079,pdf,857f613ba692b86d043d09c24061c24a,,,Ana Bernabe;A World Of Animals Vol. 2;Painting- Animals;;Viking folk Art;2002;-;;English,0,2000-01-01 01:00:00,2016-11-27 13:07:36,1585000/857f613ba692b86d043d09c24061c24a-g.jpg,,
29683174,A World Of Animals Vol. 3,,Painting- Animals,,Ana Bernabe,2003,,Viking folk Art,,,65,English,,,,-,,,,,,,,,,,0,,,,,,0,0,46544505,pdf,d2dbe9b1e95bf109a85cf033d923f5a2,,,Ana Bernabe;A World Of Animals Vol. 3;Painting- Animals;;Viking folk Art;2003;-;;English,0,2000-01-01 01:00:00,2016-11-27 13:07:36,1585000/d2dbe9b1e95bf109a85cf033d923f5a2-g.jpg,,
29683175,20 Easy DIY Holiday Craft,,,,Collective,2015,,FloraCraft,,0,58,English,,,0,-,,,,,,,,,,,0,,,,,,0,1,19194778,pdf,b5d1f6e32d9acffad14ecfb28dac3ac6,,,"Collective;20 Easy DIY Holiday Craft;;;FloraCraft, Prime Publishing LLC;2015;-;;English",0,2000-01-01 01:00:00,2016-11-27 13:07:36,1585000/b5d1f6e32d9acffad14ecfb28dac3ac6-g.jpg,,
29683176,Alkaline Herbal Medicine: Reverse Disease and Heal the Electric Body,,,,Aqiyl Aniys,2016,,,,129,0,English,147,,0,,153543166,,,,,,,,,,0,,,,,,,,2838827,epub,6a0d223beed2d55bbe3f53bc2f3c310e,,,Alkaline Herbal Medicine_ Reverse Disease - Aqiyl Aniys.epub,0,2000-01-01 01:00:00,2016-11-27 13:20:31,https://goo.gl/3D504w,,
29683177,Competição e Atividade Empresarial,,,,Israel M. Kirzner,2013,2ª,Instituto Ludwig von Mises Brasil,São Paulo/SP,546,0,Portuguese,305,,0,9788581190143,,,,,,,,,,,0,,,,,,,,833344,epub,59aa52fd1e72bc384338d4f30deb7e28,,,Competicao e Atividade Empresar - Israel M. Kirzner.epub,0,2000-01-01 01:00:00,2016-11-27 13:52:39,http://www.mises.org.br/images/ebooks_thumbs/67.png,1. Concorrência. 2. Livre iniciativa. 3. Empresas. 4. Conglomerados,9788581190143
29683178,Театрал,,,,Греч Н.И.,1853,,Типография Н. Греча,,,162,Russian,,,,-,,,,,,,,,,,0,,,,,,0,1,37959134,pdf,25c2fd4d768b164089e605624a96fb6a,,,Греч Н.И.;Театрал;;;Типография Н. Греча;1853;-;;Russian,0,2000-01-01 01:00:00,2016-11-27 14:07:37,1573000/25c2fd4d768b164089e605624a96fb6a-g.jpg,,
29683179,Иллюстрированный практический путеводитель по Одессе,,,,Москвич Г.Г.,1904,,Типография Л. Нитче (Одесса),,,193,Russian,,,,-,,,,,,,,,,,0,,,,,,0,1,114294202,pdf,6056c19c1332a4c10e4a7a718155860f,,,Москвич Г.Г.;Иллюстрированный практический путеводитель по Одессе;;;Типография Л. Нитче (Одесса);1904;-;;Russian,0,2000-01-01 01:00:00,2016-11-27 14:07:37,1577000/6056c19c1332a4c10e4a7a718155860f-g.jpg,,
29683180,«Отчизну сердцем защитили»  Стихи поэтов Тейковского района,,,,,2011,,"ОАО «Издательство «Иваново»,",,,64,Russian,,,,-,,,,,,,,,,,0,,,,,,0,1,2010197,pdf,ca229279281b8a331bc80b0e6cfa53f2,,,";«Отчизну сердцем защитили»  Стихи поэтов Тейковского района;;;ОАО «Издательство «Иваново»,;2011;-;;Russian",0,2000-01-01 01:00:00,2016-11-27 14:07:37,1585000/ca229279281b8a331bc80b0e6cfa53f2-g.jpg,,
29683181,Recettes Angéliques. Le bœuf: Le goût d’être ensemble,,,,(Collective),2012,,INTERBEV,,0,32,French,,,0,-,,,,,,,,,,,0,,,,,,0,1,3164060,pdf,be017384eb788f84803d6cf2728a3a68,,,;Recettes Angliques. Le boeuf Le got d’tre ensemble;;;INTERBEV;2012;-;;French,0,2000-01-01 01:00:00,2016-11-27 14:07:37,1585000/be017384eb788f84803d6cf2728a3a68-g.jpg,,
29683182,A World Of Animals Vol. 2,,Painting- Animals,,Ana Bernabe,2002,,Viking folk Art,,,60,English,,,,-,,,,,,,,,,,0,,,,,,0,0,50405079,pdf,857f613ba692b86d043d09c24061c24a,,,Ana Bernabe;A World Of Animals Vol. 2;Painting- Animals;;Viking folk Art;2002;-;;English,0,2000-01-01 01:00:00,2016-11-27 14:07:37,1585000/857f613ba692b86d043d09c24061c24a-g.jpg,,
29683183,A World Of Animals Vol. 3,,Painting- Animals,,Ana Bernabe,2003,,Viking folk Art,,,65,English,,,,-,,,,,,,,,,,0,,,,,,0,0,46544505,pdf,d2dbe9b1e95bf109a85cf033d923f5a2,,,Ana Bernabe;A World Of Animals Vol. 3;Painting- Animals;;Viking folk Art;2003;-;;English,0,2000-01-01 01:00:00,2016-11-27 14:07:37,1585000/d2dbe9b1e95bf109a85cf033d923f5a2-g.jpg,,
29683184,20 Easy DIY Holiday Craft,,,,Collective,2015,,FloraCraft,,0,58,English,,,0,-,,,,,,,,,,,0,,,,,,0,1,19194778,pdf,b5d1f6e32d9acffad14ecfb28dac3ac6,,,"Collective;20 Easy DIY Holiday Craft;;;FloraCraft, Prime Publishing LLC;2015;-;;English",0,2000-01-01 01:00:00,2016-11-27 14:07:37,1585000/b5d1f6e32d9acffad14ecfb28dac3ac6-g.jpg,,
29683185,TUTTO - Fisica,,,,,2009,,,,,338,Italiano,,,,978-8841855119,,,,,,,,,,,0,,,,,,0,1,4047656,pdf,0dd69648cdc94c186ad4780b6e71d243,,,;TUTTO - Fisica;;;;2009;978-8841855119;;Italiano,0,2000-01-01 01:00:00,2016-11-27 14:07:37,1587000/0dd69648cdc94c186ad4780b6e71d243-g.jpg,,
29683186,Organic Chemistry I For Dummies,,,,Arthur Winter,2005,,For Dummies,,,406,English,,,,0764569023,,,,,,,,,,,0,,,,,,0,0,176519066,pdf,c156253a039e5a3915919899bb7c5df8,,,Arthur Winter;Organic Chemistry I For Dummies;;;For Dummies;2005;0764569023;;English,0,2000-01-01 01:00:00,2016-11-27 14:07:37,1587000/c156253a039e5a3915919899bb7c5df8-g.jpg,,
29683187,Encyclopedia of Biodiversity,,,,Simon A. Levin,2000,,New Colledge of California,,,4529,English,,,,0122268652,,,,,,,,,,,0,,,,,,0,1,178511153,pdf,19cfaae21f10c7be528b58f7bee721da,,,Simon A. Levin;Encyclopedia of Biodiversity;;;New Colledge of California;2000;0122268652;;English,0,2000-01-01 01:00:00,2016-11-27 14:07:37,1587000/19cfaae21f10c7be528b58f7bee721da-g.jpg,,
29683188,Решение контрольных и самостоятельных работ по алгебре за 9 класс к пособию Ю.Н. Макарычева и др. «Алгебра. Дидактические материалы. 9 класс»,,,,В.Е. Бачурин,2012,,«Экзамен»,,,192,Russian,,,,978-5-377-04797-1,,,,,,,,,,,0,,,,,,0,0,4732244,pdf,d9311231cad02f06547a7fbee2616c1e,,,В.Е. Бачурин;Решение контрольных и самостоятельных работ по алгебре за 9 класс к пособию Ю.Н. Макарычева и др. «Алгебра. Дидактические материалы. 9 класс»;;;«Экзамен»;2012;978-5-377-04797-1;;Russian,0,2000-01-01 01:00:00,2016-11-27 14:07:37,1587000/d9311231cad02f06547a7fbee2616c1e-g.jpg,,
29683189,Экологическая химия,,,,Егоров В.В.,2009,,Лань,,,183,Russian,,,,978-5-8114-0897-9,,,,,,,,,,,0,,,,,,0,1,3919310,pdf,c97bf03306f62907a1316299a178c84b,,,Егоров В.В.;Экологическая химия;;;Лань;2009;978-5-8114-0897-9;;Russian,0,2000-01-01 01:00:00,2016-11-27 14:07:37,1587000/c97bf03306f62907a1316299a178c84b-g.jpg,,
29683190,Тесты по геометрии. 9 класс  к учебнику Атанасяна Л.С. и др. 'Геометрия. 7-9',,,,"Звавич Л.И., Потоскуев Е.В.",2013,,Экзамен,,,129,Russian,,,,978-5-377-06160-1,,,,,,,,,,,0,,,,,,0,0,4042587,pdf,38d6981561e8cee9cb0d2fad1646711a,,,"Звавич Л.И., Потоскуев Е.В.;Тесты по геометрии. 9 класс  к учебнику Атанасяна Л.С. и др. 'Геометрия. 7-9';;;Экзамен;2013;978-5-377-06160-1;;Russian",0,2000-01-01 01:00:00,2016-11-27 14:07:37,1587000/38d6981561e8cee9cb0d2fad1646711a-g.jpg,,
29683191,Домашняя работа по физике за 7-9 кл. к учебному пособию Л.В. Перышкина «Сборник задач по физике  7-9 кл. к учебникам А.В. Перышкина и др. «Физика 7-9 кл.»,,,,Иванова К.Л.,2013,,«Экзамен»,,,294,Russian,,,,978-5-377-05607-2,,,,,,,,,,,0,,,,,,0,0,4625002,djvu,89b6fec477fdfd478e04c27662fe181b,,,Иванова К.Л.;Домашняя работа по физике за 7-9 кл. к учебному пособию Л.В. Перышкина «Сборник задач по физике  7-9 кл. к учебникам А.В. Перышкина и др. «Физика 7-9 кл.»;;;«Экзамен»;2013;978-5-377-05607-2;;Russian,0,2000-01-01 01:00:00,2016-11-27 14:07:37,1587000/89b6fec477fdfd478e04c27662fe181b-g.jpg,,
29683192,Решебник по физике,,,,Касаткина И.Л.,2011,,SmartBook,,,610,Russian,,,,978-5-9791-0251-1,,,,,,,,,,,0,,,,,,0,1,4607001,pdf,874cc7c82f5eec6c9ae4e9b47a6759a2,,,Касаткина И.Л.;Решебник по физике;;;SmartBook;2011;978-5-9791-0251-1;;Russian,0,2000-01-01 01:00:00,2016-11-27 14:07:37,1587000/874cc7c82f5eec6c9ae4e9b47a6759a2-g.jpg,,
29683193,Тестовые материалы для оценки качества обучения. Алгебра и начала анализа. 10-11 класс,,,,Крайнева Л.Б.,2013,,Интеллект-цент,,,128,Russian,,,,978-5-89790-861-5,,,,,,,,,,,0,,,,,,0,0,4150937,pdf,f6cb53deedcc65073d2c01b99e7eb75e,,,Крайнева Л.Б.;Тестовые материалы для оценки качества обучения. Алгебра и начала анализа. 10-11 класс;;;Интеллект-цент;2013;978-5-89790-861-5;;Russian,0,2000-01-01 01:00:00,2016-11-27 14:07:37,1587000/f6cb53deedcc65073d2c01b99e7eb75e-g.jpg,,
29683194,"Решение контрольных и самостоятельных работ по математике за 5 класс к пособию А.С. Чеснокова, К.И. Нешкова «Дидактические материалы по математике для 5 класса»",,,,Лаппо Л.Д.,2010,,«Экзамен»,,,193,Russian,,,,978-5-377-03487-2,,,,,,,,,,,0,,,,,,0,0,4817538,pdf,14de3488eb3c7cd5601b236501c68491,,,"Лаппо Л.Д.;Решение контрольных и самостоятельных работ по математике за 5 класс к пособию А.С. Чеснокова, К.И. Нешкова «Дидактические материалы по математике для 5 класса»;;;«Экзамен»;2010;978-5-377-03487-2;;Russian",0,2000-01-01 01:00:00,2016-11-27 14:07:37,1587000/14de3488eb3c7cd5601b236501c68491-g.jpg,,
29683195,Все домашние работы к учебнику по химии для 9 класса Г.Е. Рудзитиса,,,,Новицкий А.Р.,2012,,«ЛадКом»,,,222,Russian,,,,978-5-91336-122-6,,,,,,,,,,,0,,,,,,0,0,4665509,pdf,6e725a79d874003130710dac8227aada,,,Новицкий А.Р.;Все домашние работы к учебнику по химии для 9 класса Г.Е. Рудзитиса;;;«ЛадКом»;2012;978-5-91336-122-6;;Russian,0,2000-01-01 01:00:00,2016-11-27 14:07:37,1587000/6e725a79d874003130710dac8227aada-g.jpg,,
29683196,Рослини-мандрівники  Растения-путешественники,,,,Протопопова В. В.,1989,,"Киев, Радянська школа",,,125,Ukrainian,,,,5-330-00743-7,,,,,,,,,,,0,,,,,,0,1,4387344,pdf,8c5fdd3a83b7ace294f9964267e13531,,,"Протопопова В. В.;Рослини-мандрівники  Растения-путешественники;;;Киев, Радянська школа;1989;5-330-00743-7;;Ukrainian",0,2000-01-01 01:00:00,2016-11-27 14:07:37,1587000/8c5fdd3a83b7ace294f9964267e13531-g.jpg,,
29683197,Домашняя работа по алгебре и началам анализа за 11 класс к учебнику А.Н. Колмогорова и др. «Алгебра и начала анализа  учеб. для 10-11 кл. общеобразоват. учреждений»,,,,"Рылов А.С., Сапожников А.А.",2009,,«Экзамен»,,,225,Russian,,,,978-5-377-02257-2,,,,,,,,,,,0,,,,,,0,0,4439485,pdf,f72f4cb076d3fb0bf52c7c61bdfd0258,,,"Рылов А.С., Сапожников А.А.;Домашняя работа по алгебре и началам анализа за 11 класс к учебнику А.Н. Колмогорова и др. «Алгебра и начала анализа  учеб. для 10-11 кл. общеобразоват. учреждений»;;;«Экзамен»;2009;978-5-377-02257-2;;Russian",0,2000-01-01 01:00:00,2016-11-27 14:07:37,1587000/f72f4cb076d3fb0bf52c7c61bdfd0258-g.jpg,,
29683198,"Базовые агротехнологии возделывания овощных, плодовых, лекарственных и эфиромасличных культур",,,,"Савоськина О.А., Лабунский В.И., Вольф А.Н. и др.",2011,,РГАУ-МСХА,,,67,Russian,,,,978-5-9675-0498-3,,,,,,,,,,,0,,,,,,0,1,4804013,pdf,dc0cc4f883e80a0dfde0792e2e73003d,,,"Савоськина О.А., Лабунский В.И., Вольф А.Н. и др.;Базовые агротехнологии возделывания овощных, плодовых, лекарственных и эфиромасличных культур;;;РГАУ-МСХА;2011;978-5-9675-0498-3;;Russian",0,2000-01-01 01:00:00,2016-11-27 14:07:37,1587000/dc0cc4f883e80a0dfde0792e2e73003d-g.jpg,,
29683199,"Домашняя работа по алгебре за 7 класс к учебнику Ш.А. Алимова и др. «Алгебра. 7 класс  учеб. для общеобразоват. учреждений»  А.А. Сапожников. — 9-е изд., перераб. и испр.",,,,Сапожников А.А.,2012,,«Экзамен»,,,225,Russian,,,,978-5-377-04726-1,,,,,,,,,,,0,,,,,,0,0,3920585,pdf,0a83bceccb963820843ad40ae1190322,,,"Сапожников А.А.;Домашняя работа по алгебре за 7 класс к учебнику Ш.А. Алимова и др. «Алгебра. 7 класс  учеб. для общеобразоват. учреждений»  А.А. Сапожников. — 9-е изд., перераб. и испр.;;;«Экзамен»;2012;978-5-377-04726-1;;Russian",0,2000-01-01 01:00:00,2016-11-27 14:07:37,1587000/0a83bceccb963820843ad40ae1190322-g.jpg,,
29683200,Домашняя работа по алгебре и началам математического анализа за 11 кл. к задачнику А.Г. Мордковича и др. «Алгебра и начала математического анализа. 10-11 кл.»,,,,Сапожников А.А.,2011,,«Экзамен»,,,225,Russian,,,,978-5-377-03497-1,,,,,,,,,,,0,,,,,,0,0,3991209,pdf,4af58da6404d1a087ca1b9bf3031edb1,,,Сапожников А.А.;Домашняя работа по алгебре и началам математического анализа за 11 кл. к задачнику А.Г. Мордковича и др. «Алгебра и начала математического анализа. 10-11 кл.»;;;«Экзамен»;2011;978-5-377-03497-1;;Russian,0,2000-01-01 01:00:00,2016-11-27 14:07:37,1587000/4af58da6404d1a087ca1b9bf3031edb1-g.jpg,,
29683201,"Детские праздники  Сценарии, игры, конкурсы",,Веселимся от души,,Симонова И.О.,2006,,РИПОЛ классик,,,193,Russian,,,,5-7905-4109-7,,,,,,,,,,,0,,,,,,0,1,4117897,pdf,b1466afd5ba9523ad25e775ee9d1726f,,,"Симонова И.О.;Детские праздники  Сценарии, игры, конкурсы;Веселимся от души;;РИПОЛ классик;2006;5-7905-4109-7;;Russian",0,2000-01-01 01:00:00,2016-11-27 14:07:37,1587000/b1466afd5ba9523ad25e775ee9d1726f-g.jpg,,
29683202,Оптические свойства газов и плазмы,,,,Суржиков С.Т.,2004,,ГТУ им. Н.Э.Баумана,,,576,Russian,,,,5-7038-2604-7,,,,,,,,,,,0,,,,,,0,0,4712386,pdf,28b0edabe156de4756a11f05a20a34b7,,,Суржиков С.Т.;Оптические свойства газов и плазмы;;;ГТУ им. Н.Э.Баумана;2004;5-7038-2604-7;;Russian,0,2000-01-01 01:00:00,2016-11-27 14:07:37,1587000/28b0edabe156de4756a11f05a20a34b7-g.jpg,,
29683203,Корма и кормовые добавки для животных,,,,Фаритов Т.А.,2010,,Лань,,,299,Russian,,,,978-5-8114-1026-2,,,,,,,,,,,0,,,,,,0,1,4603081,pdf,d59f9744454c5494e92ed93c3cf24996,,,Фаритов Т.А.;Корма и кормовые добавки для животных;;;Лань;2010;978-5-8114-1026-2;;Russian,0,2000-01-01 01:00:00,2016-11-27 14:07:37,1587000/d59f9744454c5494e92ed93c3cf24996-g.jpg,,
29683204,Вредоносность болезней сельскохозяйственных культур,,,,"Чумаков А.Б., Захарова Т.И.",1990,,Агропромиздат,,,69,Russian,,,,5-10-001995-6,,,,,,,,,,,0,,,,,,0,1,4753565,pdf,ed66e307dae56724ec6813aaef15cc90,,,"Чумаков А.Б., Захарова Т.И.;Вредоносность болезней сельскохозяйственных культур;;;Агропромиздат;1990;5-10-001995-6;;Russian",0,2000-01-01 01:00:00,2016-11-27 14:07:37,1587000/ed66e307dae56724ec6813aaef15cc90-g.jpg,,
29683205,Рекрут Великой армии,,,,Эркман-Шатриан,2012,,Вече,,,326,Russian,,,,978-5-9533-6300-6,,,,,,,,,,,0,,,,,,0,1,4876316,djvu,07ef80bbb851b7f2e365efbca698e34b,,,Эркман-Шатриан;Рекрут Великой армии;;;Вече;2012;978-5-9533-6300-6;;Russian,0,2000-01-01 01:00:00,2016-11-27 14:07:37,1587000/07ef80bbb851b7f2e365efbca698e34b-g.jpg,,
29683206,Юрьев день,,,,Ю.В. Цыганков-Серебряков,2013,,Янтарь,,,96,Russian,,,,978-966-678-452-3,,,,,,,,,,,0,,,,,,0,1,4314746,pdf,6b89e6ff56caadf81cfadf0cde0bf74f,,,Ю.В. Цыганков-Серебряков;Юрьев день;;;Янтарь;2013;978-966-678-452-3;;Russian,0,2000-01-01 01:00:00,2016-11-27 14:07:37,1587000/6b89e6ff56caadf81cfadf0cde0bf74f-g.jpg,,
29683207,História do Debate do Cálculo Econômico Socialista,,,,Fabio Barbieri,2013,1ª,Instituto Ludwig von Mises Brasil,São Paulo/SP,724,0,Portuguese,305,,0,9788581190419,,,,,,,,,,,0,,,,,,,,1334105,epub,40d796e076d489f93ff69b329ea75dd1,,,Historia do Debate do Calculo E - Fabio Barbieri.epub,0,2000-01-01 01:00:00,2016-11-27 14:11:33,http://www.mises.org.br/images/articles/Biblioteca/historia.jpg,1. História Econômica 2. Socialismo 3. Capitalismo 4. Cálculo Econômico,9788581190419
29683208,A Economia do Intervencionismo,,,,Fabio Barbieri,2013,1ª,Instituto Ludwig von Mises Brasil,São Paulo/SP,526,0,Portuguese,305,,0,9788581190662,,,,,,,,,,,0,,,,,,,,1118585,epub,b5853edea1a250589d8c01377062958a,,,A Economia do Intervencionismo - Fabio Barbieri.epub,0,2000-01-01 01:00:00,2016-11-27 14:15:52,http://www.mises.org.br/images/articles/produtos/CAPA_Economia_do_Intervencionismo.jpg,Economia,9788581190662
29683209,O que deve ser feito,,,,"Hans-Hermann Hoppe [Hoppe, Hans-Hermann]",2013,1ª,Instituto Ludwig von Mises Brasil,São Paulo/SP,67,0,Portuguese,,,0,9788581190679,,,,,,,,,,,0,,,,,,,,594216,epub,a58b9cc3299af54a63fc5564b2a07c1e,,,O que deve ser feito - Hans-Hermann Hoppe.epub,0,2000-01-01 01:00:00,2016-11-27 14:24:13,http://www.mises.org.br/images/articles/produtos/CAPA_O%20que%20deve%20ser%20feito.jpg,,9788581190679
29683210,O que deve ser feito,,,,"Hans-Hermann Hoppe [Hoppe, Hans-Hermann]",2013,1ª,Instituto Ludwig von Mises Brasil,São Paulo/SP,67,0,Portuguese,,,0,9788581190679,,,,,,,,,,,0,,,,,,,,594216,epub,a58b9cc3299af54a63fc5564b2a07c1e,,,O que deve ser feito - Hans-Hermann Hoppe.epub,0,2000-01-01 01:00:00,2016-11-27 14:40:43,,,9788581190679
29683211,O que deve ser feito,,,,"Hans-Hermann Hoppe [Hoppe, Hans-Hermann]",2013,1ª,Instituto Ludwig von Mises Brasil,São Paulo/SP,67,0,Portuguese,192,,0,9788581190679,,,,,,,,,,,0,,,,,,,,594216,epub,a58b9cc3299af54a63fc5564b2a07c1e,,,O que deve ser feito - Hans-Hermann Hoppe.epub,0,2000-01-01 01:00:00,2016-11-27 14:40:50,http://www.mises.org.br/images/articles/produtos/CAPA_O%20que%20deve%20ser%20feito.jpg,1. Filosofia Política. 2. Libertarianismo. 3. Estado. 4. Secessão. 5. Descentralização.,9788581190679
29683212,Основные принципы геоинформационных систем,,,,Шипулин В.Д.,2010,,Харьков  Харьковская национальная академия горного хозяйства,,,337,Russian,,,,,,,,,,,,,,,0,,,,,,0,1,4669438,pdf,11d00e22367bdf2e2df2d4bad26d2791,,,Шипулин В.Д.;Основные принципы геоинформационных систем;;;Харьков  Харьковская национальная академия горного хозяйства;2010;;;Russian,0,2000-01-01 01:00:00,2016-11-27 14:42:50,1587000/11d00e22367bdf2e2df2d4bad26d2791-g.jpg,,
29683213,Textbook of Small Animal Medicine,,,,John K. Dunn,1999,,Hardcover,,,823,English.,,,,,,,,,,,,,,,0,,,,,,0,1,166547605,pdf,f566ac341e853667c20e1bc4be059da9,,,John K. Dunn;Textbook of Small Animal Medicine;;;Hardcover;1999;;;English.,0,2000-01-01 01:00:00,2016-11-27 14:43:31,1587000/f566ac341e853667c20e1bc4be059da9-g.jpg,,
29683214,Textbook of Canine and Feline Cardiology  Principles and Clinical Practice,,,,"Philip R. Fox DVM MSc, D. David Sisson DVM DACVIM, N. Sydney Moise DVM MS",1999,,Hardcover,,,951,English.,,,,,,,,,,,,,,,0,,,,,,0,1,164465444,pdf,6ba3164516bef71d1b52a479cd1b098a,,,"Philip R. Fox DVM MSc, D. David Sisson DVM DACVIM, N. Sydney Moise DVM MS;Textbook of Canine and Feline Cardiology  Principles and Clinical Practice;;;Hardcover;1999;;;English.",0,2000-01-01 01:00:00,2016-11-27 14:43:33,1587000/6ba3164516bef71d1b52a479cd1b098a-g.jpg,,
29683215,Разведка россыпей,,,,Учитель М.С.,1987,,Иркутск  Издательство Иркутского государственного университета,,,190,Russian,,,,,,,,,,,,,,,0,,,,,,0,0,3946086,djvu,3bb16da7d041dc4becef229af241e883,,,Учитель М.С.;Разведка россыпей;;;Иркутск  Издательство Иркутского государственного университета;1987;;;Russian,0,2000-01-01 01:00:00,2016-11-27 14:45:08,1587000/3bb16da7d041dc4becef229af241e883-g.jpg,,
29683216,Черкасщина заповедная. Путеводитель,,,,"Жук П.Н., Сидоренко В.Н., Головатюк В.С., Моляка А.Н.",1985,,Днепропетровск  Промінь,,,141,Russian,,,,,,,,,,,,,,,0,,,,,,0,0,4026171,djvu,dd73f04358625415e4043b52f84d644b,,,"Жук П.Н., Сидоренко В.Н., Головатюк В.С., Моляка А.Н.;Черкасщина заповедная. Путеводитель;;;Днепропетровск  Промінь;1985;;;Russian",0,2000-01-01 01:00:00,2016-11-27 14:48:02,1587000/dd73f04358625415e4043b52f84d644b-g.jpg,,
29683217,Информатика и ИКТ. 4 класс. Методическое пособие,,,,"Бененсон Е.П., Паутова А.Г.",2012,,АкадемкнигаУчебник,,,270,Russian,,,,,,,,,,,,,,,0,,,,,,0,1,4409047,pdf,7624fbd36935c22ffc99361931211d52,,,"Бененсон Е.П., Паутова А.Г.;Информатика и ИКТ. 4 класс. Методическое пособие;;;АкадемкнигаУчебник;2012;;;Russian",0,2000-01-01 01:00:00,2016-11-27 14:50:30,1587000/7624fbd36935c22ffc99361931211d52-g.jpg,,
29683218,ECG for the Small Animal Practitioner,,,,"Larry P. Tilley , Naomi L. Burtnick",1999,,Spiral-Bound,,,108,English.,,,,,,,,,,,,,,,0,,,,,,0,0,3958328,pdf,56fa0b87b08e8f03f9f75a2bccb43a65,,,"Larry P. Tilley , Naomi L. Burtnick;ECG for the Small Animal Practitioner;;;Spiral-Bound;1999;;;English.",0,2000-01-01 01:00:00,2016-11-27 14:51:10,1587000/56fa0b87b08e8f03f9f75a2bccb43a65-g.jpg,,
29683219,"The Practice of Veterinary Anesthesia  Small Animals, Birds, Fish, and Reptiles",,,,"Donald Sawyer DVM , PhD , DACVA , Carroll Cann Susan Hunsberger",2008,,Hardcover,,,382,English.,,,,,,,,,,,,,,,0,,,,,,0,1,4273963,pdf,32bb27be591e132b8731a52ef3bf7ac6,,,"Donald Sawyer DVM , PhD , DACVA , Carroll Cann Susan Hunsberger;The Practice of Veterinary Anesthesia  Small Animals, Birds, Fish, and Reptiles;;;Hardcover;2008;;;English.",0,2000-01-01 01:00:00,2016-11-27 14:51:39,1587000/32bb27be591e132b8731a52ef3bf7ac6-g.jpg,,
29683220,Anaesthesia for Veterinary Nurses,,,,Liz Welsh,2003,,Paperback,,,376,English.,,,,,,,,,,,,,,,0,,,,,,0,1,4307282,pdf,dbe058c94d551dcdddef76c5564e987b,,,Liz Welsh;Anaesthesia for Veterinary Nurses;;;Paperback;2003;;;English.,0,2000-01-01 01:00:00,2016-11-27 14:53:46,1587000/dbe058c94d551dcdddef76c5564e987b-g.jpg,,
29683221,TUTTO - Fisica,,,,,2009,,,,,338,Italiano,,,,978-8841855119,,,,,,,,,,,0,,,,,,0,1,4047656,pdf,0dd69648cdc94c186ad4780b6e71d243,,,;TUTTO - Fisica;;;;2009;978-8841855119;;Italiano,0,2000-01-01 01:00:00,2016-11-27 15:00:39,1587000/0dd69648cdc94c186ad4780b6e71d243-g.jpg,,9788841855119
29683222,"Constructing Lithuania: ethnic mapping in tsarist Russia, ca. 1800-1914",,Stockholm studies in history. Acta Universitatis Stockholmiensis,,Petronis Vytautas,2007,,Stockholm University,Stockholm,309,298,English,64,,0,9789185445790,,,,,,,,,,,400,,,,,,,1,38062453,pdf,7b54ae12796d6a678cee8c0ba2e9551e,,,"Petronis, Constructing Lithuania, 2007.pdf",0,2000-01-01 01:00:00,2016-11-27 15:02:20,,,9789185445790
29683223,"Lithuanian social democracy in perspective, 1893-1914",,,,Sabaliūnas Leonas,1990,,Duke University Press,Durham,"viii, 205",207,English,,,0,0822310155,,,,,,,,,,,400,,,,,,0,1,8759531,pdf,7aeb76636ce05773bda40f7574e1764f,,,"Sabaliunas, Lithuanian Social Democracy in Perspective, 1990.pdf",0,2000-01-01 01:00:00,2016-11-27 15:06:09,,,0822310155
29683224,Энтомология. Вредные насекомые и меры борьбы с ними,,,,Кулагин Н.М.,1904,,"Издали под редакцией проф. Кулагина студенты И.П. Матвеев и А.К. Ковальковский, Типо-литография В. Рихтер",,,128,Russian,,,,,,,,,,,,,,,0,,,,,,0,1,175142320,pdf,650fe2c2fda59d26cb333c130a2de7af,,,"Кулагин Н.М.;Энтомология. Вредные насекомые и меры борьбы с ними;;;Издали под редакцией проф. Кулагина студенты И.П. Матвеев и А.К. Ковальковский, Типо-литография В. Рихтер;1904;;;Russian",0,2000-01-01 01:00:00,2016-11-27 15:07:18,1587000/650fe2c2fda59d26cb333c130a2de7af-g.jpg,,
29683225,Театрал,,,,Греч Н.И.,1853,,Типография Н. Греча,,,162,Russian,,,,-,,,,,,,,,,,0,,,,,,0,1,37959134,pdf,25c2fd4d768b164089e605624a96fb6a,,,Греч Н.И.;Театрал;;;Типография Н. Греча;1853;-;;Russian,0,2000-01-01 01:00:00,2016-11-27 15:07:37,1573000/25c2fd4d768b164089e605624a96fb6a-g.jpg,,
29683226,Иллюстрированный практический путеводитель по Одессе,,,,Москвич Г.Г.,1904,,Типография Л. Нитче (Одесса),,,193,Russian,,,,-,,,,,,,,,,,0,,,,,,0,1,114294202,pdf,6056c19c1332a4c10e4a7a718155860f,,,Москвич Г.Г.;Иллюстрированный практический путеводитель по Одессе;;;Типография Л. Нитче (Одесса);1904;-;;Russian,0,2000-01-01 01:00:00,2016-11-27 15:07:37,1577000/6056c19c1332a4c10e4a7a718155860f-g.jpg,,
29683227,«Отчизну сердцем защитили»  Стихи поэтов Тейковского района,,,,,2011,,"ОАО «Издательство «Иваново»,",,,64,Russian,,,,-,,,,,,,,,,,0,,,,,,0,1,2010197,pdf,ca229279281b8a331bc80b0e6cfa53f2,,,";«Отчизну сердцем защитили»  Стихи поэтов Тейковского района;;;ОАО «Издательство «Иваново»,;2011;-;;Russian",0,2000-01-01 01:00:00,2016-11-27 15:07:37,1585000/ca229279281b8a331bc80b0e6cfa53f2-g.jpg,,
29683228,Recettes Angéliques. Le bœuf: Le goût d’être ensemble,,,,(Collective),2012,,INTERBEV,,0,32,French,,,0,-,,,,,,,,,,,0,,,,,,0,1,3164060,pdf,be017384eb788f84803d6cf2728a3a68,,,;Recettes Angliques. Le boeuf Le got d’tre ensemble;;;INTERBEV;2012;-;;French,0,2000-01-01 01:00:00,2016-11-27 15:07:37,1585000/be017384eb788f84803d6cf2728a3a68-g.jpg,,
29683229,A World Of Animals Vol. 2,,Painting- Animals,,Ana Bernabe,2002,,Viking folk Art,,,60,English,,,,-,,,,,,,,,,,0,,,,,,0,0,50405079,pdf,857f613ba692b86d043d09c24061c24a,,,Ana Bernabe;A World Of Animals Vol. 2;Painting- Animals;;Viking folk Art;2002;-;;English,0,2000-01-01 01:00:00,2016-11-27 15:07:37,1585000/857f613ba692b86d043d09c24061c24a-g.jpg,,
29683230,A World Of Animals Vol. 3,,Painting- Animals,,Ana Bernabe,2003,,Viking folk Art,,,65,English,,,,-,,,,,,,,,,,0,,,,,,0,0,46544505,pdf,d2dbe9b1e95bf109a85cf033d923f5a2,,,Ana Bernabe;A World Of Animals Vol. 3;Painting- Animals;;Viking folk Art;2003;-;;English,0,2000-01-01 01:00:00,2016-11-27 15:07:37,1585000/d2dbe9b1e95bf109a85cf033d923f5a2-g.jpg,,
29683231,20 Easy DIY Holiday Craft,,,,Collective,2015,,FloraCraft,,0,58,English,,,0,-,,,,,,,,,,,0,,,,,,0,1,19194778,pdf,b5d1f6e32d9acffad14ecfb28dac3ac6,,,"Collective;20 Easy DIY Holiday Craft;;;FloraCraft, Prime Publishing LLC;2015;-;;English",0,2000-01-01 01:00:00,2016-11-27 15:07:37,1585000/b5d1f6e32d9acffad14ecfb28dac3ac6-g.jpg,,
29683232,Wiley Encyclopedia of Composites,Vol. 1,,,"Luigi Nicolais, Assunta Borzacchiello, Stuart M. Lee.",2012,,"John Wiley & Sons, Inc.",,,512,English,,,,"0205225225, 0205227430, 0205208371",,,,,,,,,,,0,,,,,,0,1,172892255,pdf,bc762ca28469870a65e8006a3d472a42,,,"Luigi Nicolais, Assunta Borzacchiello, Stuart M. Lee.;Wiley Encyclopedia of Composites;;Vol. 1;John Wiley & Sons, Inc.;2012;0205225225, 0205227430, 0205208371;;English",0,2000-01-01 01:00:00,2016-11-27 15:07:37,1587000/bc762ca28469870a65e8006a3d472a42-g.jpg,,
29683233,Лекции по теории относительности,,,,А. А. Логунов,2002,,Наука,,,178,Russian,,,,5-02-006236-7,,,,,,,,,,,0,,,,,,0,1,5026896,pdf,50dd27857649ecb2cd73debeb593b89b,,,А. А. Логунов;Лекции по теории относительности;;;Наука;    2002;5-02-006236-7;;Russian,0,2000-01-01 01:00:00,2016-11-27 15:07:37,1587000/50dd27857649ecb2cd73debeb593b89b-g.jpg,,
29683234,Решение контрольных и самостоятельных работ по алгебре за 8 класс к пособию Ю.Н. Макарычева и др. «Алгебра. Дидактические материалы. 8 класс»,,,,А.В. Морозов,2012,,«Экзамен»,,,257,Russian,,,,978-5-377-05108-4,,,,,,,,,,,0,,,,,,0,0,5584452,pdf,19a4c44d0d05bebb1617aa99f7d8aca2,,,А.В. Морозов;Решение контрольных и самостоятельных работ по алгебре за 8 класс к пособию Ю.Н. Макарычева и др. «Алгебра. Дидактические материалы. 8 класс»;;;«Экзамен»;2012;978-5-377-05108-4;;Russian,0,2000-01-01 01:00:00,2016-11-27 15:07:37,1587000/19a4c44d0d05bebb1617aa99f7d8aca2-g.jpg,,
29683235,Физика твердого тела.,,,,Б. Е. Винтайкин,2008,2-е,МГТУ им. Н. Э. Баумана,,,336,Russian,,,,978-5-7038-2459-7,,,,,,,,,,,0,,,,,,0,0,5729222,pdf,44ad2b7345f701c88bd2403e90e673d8,,,Б. Е. Винтайкин;Физика твердого тела. ;;;МГТУ им. Н. Э. Баумана;    2008;978-5-7038-2459-7;2-е;Russian,0,2000-01-01 01:00:00,2016-11-27 15:07:37,1587000/44ad2b7345f701c88bd2403e90e673d8-g.jpg,,
29683236,Растениеводство в Забайкалье,,,,Баиров В.П.(ред.),1999,,"РИО БГСХА,",,,426,Russian,,,,5-58200-0011-0,,,,,,,,,,,0,,,,,,0,1,5442175,pdf,31a208f87318d36f5a7c2b8b4a291b87,,,"Баиров В.П.(ред.);Растениеводство в Забайкалье;;;РИО БГСХА,;1999;5-58200-0011-0;;Russian",0,2000-01-01 01:00:00,2016-11-27 15:07:37,1587000/31a208f87318d36f5a7c2b8b4a291b87-g.jpg,,
29683237,Задачи вступительных экзаменов по математике,,,,"Белоносов В.С., Фокин М.В.",2005,,Сиб. унив. изд-во,,,605,Russian,,,,5–94087–315–4,,,,,,,,,,,0,,,,,,0,1,5314544,pdf,3632b9d85b412f31fbf63385b96e6313,,,"Белоносов В.С., Фокин М.В.;Задачи вступительных экзаменов по математике;;;Сиб. унив. изд-во;2005;5–94087–315–4;;Russian",0,2000-01-01 01:00:00,2016-11-27 15:07:37,1587000/3632b9d85b412f31fbf63385b96e6313-g.jpg,,
29683238,Экзамен на лесничего,,,,Бобров Р.В.,1990,,Просвещение,,,159,Russian,,,,5-09-002689-0,,,,,,,,,,,0,,,,,,0,1,5179018,pdf,7f356f527fba22f931fea64e2c24c7e9,,,Бобров Р.В.;Экзамен на лесничего;;;Просвещение;1990;5-09-002689-0;;Russian,0,2000-01-01 01:00:00,2016-11-27 15:07:37,1587000/7f356f527fba22f931fea64e2c24c7e9-g.jpg,,
29683239,Высшая математика. Дифференциальное и интегральное исчисление,,,,"Бугров Я.С., Никольский С.М.",1997,,Феникс,,,511,Russian,,,,5-222-00217-9,,,,,,,,,,,0,,,,,,0,0,5095301,djvu,e79ef4febeb6eea6cc1e039b51857109,,,"Бугров Я.С., Никольский С.М.;Высшая математика. Дифференциальное и интегральное исчисление  ;;;Феникс;1997;5-222-00217-9;;Russian",0,2000-01-01 01:00:00,2016-11-27 15:07:37,1587000/e79ef4febeb6eea6cc1e039b51857109-g.jpg,,
29683240,Домашняя работа по алгебре за 8 класс к учебнику Ш.А. Алимова и др. «Алгебра. 8 класс  учеб. для общеобразоват. учреждений»,,,,В.Е. Бачурин,2013,,«Экзамен»,,,193,Russian,,,,978-5-377-05326-2,,,,,,,,,,,0,,,,,,0,0,5645784,pdf,749eb555cbd3876a8775c240a9f3fdbf,,,В.Е. Бачурин;Домашняя работа по алгебре за 8 класс к учебнику Ш.А. Алимова и др. «Алгебра. 8 класс  учеб. для общеобразоват. учреждений»;;;«Экзамен»;2013;978-5-377-05326-2;;Russian,0,2000-01-01 01:00:00,2016-11-27 15:07:37,1587000/749eb555cbd3876a8775c240a9f3fdbf-g.jpg,,
29683241,Химическое строение биосферы Земли и ее окружения,,Библиотека трудов академика В.И. Вернадского,,Владимир Иванович Вернадский,2001,,Наука,,,375,Russian,,,,5-02-004361-3,,,,,,,,,,,0,,,,,,0,1,5268108,djvu,17602faf202f897877b3ee0f926c8edf,,,Владимир Иванович Вернадский;Химическое строение биосферы Земли и ее окружения;Библиотека трудов академика В.И. Вернадского;;Наука;2001;5-02-004361-3;;Russian,0,2000-01-01 01:00:00,2016-11-27 15:07:37,1587000/17602faf202f897877b3ee0f926c8edf-g.jpg,,
29683242,"Защита картофеля от болезней, вредителей и сорняков",,,,"Воловик А.С., Глёз В.М., Замотаев А.И. и др.",1989,,Агропромиздат,,,223,Russian,,,,5-10-000877-6,,,,,,,,,,,0,,,,,,0,1,5181945,pdf,c88e7d4b6c017bf3775efd99b5a47f68,,,"Воловик А.С., Глёз В.М., Замотаев А.И. и др.;Защита картофеля от болезней, вредителей и сорняков;;;Агропромиздат;1989;5-10-000877-6;;Russian",0,2000-01-01 01:00:00,2016-11-27 15:07:37,1587000/c88e7d4b6c017bf3775efd99b5a47f68-g.jpg,,
29683243,Современная физика,,,,"Воронов В.К., Подоплелов А.В.",2005,,КомКнига,,,513,Russian,,,,5–484–00058–0,,,,,,,,,,,0,,,,,,0,0,5490791,djvu,80dab7478840e758449d47c283a61c3c,,,"Воронов В.К., Подоплелов А.В.;Современная физика;;;КомКнига;2005;5–484–00058–0;;Russian",0,2000-01-01 01:00:00,2016-11-27 15:07:37,1587000/80dab7478840e758449d47c283a61c3c-g.jpg,,
29683244,Собрание сочинений в пяти томах. (Повести и рассказы. Путешествия.),Том 2,,,Гранин Д.,1989,,Художественная литература,,,538,Russian,,,,5-280-00862-1,,,,,,,,,,,0,,,,,,0,1,4939354,djvu,afce05960f9450e26252340e3fdd4d89,,,Гранин Д.;Собрание сочинений в пяти томах. (Повести и рассказы. Путешествия.);;Том 2;Художественная литература;1989;5-280-00862-1;;Russian,0,2000-01-01 01:00:00,2016-11-27 15:07:37,1587000/afce05960f9450e26252340e3fdd4d89-g.jpg,,
29683245,Собрание сочинений,Том 1,,,Гранин Д.,1989,,Художественная литература,,,538,Russian,,,,5-280-00861-3,,,,,,,,,,,0,,,,,,0,1,5366802,djvu,daae0d02e22970766ec317df07571f86,,,Гранин Д.;Собрание сочинений;;Том 1;Художественная литература;1989;5-280-00861-3;;Russian,0,2000-01-01 01:00:00,2016-11-27 15:07:37,1587000/daae0d02e22970766ec317df07571f86-g.jpg,,
29683246,Методы и средства натурной тензометрии,,Основы проектирования машин,,Дайчик М. Л. и др.,1989,,Машиностроение,,,239,Russian,,,,5-217-00392-8,,,,,,,,,,,0,,,,,,0,1,4976928,djvu,1f0a448f2aab62fd9aaba780ec96934f,,,Дайчик М. Л. и др.;Методы и средства натурной тензометрии  ;Основы проектирования машин;;Машиностроение;1989;5-217-00392-8;;Russian,0,2000-01-01 01:00:00,2016-11-27 15:07:37,1587000/1f0a448f2aab62fd9aaba780ec96934f-g.jpg,,
29683247,Некоторые вопросы газодинамики взрыва,,,,Забабахин Е.И.,1997,,РФЯЦ-ВНИИТФ,,,209,Russian,,,,5-85165-327-2,,,,,,,,,,,0,,,,,,0,0,5436679,pdf,20dc2f589f370c29bf9ccbf0db8e0105,,,Забабахин Е.И.;Некоторые вопросы газодинамики взрыва;;;РФЯЦ-ВНИИТФ;1997;5-85165-327-2;;Russian,0,2000-01-01 01:00:00,2016-11-27 15:07:37,1587000/20dc2f589f370c29bf9ccbf0db8e0105-g.jpg,,
29683248,Биотехнология переработки молочной сыворотки,,,,Залашко М.В.,1990,,Агропромиздат,,,184,Russian,,,,5-10-000931-4,,,,,,,,,,,0,,,,,,0,1,4908672,pdf,b93aff6884ede802a5bd79e8a824db8d,,,Залашко М.В.;Биотехнология переработки молочной сыворотки;;;Агропромиздат;1990;5-10-000931-4;;Russian,0,2000-01-01 01:00:00,2016-11-27 15:07:37,1587000/b93aff6884ede802a5bd79e8a824db8d-g.jpg,,
29683249,Настольная книга учителя физики,,Настольная книга,,Коровин В.А.,2004,,"Астрель, АСТ",,,308,Russian,,,,"5-17-022313-7, 5-271-07580-X",,,,,,,,,,,0,,,,,,0,0,5116617,djvu,2e11b7f215c37e8fb0242585a71903d4,,,"Коровин В.А.;Настольная книга учителя физики;Настольная книга;;Астрель, АСТ;2004;5-17-022313-7, 5-271-07580-X;;Russian",0,2000-01-01 01:00:00,2016-11-27 15:07:37,1587000/2e11b7f215c37e8fb0242585a71903d4-g.jpg,,
29683250,Гидравлика,,,,"Кудинов В.А., Карташов Э.М.",2006,,Высшая школа,,,176,Russian,,,,5-06-005341-5,,,,,,,,,,,0,,,,,,0,0,5745840,pdf,fe4b98a3dd7a656fe1afa79f5532d4da,,,"Кудинов В.А., Карташов Э.М.;Гидравлика;;;Высшая школа;2006;5-06-005341-5;;Russian",0,2000-01-01 01:00:00,2016-11-27 15:07:37,1587000/fe4b98a3dd7a656fe1afa79f5532d4da-g.jpg,,
29683251,Что такое математика Элементарный очерк идей и методов,,,,"Курант Р., Роббинс Г.",2001,,МЦНМО,,,564,Russian,,,,5–900916–45–6,,,,,,,,,,,0,,,,,,0,1,5505549,pdf,5b7be4890ace32e994a01116d6690cfe,,,"Курант Р., Роббинс Г.;Что такое математика Элементарный очерк идей и методов;;;МЦНМО;2001;5–900916–45–6;;Russian",0,2000-01-01 01:00:00,2016-11-27 15:07:37,1587000/5b7be4890ace32e994a01116d6690cfe-g.jpg,,
29683252,Практикум по физиологии и этологии животных,,,,"Лысов Ф.В., Ипполитова Т.В. и др.",2010,,КолосС,,,168,Russian,,,,978-5-9532-0770-6,,,,,,,,,,,0,,,,,,0,1,5858228,djvu,6759be5b5c48e8b62eab1d5586c1a813,,,"Лысов Ф.В., Ипполитова Т.В. и др.;Практикум по физиологии и этологии животных;;;КолосС;2010;978-5-9532-0770-6;;Russian",0,2000-01-01 01:00:00,2016-11-27 15:07:37,1587000/6759be5b5c48e8b62eab1d5586c1a813-g.jpg,,
29683253,Домашняя работа по алгебре за 7 класс к задачнику А.Г. Мордковича и др. «Алгебра. 7 класс. В 2 ч. Ч. 2. Задачник для общеобразовательных учреждений»,,,,М.А. Попов,2012,,«Экзамен»,,,352,Russian,,,,978-5-377-04729-2,,,,,,,,,,,0,,,,,,0,0,5814005,pdf,1c60e99206da6194082f16fa44607a27,,,М.А. Попов;Домашняя работа по алгебре за 7 класс к задачнику А.Г. Мордковича и др. «Алгебра. 7 класс. В 2 ч. Ч. 2. Задачник для общеобразовательных учреждений»;;;«Экзамен»;2012;978-5-377-04729-2;;Russian,0,2000-01-01 01:00:00,2016-11-27 15:07:37,1587000/1c60e99206da6194082f16fa44607a27-g.jpg,,
29683254,Химия. Кислоты и основания,,,,Мартыненко Б.В.,2000,,Просвещение,,,132,Russian,,,,5-09-008889-6,,,,,,,,,,,0,,,,,,0,0,5242117,pdf,ecf13235b70753e06f5ffd07337cd8ba,,,Мартыненко Б.В.;Химия. Кислоты и основания;;;Просвещение;2000;5-09-008889-6;;Russian,0,2000-01-01 01:00:00,2016-11-27 15:07:37,1587000/ecf13235b70753e06f5ffd07337cd8ba-g.jpg,,
29683255,Домашняя работа по алгебре за 7 класс к учебникам Ю.Л. Макарычева и др. «Алгебра. 7 класс  учеб. для общеобразоват. учреждений»,,,,Морозов А.В.,2010,,«Экзамен»,,,193,Russian,,,,978-5-377-02800-0,,,,,,,,,,,0,,,,,,0,0,5254135,pdf,a7e1e4b8f9ecf068d80654d6e0697db9,,,Морозов А.В.;Домашняя работа по алгебре за 7 класс к учебникам Ю.Л. Макарычева и др. «Алгебра. 7 класс  учеб. для общеобразоват. учреждений»;;;«Экзамен»;2010;978-5-377-02800-0;;Russian,0,2000-01-01 01:00:00,2016-11-27 15:07:37,1587000/a7e1e4b8f9ecf068d80654d6e0697db9-g.jpg,,
29683256,Краткий геологический словарь для школьников,,,,Немков Г.И. (ред),1989,,Недра,,,171,Russian,,,,5-247-00493-0,,,,,,,,,,,0,,,,,,0,0,171711908,pdf,f45b731d157fb3b9282fe47949946a03,,,Немков Г.И. (ред);Краткий геологический словарь для школьников;;;  Недра;1989;5-247-00493-0;;Russian,0,2000-01-01 01:00:00,2016-11-27 15:07:37,1587000/f45b731d157fb3b9282fe47949946a03-g.jpg,,
29683257,Механические свойства жидких металлов. Экстремальные свойства минимальных монокристаллов металлов,,,,О. С. Николаев,2004,,Едиториал УРСС,,,171,Russian,,,,5-354-00829-8,,,,,,,,,,,0,,,,,,0,1,5375999,pdf,3e5a2f1128169daef9965ca80703b37c,,,О. С. Николаев;Механические свойства жидких металлов. Экстремальные свойства минимальных монокристаллов металлов;;;Едиториал УРСС;    2004;5-354-00829-8;;Russian,0,2000-01-01 01:00:00,2016-11-27 15:07:37,1587000/3e5a2f1128169daef9965ca80703b37c-g.jpg,,
29683258,Геодезия,,,,"Перфилов В.Ф., Скогорева Р.Н., Усова Н.В.",2006,,Высшая школа,,,177,Russian,,,,5-06-004818-7,,,,,,,,,,,0,,,,,,0,0,5455555,djvu,68b473de94f3e740dc22a0eac36a1bbf,,,"Перфилов В.Ф., Скогорева Р.Н., Усова Н.В.;Геодезия;;;Высшая школа;2006;5-06-004818-7;;Russian",0,2000-01-01 01:00:00,2016-11-27 15:07:37,1587000/68b473de94f3e740dc22a0eac36a1bbf-g.jpg,,
29683259,Домашняя работа по математике за 5 класс к учебнику Н.Я. Виленкина и др. «Математика. 5 класс  учеб. для общеобразоват. учреждений»,,,,Попов М.А.,2012,,«Экзамен»,,,192,Russian,,,,978-5-377-04297-6,,,,,,,,,,,0,,,,,,0,0,5152716,pdf,14fd34ab80782521657dc97888abc8e0,,,Попов М.А.;Домашняя работа по математике за 5 класс к учебнику Н.Я. Виленкина и др. «Математика. 5 класс  учеб. для общеобразоват. учреждений»;;;«Экзамен»;2012;978-5-377-04297-6;;Russian,0,2000-01-01 01:00:00,2016-11-27 15:07:37,1587000/14fd34ab80782521657dc97888abc8e0-g.jpg,,
29683260,"Древесные растения лесных, защитных и зеленых насаждений",,,,"Попова О.С., Попов В.П., Харахонова Г.У.",2010,,Лань,,,215,Russian,,,,978-5-8114-0940-2,,,,,,,,,,,0,,,,,,0,1,5200618,djvu,dcf35b774a5ac50e5cd68973c1e37af7,,,"Попова О.С., Попов В.П., Харахонова Г.У.;Древесные растения лесных, защитных и зеленых насаждений;;;Лань;2010;978-5-8114-0940-2;;Russian",0,2000-01-01 01:00:00,2016-11-27 15:07:37,1587000/dcf35b774a5ac50e5cd68973c1e37af7-g.jpg,,
29683261,"Три классические задачи на построение. Удвоение куба, трисекция угла, квадратура круга",,Популярные лекции по математике. Вып.,,Прасолов В.В.,1992,,Наука,,,82,Russian,,,,5-02-014849-0,,,,,,,,,,,0,,,,,,0,1,5032744,pdf,9dd09a0baf6374c3c9529905f1ee416f,,,"Прасолов В.В.;Три классические задачи на построение. Удвоение куба, трисекция угла, квадратура круга;Популярные лекции по математике. Вып.;;Наука;1992;5-02-014849-0;;Russian",0,2000-01-01 01:00:00,2016-11-27 15:07:37,1587000/9dd09a0baf6374c3c9529905f1ee416f-g.jpg,,
29683262,Практикум по физической географии России,,,,"Раковская Э.М., Давыдова М.И., Кошевой В.А.",2003,,ВЛАДОС,,,374,Russian,,,,5-691-01221-5,,,,,,,,,,,0,,,,,,0,0,166161640,djvu,ece92f42122d252c0d224caaf5b0bdb1,,,"Раковская Э.М., Давыдова М.И., Кошевой В.А.;Практикум по физической географии России;;;ВЛАДОС;2003;5-691-01221-5;;Russian",0,2000-01-01 01:00:00,2016-11-27 15:07:37,1587000/ece92f42122d252c0d224caaf5b0bdb1-g.jpg,,
29683263,Домашняя работа по геометрии за 10 класс к учебнику Л.С. Атанасяна и др. «Геометрия. 10-11 классы  учеб. для общеобразоват. учреждений»,,,,"Рылов А.С., А.В. Тронин А.В.",2011,,«Экзамен»,,,257,Russian,,,,978-5-377-03858-0,,,,,,,,,,,0,,,,,,0,0,5430099,pdf,e101f3ec95bd13c041d6c5d781d3cc04,,,"Рылов А.С., А.В. Тронин А.В.;Домашняя работа по геометрии за 10 класс к учебнику Л.С. Атанасяна и др. «Геометрия. 10-11 классы  учеб. для общеобразоват. учреждений»;;;«Экзамен»;2011;978-5-377-03858-0;;Russian",0,2000-01-01 01:00:00,2016-11-27 15:07:37,1587000/e101f3ec95bd13c041d6c5d781d3cc04-g.jpg,,
29683264,Практикум по патологической анатомии животных,,,,Салимов В.А.,2003,,КолосС,,,187,Russian,,,,5-9532-0039-0,,,,,,,,,,,0,,,,,,0,1,5484730,pdf,7bd7a690c3ac37337a0b6d921d98ddc9,,,Салимов В.А.;Практикум по патологической анатомии животных;;;КолосС;2003;5-9532-0039-0;;Russian,0,2000-01-01 01:00:00,2016-11-27 15:07:37,1587000/7bd7a690c3ac37337a0b6d921d98ddc9-g.jpg,,
29683265,Сотворенная природа глазами биологов. Поведение и чувство животных,,,,Татьяна Жданова,2014,,ИП Жданова,,,205,Russian,,,,978-5-905821-22-6,,,,,,,,,,,0,,,,,,0,0,5297563,pdf,42d9f313b44078c10504199efab1e9f3,,,Татьяна Жданова;Сотворенная природа глазами биологов. Поведение и чувство животных;;;ИП Жданова;2014;978-5-905821-22-6;;Russian,0,2000-01-01 01:00:00,2016-11-27 15:07:37,1587000/42d9f313b44078c10504199efab1e9f3-g.jpg,,
29683266,Вильгельм Завоеватель,,Великие властители,,Хейер Ж.,2002,,ООО «Издательство Астрель»,,,468,Russian,,,,5-17-013111-9,,,,,,,,,,,0,,,,,,0,1,5465740,djvu,2520c93a19d9e9ee727d30a142a69932,,,Хейер Ж.;Вильгельм Завоеватель;Великие властители;;ООО «Издательство Астрель»;2002;5-17-013111-9;;Russian,0,2000-01-01 01:00:00,2016-11-27 15:07:37,1587000/2520c93a19d9e9ee727d30a142a69932-g.jpg,,
29683267,Зоотехния,,,,Шуркин А.,2010,,Фолиант,,,217,Russian,,,,978-601-292-018-5,,,,,,,,,,,0,,,,,,0,1,5472991,pdf,f0b1ef96a0cdc5da5428f9f6b77dfc75,,,Шуркин А.;Зоотехния;;;Фолиант;2010;978-601-292-018-5;;Russian,0,2000-01-01 01:00:00,2016-11-27 15:07:37,1587000/f0b1ef96a0cdc5da5428f9f6b77dfc75-g.jpg,,
29683268,Технология электрохимической очистки воды,,,,"Яковлев С.В., Краснобородько И.Г., Рогов В.М.",1987,,Стройиздат,,,267,Russian,,,,5-274-00174-2,,,,,,,,,,,0,,,,,,0,0,5478603,djvu,94b162c26315060a8d47a59e47bd8d05,,,"Яковлев С.В., Краснобородько И.Г., Рогов В.М.;Технология электрохимической очистки воды;;;Стройиздат;1987;5-274-00174-2;;Russian",0,2000-01-01 01:00:00,2016-11-27 15:07:37,1587000/94b162c26315060a8d47a59e47bd8d05-g.jpg,,
29683269,Veterinary Endoscopy for the Small Animal Practitioner,,,,Timothy C. McCarthy,2004,,Hardcover,,,604,English.,,,,,,,,,,,,,,,0,,,,,,0,1,152964362,pdf,59683a0ca9bf626a55e94e8c2b15f215,,,Timothy C. McCarthy;Veterinary Endoscopy for the Small Animal Practitioner;;;Hardcover;2004;;;English.,0,2000-01-01 01:00:00,2016-11-27 15:08:53,1587000/59683a0ca9bf626a55e94e8c2b15f215-g.jpg,,
29683270,Растительность Западной области,,,,"Я.Я.Алексеев, А.В.Жуковский, Г.Л.Граве",1935,,"Западное областное государственное издательство, Смоленск",,,267,Russian,,,,,,,,,,,,,,,0,,,,,,0,1,5145301,djvu,55007ecb7b4584da0bfcd518de962712,,,"Я.Я.Алексеев, А.В.Жуковский, Г.Л.Граве;Растительность Западной области;;;Западное областное государственное издательство, Смоленск;1935;;;Russian",0,2000-01-01 01:00:00,2016-11-27 15:10:23,1587000/55007ecb7b4584da0bfcd518de962712-g.jpg,,
29683271,Минералогия самородного углерода,,,,Шумилова Т.Г.,2003,,Екатеринбург  УрО РАН,,,160,Russian,,,,,,,,,,,,,,,0,,,,,,0,0,5509954,djvu,27e2e061b1a34c0d856fd4abe82c58a5,,,Шумилова Т.Г.;Минералогия самородного углерода;;;Екатеринбург  УрО РАН;2003;;;Russian,0,2000-01-01 01:00:00,2016-11-27 15:10:29,1587000/27e2e061b1a34c0d856fd4abe82c58a5-g.jpg,,
29683272,Спроси свою совесть,,,,Федор Андрианов,1979,,"Мордовское книжное издательство, Саранск",,,224,Russian,,,,,,,,,,,,,,,0,,,,,,0,1,4902354,pdf,dbf59956c523ca45cc5f058f0fe98f7f,,,"Федор Андрианов;Спроси свою совесть;;;Мордовское книжное издательство, Саранск;1979;;;Russian",0,2000-01-01 01:00:00,2016-11-27 15:10:38,1587000/dbf59956c523ca45cc5f058f0fe98f7f-g.jpg,,
29683273,Геометрия. Планиметрия,,,,Н. А. Глаголев 1958,1958,,Учпедгиз,,,241,Russian,,,,,,,,,,,,,,,0,,,,,,0,0,5140410,djvu,a9aac59fa11937af810adfe50f5c82ac,,,Н. А. Глаголев 1958;Геометрия. Планиметрия;;;Учпедгиз;1958;;;Russian,0,2000-01-01 01:00:00,2016-11-27 15:11:16,1587000/a9aac59fa11937af810adfe50f5c82ac-g.jpg,,
29683274,"Book, bread, cross, and whip: the construction of Lithuanian identity in imperial Russia [dissertation]",,,,Ūdrėnas Nerijus,2000,,Brandeis University,,"VIII, 512",557,English,64,,0,,,,,,,,,,,,0,,,,,,,0,12530348,pdf,2ca5826877a7becd9f73ea2a14284d9f,,,"Udrenas, Book, bread, cross and whip, 2000.pdf",0,2000-01-01 01:00:00,2016-11-27 15:11:41,,,
29683275,Dicionário de Conceitos Históricos,,,,"Kalina Vanderlei Silva, Maciel Henrique Silva",2009,2ª,Contexto,São Paulo,440,441,Portuguese,64,,0,978-85-7244-298-5,,,,,,,,,,,0,,,,,,,1,2593586,pdf,b3290e8113c70213fe2af8b3b9f6cb31,,,978-85-7244-298-5_.pdf,0,2000-01-01 01:00:00,2016-11-27 15:13:42,http://lelivros.top/wp-content/uploads/2016/11/Baixar-Livro-Dicionario-de-Conceitos-Historicos-Kalina-Vanderlei-Silva-em-PDF-ePub-e-Mobi-ou-ler-online.jpg,,9788572442985
29683276,Litewski ruch narodowo-kulturalny w XIX wieku,,Prace Białostockiego Towarzystwa Naukowego,,Ochmański Jerzy,1965,,Państwowe Wydawnictwo Naukowe,Warszawa,201,198,Polish,64,,0,,,,,,,,,,,,400,,,,,,0,1,111144155,pdf,463c13d422d1a00db40b0bd5fc9be25b,,,"Ochmanski, Litewski ruch narodowo-kulturalny w XIX wieku, 1965.pdf",0,2000-01-01 01:00:00,2016-11-27 15:22:34,,,
29683277,Rozwój polskiej myśli politycznej na Litwie i Białorusi w latach 1905-1922,,Uniwersytet im. Adama Mickiewicza w Poznaniu. Seria Historia ; nr. 100,,Jurkiewicz Jan,1983,,UAM,Poznań,259,269,Polish,64,,0,,,,,,,,,,,,400,,,,,,0,1,132389362,pdf,19b503edd669e62b1f1a7daec2f4b446,,,"Jurkiewicz, Rozwoj polskiej mysli politycznej..., 1983.pdf",0,2000-01-01 01:00:00,2016-11-27 15:27:20,,,
29683278,Kultūrinis sąjūdis Lietuvoje 1831-1863 metais: organizaciniai kultūros ugdymo aspektai,,,,Aleksandravičius Egidijus,1989,,Mokslas,Vilnius,135,69,Lithuanian,64,,0,5420006219,,,,,,,,,,,300,,,,,,0,0,7838738,pdf,fefb90064086a983530348838920ef81,,,"Aleksandravicius, Kult. sajudis Lietuvoje 1831-63, 1989.pdf",0,2000-01-01 01:00:00,2016-11-27 15:33:40,,,5420006219
29683279,Global Street Design Guide,,,,"National Association of City Transportation Officials, Global Designing Cities Initiative",2016,,Island Press,,442,425,English,,,0,"1610917014,9781610917018",,,,,,,,,,,0,,,,1,,1,1,47558028,pdf,af9d10dbaecce58f177bec3124de97e5,,,Global Street Design Guide_9781610917018.pdf,0,2000-01-01 01:00:00,2016-11-27 15:38:26,http://ecx.images-amazon.com/images/I/51yTj4Ju0iL.jpg,"Urban & Land Use Planning;Architecture;Arts & Photography;Mass Transit;Transportation;Engineering & Transportation;Architecture;Humanities;New, Used & Rental Textbooks;Specialty Boutique","1610917014,9781610917018"
29683280,"Lithuania in European politics: the years of the first republic, 1918-1940",,,,"Eidintas Alfonsas, Žalys Vytautas; Senn Alfred Erich",1999,,St. Martin’s Press,New York,260,253,English,64,,0,0312224583,,,,,,,,,,,400,,,,,,0,1,15319252,pdf,28c4a4d6fc7a5a9badfe1d3cad2149e1,,,"Eidintas + Zalys, Senn, Lithuania in European politics... 1918-1940, 1997.pdf",0,2000-01-01 01:00:00,2016-11-27 15:39:54,,,0312224583
29683281,"Livari Skiadi: A Minoan Cemetery in Lefki, Southeast Crete: Volume I: Excavation and Finds",,,,"Yiannis Papadatos, Chrysa Sofianou",2015,,INSTAP Academic Press (Institute for Aegean Prehistory),,322,320,English,,,0,"1931534810,9781931534819",,,,,,,,,,,0,,,,1,,1,1,13898090,pdf,b9bc5f80306d74301241422fddc4d0cf,,,978-1-931534-81-9 Livari Skiadi.pdf,0,2000-01-01 01:00:00,2016-11-27 15:41:37,http://ecx.images-amazon.com/images/I/21zyDxmtHmL.jpg,"Prehistory;Ancient Civilizations;History;Ancient;History;Humanities;New, Used & Rental Textbooks;Specialty Boutique","1931534810,9781931534819"
29683282,Lithuania and the United States: the establishment of state relations,,,,Jurgėla Konstantinas; Jurgėla Constantine R.,1985,,Lithuanian Historical Society,Chicago,264,131,Lithuanian,64,,0,0918920043,,,,,,,,,,,0,,,,,,,0,38554152,pdf,73de941aec84767492014463c98d6cff,,,"Jurgela, Lithuania and the United States. Establishment of State Relations, 1985.pdf",0,2000-01-01 01:00:00,2016-11-27 15:43:23,,,0918920043
29683283,English Nouns: The Ecology of Nominalization,,Cambridge Studies in Linguistics,,Rochelle Lieber,2016,,Cambridge University Press,,186,210,English,,,0,"1316613879,9781316613870",,,,,,,,,,,0,,,,1,,1,1,1494754,pdf,c774343c8355cc59610191d7225d2f4d,,,9781316613870 English nouns.pdf,0,2000-01-01 01:00:00,2016-11-27 15:45:28,http://ecx.images-amazon.com/images/I/410HdC5LwOL.jpg,"Grammar;Words, Language & Grammar;Reference;Linguistics;Words, Language & Grammar;Reference;New, Used & Rental Textbooks;Business & Finance;Communication & Journalism;Computer Science;Education;Engineering;Humanities;Law;Medicine & Health Sciences;Reference;Science & Mathematics;Social Sciences;Test Prep & Study Guides;Specialty Boutique","1316613879,9781316613870"
29683284,Lithuania and the United States: the establishment of state relations,,,,Jurgėla Konstantinas; Jurgėla Constantine R.,1985,,Lithuanian Historical Society,Chicago,264,131,Lithuanian,64,,0,0918920043,,,,,,,,,,,0,,,,,,,0,38554152,pdf,73de941aec84767492014463c98d6cff,,,"Jurgela, Lithuania and the United States. Establishment of State Relations, 1985.pdf",0,2000-01-01 01:00:00,2016-11-27 15:45:38,1587000/73de941aec84767492014463c98d6cff-g.jpg,,0918920043
29683285,Yufa! A Practical Guide to Mandarin Chinese Grammar (Routledge Concise Grammars) (Chinese Edition),,,,Wen-Hua Teng,2016,2,Routledge,,400,401,Chinese,,,0,"1138651125,9781138651128",,,,,,,,,,,0,,,,1,,1,1,9216914,pdf,d7847949fb321056f13e7bc43bb21599,,,YUFA! A Practical Guide to Mandarin Chinese Grammar 978-1-138-65112-8.pdf,0,2000-01-01 01:00:00,2016-11-27 15:48:14,http://ecx.images-amazon.com/images/I/41uA%2BUrr1AL.jpg,"Words, Language & Grammar;Alphabet;Communication;Etymology;Grammar;Handwriting;Linguistics;Phonetics & Phonics;Public Speaking;Reading Skills;Reference;Rhetoric;Semantics;Sign Language;Speech;Spelling;Study & Teaching;Translating;Vocabulary, Slang & Word Lists;Reference;Chinese;Foreign Languages;Humanities;New, Used & Rental Textbooks;Specialty Boutique","1138651125,9781138651128"
29683286,"Litwomani i polonizatorzy: mity, wzajemne postrzeganie i stereotypy w stosunkach polsko-litewskich w pierwszej połowie XX wieku",,,,Buchowski Krzysztof,2006,,Wydawnictwo Uniwersytetu w Białymstoku,Białystok,468,430,Polish,64,,0,9788374310758,,,,,,,,,,,0,,,,,,,0,6585040,pdf,116b5437a21bed12a154cd924e2cfab8,,,"Buchowski, Litwomani_i_polonizatorzy, 2005.pdf",0,2000-01-01 01:00:00,2016-11-27 15:49:03,,,9788374310758
29683287,Yufa! A Practical Guide to Mandarin Chinese Grammar (Routledge Concise Grammars) (Chinese Edition),,,,Wen-Hua Teng,2016,2,Routledge,,400,401,Chinese,,,0,"1138651125,9781138651128",,,,,,,,,,,0,,,,1,,1,1,9216914,pdf,d7847949fb321056f13e7bc43bb21599,,,YUFA! A Practical Guide to Mandarin Chinese Grammar 978-1-138-65112-8.pdf,0,2000-01-01 01:00:00,2016-11-27 15:50:11,1587000/d7847949fb321056f13e7bc43bb21599-d.jpg,"Words, Language & Grammar;Alphabet;Communication;Etymology;Grammar;Handwriting;Linguistics;Phonetics & Phonics;Public Speaking;Reading Skills;Reference;Rhetoric;Semantics;Sign Language;Speech;Spelling;Study & Teaching;Translating;Vocabulary, Slang & Word Lists;Reference;Chinese;Foreign Languages;Humanities;New, Used & Rental Textbooks;Specialty Boutique","1138651125,9781138651128"
29683288,Polacy w niepodległym państwie litewskim 1918-1940,,,,Buchowski Krzysztof,1999,,Instytut Historii Uniwersytetu w Białymstoku,Białystok,320,171,Polish,64,,0,8387881066,,,,,,,,,,,300,,,,,,0,0,10920252,pdf,94dff06de01a4d67fca601ffcd34e991,,,"Buchowski, Polacy w niepod. panstwie litewskim, 1999.pdf",0,2000-01-01 01:00:00,2016-11-27 15:52:05,,,8387881066
29683289,Os últimos passos de Jesus: Um fascinante relato histórico da vida e dos tempos de Jesus,,,,"Bill O’Reilly, Martin Dugard",2015,1ª,Editora Sextante,Rio de Janeiro/RJ,480,0,Portuguese,,,0,9788543101903,,,,,,,,,,Título original: Killing Jesus,0,,,,,,,,2337070,epub,4f65b3da53125250fcbdfe2d470548aa,,,Os ultimos passos de Jesus_ Um  - Bill O__039;Reilly.epub,0,2000-01-01 01:00:00,2016-11-27 15:52:10,http://statics.livrariacultura.net.br/products/capas_lg/333/87508333.jpg,1. Jesus Cristo – História. 2. Vida cristã.,9788543101903
29683290,"Wissen, Freiheit, Geschichte. Die Philosophie Fichtes Im 19. Und 20. Jahrhundert: Bd. IV: Sektionen 10-12",,Fichte-Studien,,"Jurgen Stolzenberg, Oliver-Pierre Rudolph",2013,,Rodopi,,324,317,German,,,0,"9042036338,9789042036338",,,,,,,,,,,0,,,,1,,1,1,2676905,pdf,c80467c3a92a0b78d2b5048606d9c82b,,,"Wissen, Freiheit, Geschichte. Die Philosophie Fichtes im 19. und 20. Jahrhundert 978-90-420-3633-8.pdf",0,2000-01-01 01:00:00,2016-11-27 15:52:33,http://ecx.images-amazon.com/images/I/51%2Bva3-ANTL.jpg,"German;European;Regional & Cultural;History & Criticism;Literature & Fiction;Criticism;Philosophy;Politics & Social Sciences;Modern;Philosophy;Politics & Social Sciences;European;World Literature;Literature;Humanities;New, Used & Rental Textbooks;Specialty Boutique;Europe;History;Humanities;New, Used & Rental Textbooks;Specialty Boutique;History & Surveys;Philosophy;Humanities;New, Used & Rental Textbooks;Specialty Boutique","9042036338,9789042036338"
29683291,Konflikt polsko-litewski o Ziemię Sejneńsko-Suwalską w latach 1918-1920,,,,Buchowski Krzysztof,2009,,Sejneńskie Towarzystwo Opieki nad Zabytkami,Sejny,183,98,Polish,64,,0,9788392274353,,,,,,,,,,,0,,,,,,,0,38497340,pdf,0794640e5f12e3a49a03c0bfe5db30da,,,"Buchowski, Konflikt polsko-litewski o Ziemię Sejneńsko-Suwalską w latach 1918-1920, 2009.pdf",0,2000-01-01 01:00:00,2016-11-27 15:54:14,,,9788392274353
29683292,The Text of the Hebrew Bible and Its Editions: Studies in Celebration of the Fifth Centennial of the Complutensian Polyglot,,Supplements to the Textual History of the Bible,,"Andres Piquer Otero, Pablo A Torijano Morales",2016,Supplement,Brill,,0,596,English,,,0,"900433498X,9789004334984",,,,,,,,,,,0,,,,1,,1,1,5528029,pdf,3a42a0e25c9bf38a9591df86745bcd8e,,,978-90-04-33498-4 The Text of the Hebrew Bible and Its Editions.pdf,0,2000-01-01 01:00:00,2016-11-27 15:54:44,http://ecx.images-amazon.com/images/I/41Pvg8lkLzL.jpg,"Old Testament;Criticism & Interpretation;Bible Study & Reference;Religion & Spirituality;Agnosticism;Atheism;Buddhism;Hinduism;Islam;Judaism;Literature & Fiction;New Age & Spirituality;Occult & Paranormal;Other Eastern Religions & Sacred Texts;Other Religions, Practices & Sacred Texts;Religious Art;Religious Studies;Worship & Devotion;Religious Studies;Buddhism;Christianity;Comparative Religion;Islam;Judaism;Religious History;Humanities;New, Used & Rental Textbooks;Specialty Boutique","900433498X,9789004334984"
29683293,Lietuvos valstybingumo raida 1914-1918 metais,,"Lietuvių Atgimimo istorijos studijos, t.9",,Lopata Raimundas,1996,,Sietynas,Vilnius,223,227,Lithuanian,64,,0,5417007153,,,,,,,,,,,0,,,,,,,0,15962395,pdf,dfc96437e6ac27c9dc99e2b44e03d8e6,,,"Lopata, Lietuvos.valstybingumo.raida.1914-1918.metais, 1996.pdf",0,2000-01-01 01:00:00,2016-11-27 15:57:18,,,5417007153
29683294,Strange Narrators in Contemporary Fiction: Explorations in Readers’ Engagement with Characters,,Frontiers of Narrative,,Marco Caracciolo,2016,,University of Nebraska Press,,288,287,English,,,0,"0803294964,9780803294967",,,,,,,,,,,0,,,,1,,1,1,3761381,pdf,436438e74e5c5920c760e257015776ed,,,9780803294967 Strange Narrators in Contemporary Fiction.pdf,0,2000-01-01 01:00:00,2016-11-27 15:57:20,http://ecx.images-amazon.com/images/I/51AUL7Z58YL.jpg,Modern;Movements & Periods;History & Criticism;Literature & Fiction,"0803294964,9780803294967"
29683295,Generative and Non-Linear Phonology,,Longman Linguistics Library,,Jacques Durand,1990,Reprint,Routledge,,352,352,English,,,0,"0582003296,9780582003293",,,,,,,,,,,0,,,,1,,1,1,17016075,pdf,aeccccc8a4f2493ed60f997097b40565,,,9780582003293 Generative and Nonlinear Phonology.pdf,0,2000-01-01 01:00:00,2016-11-27 16:00:22,http://ecx.images-amazon.com/images/I/31TO869a5rL.jpg,"Engineering;Aerospace;Automotive;Bioengineering;Chemical;Civil & Environmental;Computer Modelling;Construction;Design;Electrical & Electronics;Energy Production & Extraction;Industrial, Manufacturing & Operational Systems;Marine Engineering;Materials & Material Science;Mechanical;Military Technology;Reference;Telecommunications & Sensors;Engineering & Transportation;Foreign Language Study & Reference;Instruction;Foreign Language Dictionaries & Thesauruses;Reference;Phonetics & Phonics;Words, Lan","0582003296,9780582003293"
29683296,"Lietuvos žvalgyba, 1918-1940",,,,Anušauskas Arvydas,2014,,Versus aureus,Vilnius,370,370,Lithuanian,64,,0,9789955344544,,,,,,,,,,,0,,,,,,,1,86629737,pdf,9e14677e52a3f1e444c04b87f799d491,,,"Anusauskas, Lietuvos.zvalgyba.1918-1940.2014.LT.pdf",0,2000-01-01 01:00:00,2016-11-27 16:00:36,,,9789955344544
29683297,Data Integrity in Pharmaceutical and Medical Devices Regulation Operations: Best Practices Guide to Electronic Records Compliance,,,,Orlando Lopez,2016,,Productivity Press,,394,395,English,,,0,"1498773249,9781498773249",,,,,,,,,,,0,,,,1,,1,1,13258739,pdf,9898361f8dce6b8e6229b92521857981,,,9781498773249 Data Integrity in Pharmaceutical and« Medical Devices Regulation Operations.pdf,0,2000-01-01 01:00:00,2016-11-27 16:03:58,http://ecx.images-amazon.com/images/I/514LUNZKS9L.jpg,"Hospital Administration;Administration & Medicine Economics;Family Practice;Internal Medicine;Medicine;Pharmacology;Cardiovascular;Chemistry;Clinical;Drug Delivery Systems;Drug Guides;For Nurses;For Veterinarians;Molecular;Neuropsychopharmacology;Pain Medicine;Pharmacodynamics;Pharmacy;Product Development;Reference;Toxicology;Hospital Administration & Care;Administration & Policy;Medicine & Health Sciences;New, Used & Rental Textbooks;Specialty Boutique;Pharmacology;Basic Sciences;Medicine;Medic","1498773249,9781498773249"
29683298,XX amžiaus slaptieji archyvai: dvylika istorijos detektyvų,,,,"Anušauskas Arvydas, Sviderskytė Gražina",2008,,Versus aureus,Vilnius,379,384,Lithuanian,64,,0,9789955341185,,,,,,,,,,,0,,,,,,,1,55444100,pdf,7787f1ed40860a1d9300aa5c363a8d4d,,,Anusauskas + Sviderskyte.-.XX.amziaus.slaptieji.archyvai.2008.LT.pdf,0,2000-01-01 01:00:00,2016-11-27 16:05:47,,,9789955341185
29683299,Театрал,,,,Греч Н.И.,1853,,Типография Н. Греча,,,162,Russian,,,,-,,,,,,,,,,,0,,,,,,0,1,37959134,pdf,25c2fd4d768b164089e605624a96fb6a,,,Греч Н.И.;Театрал;;;Типография Н. Греча;1853;-;;Russian,0,2000-01-01 01:00:00,2016-11-27 16:07:36,1573000/25c2fd4d768b164089e605624a96fb6a-g.jpg,,
29683300,Иллюстрированный практический путеводитель по Одессе,,,,Москвич Г.Г.,1904,,Типография Л. Нитче (Одесса),,,193,Russian,,,,-,,,,,,,,,,,0,,,,,,0,1,114294202,pdf,6056c19c1332a4c10e4a7a718155860f,,,Москвич Г.Г.;Иллюстрированный практический путеводитель по Одессе;;;Типография Л. Нитче (Одесса);1904;-;;Russian,0,2000-01-01 01:00:00,2016-11-27 16:07:36,1577000/6056c19c1332a4c10e4a7a718155860f-g.jpg,,
29683301,«Отчизну сердцем защитили»  Стихи поэтов Тейковского района,,,,,2011,,"ОАО «Издательство «Иваново»,",,,64,Russian,,,,-,,,,,,,,,,,0,,,,,,0,1,2010197,pdf,ca229279281b8a331bc80b0e6cfa53f2,,,";«Отчизну сердцем защитили»  Стихи поэтов Тейковского района;;;ОАО «Издательство «Иваново»,;2011;-;;Russian",0,2000-01-01 01:00:00,2016-11-27 16:07:36,1585000/ca229279281b8a331bc80b0e6cfa53f2-g.jpg,,
29683302,Recettes Angéliques. Le bœuf: Le goût d’être ensemble,,,,(Collective),2012,,INTERBEV,,0,32,French,,,0,-,,,,,,,,,,,0,,,,,,0,1,3164060,pdf,be017384eb788f84803d6cf2728a3a68,,,;Recettes Angliques. Le boeuf Le got d’tre ensemble;;;INTERBEV;2012;-;;French,0,2000-01-01 01:00:00,2016-11-27 16:07:36,1585000/be017384eb788f84803d6cf2728a3a68-g.jpg,,
29683303,A World Of Animals Vol. 2,,Painting- Animals,,Ana Bernabe,2002,,Viking folk Art,,,60,English,,,,-,,,,,,,,,,,0,,,,,,0,0,50405079,pdf,857f613ba692b86d043d09c24061c24a,,,Ana Bernabe;A World Of Animals Vol. 2;Painting- Animals;;Viking folk Art;2002;-;;English,0,2000-01-01 01:00:00,2016-11-27 16:07:36,1585000/857f613ba692b86d043d09c24061c24a-g.jpg,,
29683304,A World Of Animals Vol. 3,,Painting- Animals,,Ana Bernabe,2003,,Viking folk Art,,,65,English,,,,-,,,,,,,,,,,0,,,,,,0,0,46544505,pdf,d2dbe9b1e95bf109a85cf033d923f5a2,,,Ana Bernabe;A World Of Animals Vol. 3;Painting- Animals;;Viking folk Art;2003;-;;English,0,2000-01-01 01:00:00,2016-11-27 16:07:36,1585000/d2dbe9b1e95bf109a85cf033d923f5a2-g.jpg,,
29683305,20 Easy DIY Holiday Craft,,,,Collective,2015,,FloraCraft,,0,58,English,,,0,-,,,,,,,,,,,0,,,,,,0,1,19194778,pdf,b5d1f6e32d9acffad14ecfb28dac3ac6,,,"Collective;20 Easy DIY Holiday Craft;;;FloraCraft, Prime Publishing LLC;2015;-;;English",0,2000-01-01 01:00:00,2016-11-27 16:07:36,1585000/b5d1f6e32d9acffad14ecfb28dac3ac6-g.jpg,,
29683306,Atlas of Stored-Product Insects and Mites,,,,"Tomasz Klejdysz, Bhadriraju Subramanyam, and Jan Nawrot David W. Hagstrum",2013,,AACC International Press,,589,598,English,,,0,"1891127756,9781891127755",,,,,,,,,,,0,,,,1,,1,1,20847193,pdf,a5c8adedf8dac778c8a0748a5fed45ef,,,9781891127755 Atlas of Stored-Product Insects and Mites.pdf,0,2000-01-01 01:00:00,2016-11-27 16:07:52,http://ecx.images-amazon.com/images/I/51bw8Ti-OYL.jpg,"Arts & Photography;Biographies & Memoirs;Business & Money;Calendars;Comics & Graphic Novels;Computers & Technology;Cookbooks, Food & Wine;Crafts, Hobbies & Home;Education & Teaching;Engineering & Transportation;Gay & Lesbian;Health, Fitness & Dieting;History;Humor & Entertainment;Law;Literature & Fiction;Mystery, Thriller & Suspense;Parenting & Relationships;Politics & Social Sciences;Reference;Religion & Spirituality;Romance;Science & Math;Science Fiction & Fantasy;Self-Help;Sports & Outdoors;T","1891127756,9781891127755"
29683307,Santa Sede e Lituania: la rinascita dello Stato lituano nei documenti dell’archivio della Nunziatura Apostolica di Monaco di Baviera (1915-1919),,Chiesa e storia,,Makrickas Rolandas,2006,,Edizioni Liturgiche,Roma,833,824,Italian; German; French; Latin,64,,0,8873670520,,,,,,,,,,,400,,,,,,0,1,40630272,pdf,99a432efa6d0a297372b096e98e0735d,,,"Makrickas, Santa Sede e Lituania, 2006.pdf",0,2000-01-01 01:00:00,2016-11-27 16:10:23,,,8873670520
29683308,Na África selvagem: Uma emocionante história real,,,,Mark Seal,2010,1ª,Zahar,Rio de Janeiro/RJ,528,0,Portuguese,190,,0,9788537803554,,,,,,,,,,Título original: Wildflower (An Extraordinary Life and Untimely Death in Africa),0,,,,,,,,1366539,epub,cd7ab22504f9b9af4935b93aeff58cc2,,,Na Africa selvagem_ Uma emocion - Mark Seal.epub,0,2000-01-01 01:00:00,2016-11-27 16:11:14,http://statics.livrariacultura.net.br/products/capas_lg/806/15010806.jpg,1. Joan Root (1936-2006) - biografia 2. Joan Root - ativista ecológica - conservacionista - cineasta 3. Joan Root - assassinato 4. Jornalismo investigativo,9788537803554
29683309,"Stolica Apostolska a biskup Jerzy Matulewicz, 1916-1921",,"Fontes Historiae Marianorum, 2",,"Bukowicz Jan, Górski Tadeusz [tłumaczyli i do druku przygotowali]",1996,,Wydawnictwo Księży Marianów,Warszawa,327,162,Polish,,,0,8371191057,,,,,,,,,,,300,,,,,,0,0,12569865,pdf,a84b2b4127e0586683a0c97835e96e1e,,,"Stolica Apostolska a biskup Jerzy Matulewicz 1916-1921, 1996.pdf",0,2000-01-01 01:00:00,2016-11-27 16:13:32,,,8371191057
29683310,"The New Woman in Uzbekistan: Islam, Modernity, and Unveiling under Communism",,Jackson School Publications in International Studies,,Marianne Kamp,2006,annotated edition,University of Washington Press,,332,350,English,,,0,"0295986441,9780295986449",,,,,,,,,,,0,,,,,,,1,2460577,pdf,41c2e67af4bba52e8f6e63c8bc7659e6,,,"The New Woman in Uzbekistan Islam, Modernity, and Unveiling Under Communism (2006) - Marianne Kamp.pdf",0,2000-01-01 01:00:00,2016-11-27 16:13:37,http://ecx.images-amazon.com/images/I/41GHQ8FRSSL.jpg,Asia;China;Hong Kong;India;Japan;Korea;Pakistan;Philippines;Russia;History;Europe;Belgium;France;Germany;Great Britain;Greenland;Italy;Netherlands;Romania;Scandinavia;History;Middle East;Bahrain;Egypt;Iran;Iraq;Israel & Palestine;Jordan;Kuwait;Lebanon;Oman;Qatar;Saudi Arabia;Syria;Turkey;United Arab Emirates;Yemen;History;Women in History;World;History;Social Sciences;Children’s Studies;Communication & Media Studies;Criminology;Customs & Traditions;Demography;Disaster Relief;Emigration & Immig,"0295986441,9780295986449"
29683311,The Economics You Need,,,,Enrico Colombatto,2016,,Routledge,,200,201,English,,,0,"1138963100,9781138963108",,,,,,,,,,,0,,,,1,,1,1,985160,pdf,e5195d3aad6d79c0c6fec081b016df43,,,The Economics You Need 9781138963108.pdf,0,2000-01-01 01:00:00,2016-11-27 16:15:08,http://ecx.images-amazon.com/images/I/51ol-zMQrhL.jpg,"Microeconomics;Economics;Business & Money;Microeconomics;Economics;Business & Finance;New, Used & Rental Textbooks;Specialty Boutique","1138963100,9781138963108"
29683312,"La Lituanie sous le joug allemand, 1915-1918: le plan annexioniste allemand en Lituanie",,,,Pouvreau Yvonne [pseud.: Rivas C.],1918,,Libraire centrale des nationalités,Lausanne,700,706,French,,,0,,,,,,,,,,,,0,,,,,,,1,47291332,pdf,a4505c1437507375a02096bb523e0df5,,,"Pouvreau, Lituanie sous le joug-allemand 1915-1918, 1918.pdf",0,2000-01-01 01:00:00,2016-11-27 16:17:55,,,
29683313,The Economics You Need,,,,Enrico Colombatto,2016,,Routledge,,200,0,English,,,0,"1138963100,9781138963108",,,,,,,,,,,0,,,,,,1,,3389058,epub,1f18c7c4c459b99cc594835d59a2e2ca,,,The Economics You Need 9781138963108.epub,0,2000-01-01 01:00:00,2016-11-27 16:20:15,http://ecx.images-amazon.com/images/I/51ol-zMQrhL.jpg,,"1138963100,9781138963108"
29683314,Litwa za rządów ks. Isenburga,,,,Jentys Stefan [S. J.],1919,,nakładem Krakowskiego Oddziału Zjednoczenia Narodowego,Kraków,"IV, 157",176,Polish,64,,0,,,,,,,,,,,,0,,,,,,,1,7672324,pdf,7dbe3b6a2daf6423b0fea4f917684905,,,"Litwa za rzadów ks. Isenburga, 1919.pdf",0,2000-01-01 01:00:00,2016-11-27 16:22:23,,,
29683315,"The Letters of Robert Frost, Volume 2: 1920-1928",,,,"Robert Frost, Donald Sheehy, Mark Richardson, Robert Bernard Hass, Henry Atmore",2016,annotated edition,Belknap Press,,848,841,English,,,0,"0674726642,9780674726642",,,,,,,,,,,0,,,,1,,1,1,4561327,pdf,7c09448fa8238c94832aa7882c322dfb,,,"The Letters of Robert Frost, Volume 2- 9780674973428.pdf",0,2000-01-01 01:00:00,2016-11-27 16:28:00,http://ecx.images-amazon.com/images/I/41pUrh9s%2B4L.jpg,Biographies & Memoirs;Arts & Literature;Ethnic & National;Historical;Leaders & Notable People;Memoirs;Professionals & Academics;Reference & Collections;Regional Canada;Regional U.S.;Specific Groups;Sports & Outdoors;Travelers & Explorers;True Crime;Letters;Essays & Correspondence;Literature & Fiction;United States;African American;Asian American;Hispanic American;Native American;Regional & Cultural;Poetry;Literature & Fiction,"0674726642,9780674726642"
29683316,Por que canja de galinha cura resfriado,,,,Anahad O’Connor,2011,1ª,Editora Best Seller,Rio de Janeiro/RJ,421,0,Portuguese,164,,0,9788576843481,,,,,,,,,,Tradução de: Never Shower in a Thunderstorm,0,,,,,,,,663727,epub,cd77107d2e2cabb520a30e11300a05da,,,Por que Canja de Galinha Cura R - Anahad O__039;Connor.epub,0,2000-01-01 01:00:00,2016-11-27 16:28:03,http://statics.livrariacultura.net.br/products/capas_lg/270/22601270.jpg,,9788576843481
29683317,Lithuania in 1940-1991: the history of occupied Lithuania,,,,Anušauskas Arvydas [general editor],2015,,Genocide and Resistance Research Centre of Lithuania,Vilnius,591,590,English,64,,0,9786098037548,,,,,,,,,,,400,,,,,,0,1,143442148,pdf,30a7939acd7960b46bf7d72bb81a9c18,,,"Lithuania in 1940-1991, 2015.pdf",0,2000-01-01 01:00:00,2016-11-27 16:28:25,,,9786098037548
29683318,"Lithuania in crisis: nationalism to communism, 1939-1940",,,,Sabaliūnas Leonas,1972,,Indiana Universy Press,Bloomington,"XXI, 293",179,English,64,,0,0253336007,,,,,,,,,,,0,,,,,,,1,41448429,pdf,e07ae813a4316e156ee6d362e5ca7307,,,"Sabaliunas, Lithuanian in Crisis. Nationalism to Communism, 1939-1940, 1972.pdf",0,2000-01-01 01:00:00,2016-11-27 16:35:46,,,0253336007
29683319,Advanced High Strength Natural Fibre Composites in Construction,,,,"Mizi Fan, Feng Fu",2016,1,Woodhead Publishing,,596,0,English,,,0,"0081004117,9780081004111",,,,,,,,,,,0,,,,1,,1,1,45656261,pdf,21077a50ddeaa6b7dd05071f061aeb41,,,Advanced High Strength Natural Fibre Composites in Construction 978-0-08-100411-1.pdf,0,2000-01-01 01:00:00,2016-11-27 16:39:32,http://ecx.images-amazon.com/images/I/41myxRtorYL.jpg,,"0081004117,9780081004111"
29683320,"Medieval Exegesis and Religious Difference: Commentary, Conflict, and Community in the Premodern Mediterranean",,Bordering Religions,,Ryan Szpiech,2015,1,Fordham University Press,,352,348,English,,,0,"0823264629,9780823264629",,,,,,,,,,,0,,,,1,,1,1,4428588,pdf,826532c254355061895d3bc2fbb8c51d,,,"Medieval Exegesis and Religious Difference Commentary, Conflict,_9780823264629.pdf",0,2000-01-01 01:00:00,2016-11-27 16:44:30,http://ecx.images-amazon.com/images/I/61ZwKAIeXmL.jpg,"Exegesis & Hermeneutics;Criticism & Interpretation;Bible Study & Reference;History;Africa;Americas;Arctic & Antarctica;Asia;Australia & Oceania;Europe;Middle East;Russia;United States;World;Ancient Civilizations;Military;Historical Study & Educational Resources;Comparative Religion;Religious Studies;Religion & Spirituality;History;Africa;Ancient;Asia;Europe;Latin America;Middle East;Military;United States;Humanities;New, Used & Rental Textbooks;Specialty Boutique;Comparative Religion;Religious S","0823264629,9780823264629"
29683321,"The DevOps Handbook: How to Create World-Class Agility, Reliability, and Security in Technology Organizations",,,,"Gene Kim, Patrick Debois, John Willis, Jez Humble, John Allspaw",2016,,IT Revolution Press,,480,0,English,,,0,"1942788002,9781942788003",,,,,,,,,,,0,,,,,,1,,3305136,epub,e34e4802ae102620effb800e014d679c,,,Devops 978-1942788003.epub,0,2000-01-01 01:00:00,2016-11-27 16:47:39,http://ecx.images-amazon.com/images/I/51GspNFDWIL.jpg,Information Management;Management & Leadership;Business & Money;Management;Management & Leadership;Business & Money,"1942788002,9781942788003"
29683322,"States, Debt, and Power: ’Saints’ and ’Sinners’ in European History and Integration",,,,Kenneth Dyson,2014,1,Oxford University Press,,600,0,English,,,0,"0198714076,9780198714071",,,,,,,,,,,0,,,,,,1,,1303673,epub,f82f45514d64b1eb63704478b6a9842a,,,"States, Debt, and Power 978–0–19–871407–1.epub",0,2000-01-01 01:00:00,2016-11-27 16:53:20,http://ecx.images-amazon.com/images/I/51iZpC7BlCL.jpg,"Economic Policy & Development;Economics;Business & Money;Public Finance;Economics;Business & Money;Economic Policy;Public Affairs & Policy;Politics & Government;Politics & Social Sciences;Business & Finance;Accounting;Banking;Business Communication;Business Development;Business Ethics;Business Law;Economics;Entrepreneurship;Finance;Human Resources;International Business;Investments & Securities;Management;Marketing;Real Estate;Sales;New, Used & Rental Textbooks;Specialty Boutique;Public Policy;P","0198714076,9780198714071"
29683323,Театрал,,,,Греч Н.И.,1853,,Типография Н. Греча,,,162,Russian,,,,-,,,,,,,,,,,0,,,,,,0,1,37959134,pdf,25c2fd4d768b164089e605624a96fb6a,,,Греч Н.И.;Театрал;;;Типография Н. Греча;1853;-;;Russian,0,2000-01-01 01:00:00,2016-11-27 17:07:36,1573000/25c2fd4d768b164089e605624a96fb6a-g.jpg,,
29683324,Иллюстрированный практический путеводитель по Одессе,,,,Москвич Г.Г.,1904,,Типография Л. Нитче (Одесса),,,193,Russian,,,,-,,,,,,,,,,,0,,,,,,0,1,114294202,pdf,6056c19c1332a4c10e4a7a718155860f,,,Москвич Г.Г.;Иллюстрированный практический путеводитель по Одессе;;;Типография Л. Нитче (Одесса);1904;-;;Russian,0,2000-01-01 01:00:00,2016-11-27 17:07:36,1577000/6056c19c1332a4c10e4a7a718155860f-g.jpg,,
29683325,«Отчизну сердцем защитили»  Стихи поэтов Тейковского района,,,,,2011,,"ОАО «Издательство «Иваново»,",,,64,Russian,,,,-,,,,,,,,,,,0,,,,,,0,1,2010197,pdf,ca229279281b8a331bc80b0e6cfa53f2,,,";«Отчизну сердцем защитили»  Стихи поэтов Тейковского района;;;ОАО «Издательство «Иваново»,;2011;-;;Russian",0,2000-01-01 01:00:00,2016-11-27 17:07:36,1585000/ca229279281b8a331bc80b0e6cfa53f2-g.jpg,,
29683326,Recettes Angéliques. Le bœuf: Le goût d’être ensemble,,,,(Collective),2012,,INTERBEV,,0,32,French,,,0,-,,,,,,,,,,,0,,,,,,0,1,3164060,pdf,be017384eb788f84803d6cf2728a3a68,,,;Recettes Angliques. Le boeuf Le got d’tre ensemble;;;INTERBEV;2012;-;;French,0,2000-01-01 01:00:00,2016-11-27 17:07:36,1585000/be017384eb788f84803d6cf2728a3a68-g.jpg,,
29683327,A World Of Animals Vol. 2,,Painting- Animals,,Ana Bernabe,2002,,Viking folk Art,,,60,English,,,,-,,,,,,,,,,,0,,,,,,0,0,50405079,pdf,857f613ba692b86d043d09c24061c24a,,,Ana Bernabe;A World Of Animals Vol. 2;Painting- Animals;;Viking folk Art;2002;-;;English,0,2000-01-01 01:00:00,2016-11-27 17:07:36,1585000/857f613ba692b86d043d09c24061c24a-g.jpg,,
29683328,A World Of Animals Vol. 3,,Painting- Animals,,Ana Bernabe,2003,,Viking folk Art,,,65,English,,,,-,,,,,,,,,,,0,,,,,,0,0,46544505,pdf,d2dbe9b1e95bf109a85cf033d923f5a2,,,Ana Bernabe;A World Of Animals Vol. 3;Painting- Animals;;Viking folk Art;2003;-;;English,0,2000-01-01 01:00:00,2016-11-27 17:07:36,1585000/d2dbe9b1e95bf109a85cf033d923f5a2-g.jpg,,
29683329,20 Easy DIY Holiday Craft,,,,Collective,2015,,FloraCraft,,0,58,English,,,0,-,,,,,,,,,,,0,,,,,,0,1,19194778,pdf,b5d1f6e32d9acffad14ecfb28dac3ac6,,,"Collective;20 Easy DIY Holiday Craft;;;FloraCraft, Prime Publishing LLC;2015;-;;English",0,2000-01-01 01:00:00,2016-11-27 17:07:36,1585000/b5d1f6e32d9acffad14ecfb28dac3ac6-g.jpg,,
29683330,Зоология,,,,"Ятусевич А.И, Трофимчик Л.Е., Олехнович Н.И. и др.",2007,,ВГАВМ,,,384,Russian,,,,978-985-6847-56-4,,,,,,,,,,,0,,,,,,0,1,6209255,pdf,1f61661831227ea00a50723492934567,,,"Ятусевич А.И, Трофимчик Л.Е., Олехнович Н.И. и др.;Зоология;;;ВГАВМ;2007;978-985-6847-56-4;;Russian",0,2000-01-01 01:00:00,2016-11-27 17:07:36,1587000/1f61661831227ea00a50723492934567-g.jpg,,
29683331,Задачи и тесты по оптике и квантовой механике,,,,"Аплеснин С.С., Чернышова Л.И., Филенкова Н.В.",2012,,Лань,,,329,Russian,,,,978-5-8114-1231-0,,,,,,,,,,,0,,,,,,0,1,6027070,pdf,ff31f24d41acc7408c4b601d920f6f38,,,"Аплеснин С.С., Чернышова Л.И., Филенкова Н.В.;Задачи и тесты по оптике и квантовой механике;;;Лань;2012;978-5-8114-1231-0;;Russian",0,2000-01-01 01:00:00,2016-11-27 17:07:36,1587000/ff31f24d41acc7408c4b601d920f6f38-g.jpg,,
29683332,Домашняя работа по алгебре за 8 класс к задачнику А.Г. Мордковича и др. «Алгебра. 8 класс. В 2 ч. Ч. 2. Задачник для учащихся общеобразовательных учреждений»,,,,Бачурин В.Е.,2010,,«Экзамен»,,,319,Russian,,,,978-5-377-03008-9,,,,,,,,,,,0,,,,,,0,0,6747913,pdf,eeb2faa7e72583c66ff0999c7fd49942,,,Бачурин В.Е.;Домашняя работа по алгебре за 8 класс к задачнику А.Г. Мордковича и др. «Алгебра. 8 класс. В 2 ч. Ч. 2. Задачник для учащихся общеобразовательных учреждений»;;;«Экзамен»;2010;978-5-377-03008-9;;Russian,0,2000-01-01 01:00:00,2016-11-27 17:07:36,1587000/eeb2faa7e72583c66ff0999c7fd49942-g.jpg,,
29683333,"Домашняя работа по математике за 5 класс к учебнику Г.В. Дорофеева, Л.Г. Петерсон «Математика. 5 класс»",,,,Бачурин В.Е.,2009,,«Экзамен»,,,257,Russian,,,,978-5-377-02531-3,,,,,,,,,,,0,,,,,,0,0,5880924,pdf,2f8629cd94dd5efd0ac050601e136287,,,"Бачурин В.Е.;Домашняя работа по математике за 5 класс к учебнику Г.В. Дорофеева, Л.Г. Петерсон «Математика. 5 класс»;;;«Экзамен»;2009;978-5-377-02531-3;;Russian",0,2000-01-01 01:00:00,2016-11-27 17:07:36,1587000/2f8629cd94dd5efd0ac050601e136287-g.jpg,,
29683334,Черное море,,,,Г. Г. Кузьминская,1988,,Краснодарское книжное издательство,,,100,Russian,,,,5-7561-0064-4,,,,,,,,,,,0,,,,,,0,0,6555770,pdf,30e6eb1f7b64b165661b901445c84415,,,Г. Г. Кузьминская;Черное море;;;Краснодарское книжное издательство;1988;5-7561-0064-4;;Russian,0,2000-01-01 01:00:00,2016-11-27 17:07:36,1587000/30e6eb1f7b64b165661b901445c84415-g.jpg,,
29683335,Собрание сочинений,Том 5,,,Гранин Д.,1990,,Худож. лит.,,,754,Russian,,,,5-280-00960-1,,,,,,,,,,,0,,,,,,0,1,6732972,djvu,958ffcf030b021c1a1524f3776520631,,,Гранин Д.;Собрание сочинений;;Том 5;Худож. лит.;1990;5-280-00960-1;;Russian,0,2000-01-01 01:00:00,2016-11-27 17:07:36,1587000/958ffcf030b021c1a1524f3776520631-g.jpg,,
29683336,Определитель повреждений плодовых деревьев и кустарников,,,,Гусев В.И.,1990,,Агропромиздат,,,241,Russian,,,,5-10-001048-7,,,,,,,,,,,0,,,,,,0,1,6996028,pdf,3a8038458dd8270db5a9f1a68f21ac45,,,Гусев В.И.;Определитель повреждений плодовых деревьев и кустарников;;;Агропромиздат;1990;5-10-001048-7;;Russian,0,2000-01-01 01:00:00,2016-11-27 17:07:36,1587000/3a8038458dd8270db5a9f1a68f21ac45-g.jpg,,
29683337,Релятивистская квантовая механика,,,,Дайсон Фриман,2009,,"Ин-т компьютерных исследований, НИЦ",,,235,Russian,,,,978-5-93972-782-2,,,,,,,,,,,0,,,,,,0,0,5953684,pdf,580fc86b66429728848797e517e70a2d,,,"Дайсон Фриман;Релятивистская квантовая механика;;;Ин-т компьютерных исследований, НИЦ;    2009;978-5-93972-782-2;;Russian",0,2000-01-01 01:00:00,2016-11-27 17:07:36,1587000/580fc86b66429728848797e517e70a2d-g.jpg,,
29683338,Окислительно-восстановительные реакции,,Темы школьного курса,,"Дзудцова Д.Д., Бестаева Л.Б.",2005,,Дрофа,,,322,Russian,,,,5-7107-8550-4,,,,,,,,,,,0,,,,,,0,0,6946589,pdf,7aa1cd81471d0fd0248aef7de62d1d41,,,"Дзудцова Д.Д., Бестаева Л.Б.;Окислительно-восстановительные реакции;Темы школьного курса;;Дрофа;2005;5-7107-8550-4;;Russian",0,2000-01-01 01:00:00,2016-11-27 17:07:36,1587000/7aa1cd81471d0fd0248aef7de62d1d41-g.jpg,,
29683339,Ландшафтоведение и физико-географическое районирование,,,,Исаченко А.Г.,1991,,Высшая школа,,,578,Russian,,,,5-06-001731-1,,,,,,,,,,,0,,,,,,0,0,6714300,djvu,94e2d30915613de18920b912d923e169,,,Исаченко А.Г.;Ландшафтоведение и физико-географическое районирование;;;Высшая школа;1991;5-06-001731-1;;Russian,0,2000-01-01 01:00:00,2016-11-27 17:07:36,1587000/94e2d30915613de18920b912d923e169-g.jpg,,
29683340,Климатология,,,,Кислов А.В.,2011,,Академия,,,120,Russian,,,,978-5-7695-6223-5,,,,,,,,,,,0,,,,,,0,0,145213204,pdf,65f276124f7f7906cd9ee852e7069462,,,Кислов А.В.;Климатология;;;Академия;2011;978-5-7695-6223-5;;Russian,0,2000-01-01 01:00:00,2016-11-27 17:07:36,1587000/65f276124f7f7906cd9ee852e7069462-g.jpg,,
29683341,Русские хроники 10 века,,,,Коломийцев A.П.,2014,,Союз писателей,,,328,Russian,,,,978-5-00073-061-4,,,,,,,,,,,0,,,,,,0,1,7006036,pdf,b848b558be583592be6322d33ceb2b04,,,Коломийцев A.П.;Русские хроники 10 века;;;Союз писателей;2014;978-5-00073-061-4;;Russian,0,2000-01-01 01:00:00,2016-11-27 17:07:36,1587000/b848b558be583592be6322d33ceb2b04-g.jpg,,
29683342,Задачник по химии. 8 класс,,,,"Кузнецова Н.Е., Лёвкин А.Н.",2012,,Вентана-Граф,,,129,Russian,,,,978-5-360-03211-3,,,,,,,,,,,0,,,,,,0,1,6882385,pdf,b1a44db550c9190fce8657258123964f,,,"Кузнецова Н.Е., Лёвкин А.Н.;Задачник по химии. 8 класс;;;Вентана-Граф;2012;978-5-360-03211-3;;Russian",0,2000-01-01 01:00:00,2016-11-27 17:07:36,1587000/b1a44db550c9190fce8657258123964f-g.jpg,,
29683343,Домашняя работа по алгебре за 10 кл. к учебнику Ш.А. Алимова и др. «Алгебра и начала математического анализа. 10-11 кл.»,,,,"Лаппо Л.Д., Морозов А.В.",2014,,«Экзамен»,,,225,Russian,,,,978-5-377-06376-6,,,,,,,,,,,0,,,,,,0,0,6219744,pdf,362c9df208f42b0450ffc1ecd8f6f411,,,"Лаппо Л.Д., Морозов А.В.;Домашняя работа по алгебре за 10 кл. к учебнику Ш.А. Алимова и др. «Алгебра и начала математического анализа. 10-11 кл.»;;;«Экзамен»;2014;978-5-377-06376-6;;Russian",0,2000-01-01 01:00:00,2016-11-27 17:07:36,1587000/362c9df208f42b0450ffc1ecd8f6f411-g.jpg,,
29683344,Домашняя работа по алгебре за 9 класс к учебнику Ш.А. Алимова и др. «Алгебра. 9 класс  учеб. для общеобразоват. учреждений»,,,,Морозов Л.В.,2012,,«Экзамен»,,,192,Russian,,,,978-5-377-04723-0,,,,,,,,,,,0,,,,,,0,0,5967160,pdf,872264465209e7725a99856ad47105cb,,,Морозов Л.В.;Домашняя работа по алгебре за 9 класс к учебнику Ш.А. Алимова и др. «Алгебра. 9 класс  учеб. для общеобразоват. учреждений»;;;«Экзамен»;2012;978-5-377-04723-0;;Russian,0,2000-01-01 01:00:00,2016-11-27 17:07:36,1587000/872264465209e7725a99856ad47105cb-g.jpg,,
29683345,Микрофлора тундровых почв  Эколого-географические особенности и продуктивность,,,,Паринкина О. М.,1989,,Наука,,,266,Russian,,,,5-02-026622-1,,,,,,,,,,,0,,,,,,0,1,6249348,djvu,387ee73c063ca56ae90da7926c0af20e,,,Паринкина О. М.;Микрофлора тундровых почв  Эколого-географические особенности и продуктивность;;;Наука;  1989;5-02-026622-1;;Russian,0,2000-01-01 01:00:00,2016-11-27 17:07:36,1587000/387ee73c063ca56ae90da7926c0af20e-g.jpg,,
29683346,2002 задачи по физике,,,,"Рыбалка А.И., Кибец И.Н., Шкляревский И.О.",2003,,Фолио,,,393,Russian,,,,966-03-2099-X,,,,,,,,,,,0,,,,,,0,0,148443372,pdf,c13c363eb9c9d8168cda6c49999c14c0,,,"Рыбалка А.И., Кибец И.Н., Шкляревский И.О.;2002 задачи по физике;;;Фолио;2003;966-03-2099-X;;Russian",0,2000-01-01 01:00:00,2016-11-27 17:07:36,1587000/c13c363eb9c9d8168cda6c49999c14c0-g.jpg,,
29683347,Защита цветочно-декоративных растений от вредителей. Справочник,,,,"Терезникова Е.М., Чумак П.Я.",1989,,Агропромиздат,,,130,Russian,,,,5-10-000889-X,,,,,,,,,,,0,,,,,,0,1,6093680,pdf,b0f725a19260efc08c134a359eae8a29,,,"Терезникова Е.М., Чумак П.Я.;Защита цветочно-декоративных растений от вредителей. Справочник;;;Агропромиздат;1989;5-10-000889-X;;Russian",0,2000-01-01 01:00:00,2016-11-27 17:07:36,1587000/b0f725a19260efc08c134a359eae8a29-g.jpg,,
29683348,Красная книга Камчатки. Животные,Том 1,,,Токранов А.М.(ред.),2006,,Камчатский печатный двор. Книжное изд-во,,,272,Russian,,,,5-85857-081-X,,,,,,,,,,,0,,,,,,0,1,6126068,pdf,c9f1c38e6c4408a7b5ca2c21facdfa53,,,Токранов А.М.(ред.);Красная книга Камчатки. Животные;;Том 1;Камчатский печатный двор. Книжное изд-во;2006;5-85857-081-X;;Russian,0,2000-01-01 01:00:00,2016-11-27 17:07:36,1587000/c9f1c38e6c4408a7b5ca2c21facdfa53-g.jpg,,
29683349,"Золотой ключик, или Приключения Буратино",,Школьная библиотека,,Толстой А.Н.,2012,,Самовар,,,136,Russian,,,,978-5-9781-0466-0,,,,,,,,,,,0,,,,,,0,0,141693787,pdf,8fc72a82ddb913bc85330def666cf14b,,,"Толстой А.Н.;Золотой ключик, или Приключения Буратино;Школьная библиотека;;Самовар;2012;978-5-9781-0466-0;;Russian",0,2000-01-01 01:00:00,2016-11-27 17:07:36,1587000/8fc72a82ddb913bc85330def666cf14b-g.jpg,,
29683350,Тренажер по физике для подготовки к централизованному тестированию и экзамену,,,,"Трофименко Е.Е., Шеденков С.И.",2012,,ТетраСистемс,,,241,Russian,,,,978-985-536-264-8,,,,,,,,,,,0,,,,,,0,0,6600009,pdf,95b68805a0af69ed3e7f13f79ec3ef12,,,"Трофименко Е.Е., Шеденков С.И.;Тренажер по физике для подготовки к централизованному тестированию и экзамену;;;ТетраСистемс;2012;978-985-536-264-8;;Russian",0,2000-01-01 01:00:00,2016-11-27 17:07:36,1587000/95b68805a0af69ed3e7f13f79ec3ef12-g.jpg,,
29683351,Общая и неорганическая химия,,,,Угай Я.А.,2000,,Высшая школа,,,529,Russian,,,,5-06-003751-7,,,,,,,,,,,0,,,,,,0,0,7160442,djvu,1f30fdfaf87bdc62b889429a3f3475a0,,,Угай Я.А.;Общая и неорганическая химия  ;;;Высшая школа;2000;5-06-003751-7;;Russian,0,2000-01-01 01:00:00,2016-11-27 17:07:36,1587000/1f30fdfaf87bdc62b889429a3f3475a0-g.jpg,,
29683352,Основные понятия математики,,,,Уртенов Н.С.,2009,,Феникс,,,106,Russian,,,,978-5-222-14751-1,,,,,,,,,,,0,,,,,,0,1,5898269,pdf,6473171b1c1e64e83e56609fec572022,,,Уртенов Н.С.;Основные понятия математики;;;Феникс;2009;978-5-222-14751-1;;Russian,0,2000-01-01 01:00:00,2016-11-27 17:07:36,1587000/6473171b1c1e64e83e56609fec572022-g.jpg,,
29683353,Гарольд Храбрый,,Великие властители,,"Финкелыптейн, Б. Б.",2005,,Транзит книга,,,443,Russian,,,,5-17-026131-4,,,,,,,,,,,0,,,,,,0,1,6101861,djvu,21b204e06271135af2357a4d19231e3b,,,"Финкелыптейн, Б. Б.;Гарольд Храбрый;Великие властители;;Транзит книга;2005;5-17-026131-4;;Russian",0,2000-01-01 01:00:00,2016-11-27 17:07:36,1587000/21b204e06271135af2357a4d19231e3b-g.jpg,,
29683354,Задачи и упражнения по аналитической геометрии,,,,Цубербиллер О.Н.,2003,,Лань,,,167,Russian,,,,5-8114-0475-1,,,,,,,,,,,0,,,,,,0,1,6204296,djvu,3684a8c20b7b9d2a506f924129d04115,,,Цубербиллер О.Н.;Задачи и упражнения по аналитической геометрии;;;Лань;2003;5-8114-0475-1;;Russian,0,2000-01-01 01:00:00,2016-11-27 17:07:36,1587000/3684a8c20b7b9d2a506f924129d04115-g.jpg,,
29683355,Ландшафты и землеустройство,,,,"Чупахин В.М., Андриишин М.В.",1989,,Агропромиздат,,,167,Russian,,,,5-10-000250-6,,,,,,,,,,,0,,,,,,0,1,6585059,djvu,a75d21a5dc78614ab23cde4bec110a53,,,"Чупахин В.М., Андриишин М.В.;Ландшафты и землеустройство;;;Агропромиздат; 1989;5-10-000250-6;;Russian",0,2000-01-01 01:00:00,2016-11-27 17:07:36,1587000/a75d21a5dc78614ab23cde4bec110a53-g.jpg,,
29683356,Физиология высшей нервной деятельности с основами нейробиологии,,,,Шульговский В.В.,2008,,Академия,,,526,Russian,,,,978-5-7695-5092-8,,,,,,,,,,,0,,,,,,0,0,6622582,djvu,98bd18a8401e82f821ad8cde264e13f6,,,Шульговский В.В.;Физиология высшей нервной деятельности с основами нейробиологии;;;Академия;2008;978-5-7695-5092-8;;Russian,0,2000-01-01 01:00:00,2016-11-27 17:07:36,1587000/98bd18a8401e82f821ad8cde264e13f6-g.jpg,,
29683357,Домашняя работа по алгебре за 8 класс к учебнику С.М. Никольского и др. «Алгебра. 8 класс  учеб. для общеобразоват. учреждений»,,,,Шульцева О.В.,2013,,«Экзамен»,,,320,Russian,,,,978-5-377-05965-3,,,,,,,,,,,0,,,,,,0,0,5978023,pdf,813acb6094581cf13441c7a1d7cc81f9,,,Шульцева О.В.;Домашняя работа по алгебре за 8 класс к учебнику С.М. Никольского и др. «Алгебра. 8 класс  учеб. для общеобразоват. учреждений»;;;«Экзамен»;2013;978-5-377-05965-3;;Russian,0,2000-01-01 01:00:00,2016-11-27 17:07:36,1587000/813acb6094581cf13441c7a1d7cc81f9-g.jpg,,
29683358,Аналитический метод решения краевых задач,,,,Якимов А.С.,2011,,Изд-во Том. ун-та,,,200,Russian,,,,978-5-7511-2021-4,,,,,,,,,,,0,,,,,,0,1,6686219,pdf,95b7775e88215d4a5913d43ccfe09e61,,,Якимов А.С.;Аналитический метод решения краевых задач;;;Изд-во Том. ун-та;2011;978-5-7511-2021-4;;Russian,0,2000-01-01 01:00:00,2016-11-27 17:07:36,1587000/95b7775e88215d4a5913d43ccfe09e61-g.jpg,,
29683359,The Lichen Symbiosis,,,,Vernon Ahmadjian,1967,,BLAISDELL PUBLISHING COMPANY,,80,80,English,12,,0,,,,,,,,,,,,300,0,0,0,1,1,0,1,52351402,pdf,1216e6ce55b403391c878a72d1de4e99,,,Lichen symbiosis Ahamadjian 1967.pdf,0,2000-01-01 01:00:00,2016-11-27 17:10:42,,"Lichen, Symbiosis",
29683360,The Oxford Handbook of Continental Philosophy,,Oxford Handbooks,,"Brian Leiter, Michael Rosen",2008,1,Oxford University Press,,800,852,English,,,0,"0199234094,9780199234097",,,,,,,,,,pdf from online version,0,,,,,,1,1,3708997,pdf,599a3042dcbf18e45e7c39e6497cac45,,,9780199234097 The Oxford Handbook of Continental Philosophy.pdf,0,2000-01-01 01:00:00,2016-11-27 17:26:50,http://ecx.images-amazon.com/images/I/41FkSgI9VPL.jpg,"European;British & Irish;Eastern;French;German;Italian;Scandinavian;Spanish & Portuguese;World Literature;Literature & Fiction;History & Surveys;Philosophy;Politics & Social Sciences;Modern;Philosophy;Politics & Social Sciences;European;World Literature;Literature;Humanities;New, Used & Rental Textbooks;Specialty Boutique;History & Surveys;Philosophy;Humanities;New, Used & Rental Textbooks;Specialty Boutique","0199234094,9780199234097"
29683361,Dynamics of Rotating Machines,,Cambridge Aerospace Series,,"Michael I. Friswell, John E. T. Penny, Seamus D. Garvey, Arthur W. Lees",2010,1,Cambridge University Press,,544,542,English,,,0,"0521850169,9780521850162",,,,,,,,,,,0,,,,,,,1,31274479,pdf,c2a630d817ee02f4fe04408b3263cf40,,,Dynamics of Rotating Machines.pdf,0,2000-01-01 01:00:00,2016-11-27 17:26:57,http://ecx.images-amazon.com/images/I/4136xxTynuL.jpg,"Aerospace;Aerodynamics;Aircraft Design & Construction;Astronautics & Space Flight;Avionics;Gas Dynamics;Propulsion Technology;Engineering;Engineering & Transportation;Mechanical;Drafting & Mechanical Drawing;Fluid Dynamics;Fracture Mechanics;Hydraulics;Machinery;Robotics & Automation;Tribology;Welding;Engineering;Engineering & Transportation;Aeronautics & Astronautics;Astronomy & Space Science;Science & Math;Aeronautical Engineering;Engineering;New, Used & Rental Textbooks;Specialty Boutique;Mec","0521850169,9780521850162"
29683362,The Oxford Handbook of Contemporary Philosophy,,Oxford Handbooks,,"Frank Jackson, Michael Smith",2008,1,Oxford University Press,,918,1059,English,,,0,"0199234760,9780199234769",,,,,,,,,,pdf from online version,0,,,,0,,1,1,4653156,pdf,31d826e3a1eb230321cedcdc18e16c5d,,,9780199234769 Oxford Handbook of Contemporary Philosophy.pdf,0,2000-01-01 01:00:00,2016-11-27 17:29:38,http://ecx.images-amazon.com/images/I/51TZXlxTzwL.jpg,"History;Africa;Americas;Arctic & Antarctica;Asia;Australia & Oceania;Europe;Middle East;Russia;United States;World;Ancient Civilizations;Military;Historical Study & Educational Resources;Philosophy;Law;Ethics & Morality;Philosophy;Politics & Social Sciences;Modern;Philosophy;Politics & Social Sciences;Reference;Philosophy;Politics & Social Sciences;Ethics;Philosophy;Humanities;New, Used & Rental Textbooks;Specialty Boutique;History & Surveys;Philosophy;Humanities;New, Used & Rental Textbooks;Spe","0199234760,9780199234769"
29683363,Handbook of Rotordynamics,,,,Fredric F. Ehrich,1998,Rev,Krieger Pub Co,,472,470,English,,,0,"1575240882,9781575240886",,,,,,,,,,,0,,,,,,,1,13261160,pdf,17a2613d02364467b3907b1956479582,,,Handbook of rotordynamics.pdf,0,2000-01-01 01:00:00,2016-11-27 17:34:37,,"Machinery;Mechanical;Engineering;Engineering & Transportation;New, Used & Rental Textbooks;Business & Finance;Communication & Journalism;Computer Science;Education;Engineering;Humanities;Law;Medicine & Health Sciences;Reference;Science & Mathematics;Social Sciences;Test Prep & Study Guides;Specialty Boutique","1575240882,9781575240886"
29683364,Ph Measurements,,,,C. Clark Westcott,1978,,Academic Press,,172,0,English,,,0,"0127451501,9780127451503",,,,,,,,,,,0,,,,1,,1,1,13948271,pdf,aa0ca2ed548c0d92952cb27a87ecdc18,,,0-12-745150-1 pH Measurements.pdf,0,2000-01-01 01:00:00,2016-11-27 17:41:05,http://ecx.images-amazon.com/images/I/31wfRZ4NtnL.jpg,,"0127451501,9780127451503"
29683365,Distributors at Work,,expository notes,,Jean Bénabou,2015,version 25 Apr 2015,,,28,28,English,,,0,,,,,,,,,,,Downloaded from http://www.mathematik.tu-darmstadt.de/~streicher/FIBR/DiWo.pdf,0,,,,,,,1,401411,pdf,f5fb9f74b331f510e624701aafcc3ffe,,,benabou - distributors at work - DiWo.pdf,0,2000-01-01 01:00:00,2016-11-27 17:50:19,,,
29683366,Lukiani - vepra te zgjedhura,,,,Lukiani,1979,,Naim Frasheri,Tirane,510,510,Albanian,,,0,,,,,,,,,,,,0,,1,0,1,1,,0,13225440,pdf,c72e4ec6d80474aadb5295ff5df10d18,,,LUKIANI - ST.pdf,0,2000-01-01 01:00:00,2016-11-27 18:04:31,,,
29683367,Театрал,,,,Греч Н.И.,1853,,Типография Н. Греча,,,162,Russian,,,,-,,,,,,,,,,,0,,,,,,0,1,37959134,pdf,25c2fd4d768b164089e605624a96fb6a,,,Греч Н.И.;Театрал;;;Типография Н. Греча;1853;-;;Russian,0,2000-01-01 01:00:00,2016-11-27 18:07:36,1573000/25c2fd4d768b164089e605624a96fb6a-g.jpg,,
29683368,Иллюстрированный практический путеводитель по Одессе,,,,Москвич Г.Г.,1904,,Типография Л. Нитче (Одесса),,,193,Russian,,,,-,,,,,,,,,,,0,,,,,,0,1,114294202,pdf,6056c19c1332a4c10e4a7a718155860f,,,Москвич Г.Г.;Иллюстрированный практический путеводитель по Одессе;;;Типография Л. Нитче (Одесса);1904;-;;Russian,0,2000-01-01 01:00:00,2016-11-27 18:07:36,1577000/6056c19c1332a4c10e4a7a718155860f-g.jpg,,
29683369,«Отчизну сердцем защитили»  Стихи поэтов Тейковского района,,,,,2011,,"ОАО «Издательство «Иваново»,",,,64,Russian,,,,-,,,,,,,,,,,0,,,,,,0,1,2010197,pdf,ca229279281b8a331bc80b0e6cfa53f2,,,";«Отчизну сердцем защитили»  Стихи поэтов Тейковского района;;;ОАО «Издательство «Иваново»,;2011;-;;Russian",0,2000-01-01 01:00:00,2016-11-27 18:07:36,1585000/ca229279281b8a331bc80b0e6cfa53f2-g.jpg,,
29683370,Recettes Angéliques. Le bœuf: Le goût d’être ensemble,,,,(Collective),2012,,INTERBEV,,0,32,French,,,0,-,,,,,,,,,,,0,,,,,,0,1,3164060,pdf,be017384eb788f84803d6cf2728a3a68,,,;Recettes Angliques. Le boeuf Le got d’tre ensemble;;;INTERBEV;2012;-;;French,0,2000-01-01 01:00:00,2016-11-27 18:07:36,1585000/be017384eb788f84803d6cf2728a3a68-g.jpg,,
29683371,A World Of Animals Vol. 2,,Painting- Animals,,Ana Bernabe,2002,,Viking folk Art,,,60,English,,,,-,,,,,,,,,,,0,,,,,,0,0,50405079,pdf,857f613ba692b86d043d09c24061c24a,,,Ana Bernabe;A World Of Animals Vol. 2;Painting- Animals;;Viking folk Art;2002;-;;English,0,2000-01-01 01:00:00,2016-11-27 18:07:36,1585000/857f613ba692b86d043d09c24061c24a-g.jpg,,
29683372,A World Of Animals Vol. 3,,Painting- Animals,,Ana Bernabe,2003,,Viking folk Art,,,65,English,,,,-,,,,,,,,,,,0,,,,,,0,0,46544505,pdf,d2dbe9b1e95bf109a85cf033d923f5a2,,,Ana Bernabe;A World Of Animals Vol. 3;Painting- Animals;;Viking folk Art;2003;-;;English,0,2000-01-01 01:00:00,2016-11-27 18:07:36,1585000/d2dbe9b1e95bf109a85cf033d923f5a2-g.jpg,,
29683373,20 Easy DIY Holiday Craft,,,,Collective,2015,,FloraCraft,,0,58,English,,,0,-,,,,,,,,,,,0,,,,,,0,1,19194778,pdf,b5d1f6e32d9acffad14ecfb28dac3ac6,,,"Collective;20 Easy DIY Holiday Craft;;;FloraCraft, Prime Publishing LLC;2015;-;;English",0,2000-01-01 01:00:00,2016-11-27 18:07:36,1585000/b5d1f6e32d9acffad14ecfb28dac3ac6-g.jpg,,
29683374,The LEGO® Technic Idea Book: Wheeled Wonders,,,,Yoshihito Isogawa,0,,No Starch Press,,146,146,English,183,,0,,,,,,,,,,,,0,,,,,,,1,41703263,pdf,b76d8db31bd07229d80c7fb2678da270,,,The LEGO Technic Idea Book - Wheeled Wonders 2.pdf,0,2000-01-01 01:00:00,2016-11-27 18:16:59,,,
29683375,The LEGO® Technic Idea Book: Wheeled Wonders,,,,Yoshihito Isogawa,0,,No Starch Press,,146,146,English,183,,0,,,,,,,,,,,,0,,,,,,,1,41703263,pdf,b76d8db31bd07229d80c7fb2678da270,,,The LEGO Technic Idea Book - Wheeled Wonders 2.pdf,0,2000-01-01 01:00:00,2016-11-27 18:18:46,1587000/b76d8db31bd07229d80c7fb2678da270-g.jpg,,
29683376,The LEGO® Technic Idea Book: Wheeled Wonders,,,,Yoshihito Isogawa,2011,,No Starch Press,,146,146,English,183,,0,,,,,,,,,,,,0,,,,,,,1,41703263,pdf,b76d8db31bd07229d80c7fb2678da270,,,The LEGO Technic Idea Book - Wheeled Wonders 2.pdf,0,2000-01-01 01:00:00,2016-11-27 18:19:12,1587000/b76d8db31bd07229d80c7fb2678da270-g.jpg,,
29683377,The LEGO Technic Idea Book: Fantastic contraptions,,,,Yoshihito Isogawa,2011,,,,180,180,English,183,,0,,,,,,,,,,,,0,,,,,,,1,50249299,pdf,db0c74d5dd14096c11dabf5725aed303,,,The LEGO Technic Idea Book - Fantastic Contraptions 3.pdf,0,2000-01-01 01:00:00,2016-11-27 18:22:55,,,
29683378,The LEGO Technic Idea Book: Fantastic contraptions,,,,Yoshihito Isogawa,2011,,,,180,180,English,183,,0,,,,,,,,,,,,0,,,,,,,1,50249299,pdf,db0c74d5dd14096c11dabf5725aed303,,,The LEGO Technic Idea Book - Fantastic Contraptions 3.pdf,0,2000-01-01 01:00:00,2016-11-27 18:25:02,1587000/db0c74d5dd14096c11dabf5725aed303-g.jpg,,
29683379,"The LEGO Power Functions Idea Book, Vol. 2: Cars and Contraptions",,,,Yoshihito Isogawa,2015,,No Starch Press,,328,328,English,183,,0,,,,,,,,,,,,0,,,,,,,1,83004750,pdf,2c994e2f3bb93cb4b355babecc622708,,,"Isogawa Y. - The LEGO Power Functions Idea Book, Vol. 2. Cars and Contraptions - 2016.pdf",0,2000-01-01 01:00:00,2016-11-27 18:42:18,,,
29683380,The LEGO Technic Idea Book: Wheeled Wonders,,,,Yoshihito Isogawa,2011,,No Starch Press,,146,146,English,183,,0,,,,,,,,,,,,0,,,,,,,1,41703263,pdf,b76d8db31bd07229d80c7fb2678da270,,,The LEGO Technic Idea Book - Wheeled Wonders 2.pdf,0,2000-01-01 01:00:00,2016-11-27 18:43:04,1587000/b76d8db31bd07229d80c7fb2678da270-g.jpg,,
29683381,"The LEGO Power Functions Idea Book, Vol. 2: Cars and Contraptions",,,,Yoshihito Isogawa,2015,,No Starch Press,,328,328,English,183,,0,,,,,,,,,,,,0,,,,,,,1,83004750,pdf,2c994e2f3bb93cb4b355babecc622708,,,"Isogawa Y. - The LEGO Power Functions Idea Book, Vol. 2. Cars and Contraptions - 2016.pdf",0,2000-01-01 01:00:00,2016-11-27 18:44:29,1587000/2c994e2f3bb93cb4b355babecc622708-g.jpg,,
29683382,The LEGO Power Functions Idea Book: Cars and Contraptions,2,,,Yoshihito Isogawa,2015,,No Starch Press,,328,328,English,183,,0,,,,,,,,,,,,0,,,,,,,1,83004750,pdf,2c994e2f3bb93cb4b355babecc622708,,,"Isogawa Y. - The LEGO Power Functions Idea Book, Vol. 2. Cars and Contraptions - 2016.pdf",0,2000-01-01 01:00:00,2016-11-27 18:45:08,1587000/2c994e2f3bb93cb4b355babecc622708-g.jpg,,
29683383,Театрал,,,,Греч Н.И.,1853,,Типография Н. Греча,,,162,Russian,,,,-,,,,,,,,,,,0,,,,,,0,1,37959134,pdf,25c2fd4d768b164089e605624a96fb6a,,,Греч Н.И.;Театрал;;;Типография Н. Греча;1853;-;;Russian,0,2000-01-01 01:00:00,2016-11-27 19:07:36,1573000/25c2fd4d768b164089e605624a96fb6a-g.jpg,,
29683384,Иллюстрированный практический путеводитель по Одессе,,,,Москвич Г.Г.,1904,,Типография Л. Нитче (Одесса),,,193,Russian,,,,-,,,,,,,,,,,0,,,,,,0,1,114294202,pdf,6056c19c1332a4c10e4a7a718155860f,,,Москвич Г.Г.;Иллюстрированный практический путеводитель по Одессе;;;Типография Л. Нитче (Одесса);1904;-;;Russian,0,2000-01-01 01:00:00,2016-11-27 19:07:36,1577000/6056c19c1332a4c10e4a7a718155860f-g.jpg,,
29683385,«Отчизну сердцем защитили»  Стихи поэтов Тейковского района,,,,,2011,,"ОАО «Издательство «Иваново»,",,,64,Russian,,,,-,,,,,,,,,,,0,,,,,,0,1,2010197,pdf,ca229279281b8a331bc80b0e6cfa53f2,,,";«Отчизну сердцем защитили»  Стихи поэтов Тейковского района;;;ОАО «Издательство «Иваново»,;2011;-;;Russian",0,2000-01-01 01:00:00,2016-11-27 19:07:36,1585000/ca229279281b8a331bc80b0e6cfa53f2-g.jpg,,
29683386,Recettes Angéliques. Le bœuf: Le goût d’être ensemble,,,,(Collective),2012,,INTERBEV,,0,32,French,,,0,-,,,,,,,,,,,0,,,,,,0,1,3164060,pdf,be017384eb788f84803d6cf2728a3a68,,,;Recettes Angliques. Le boeuf Le got d’tre ensemble;;;INTERBEV;2012;-;;French,0,2000-01-01 01:00:00,2016-11-27 19:07:36,1585000/be017384eb788f84803d6cf2728a3a68-g.jpg,,
29683387,A World Of Animals Vol. 2,,Painting- Animals,,Ana Bernabe,2002,,Viking folk Art,,,60,English,,,,-,,,,,,,,,,,0,,,,,,0,0,50405079,pdf,857f613ba692b86d043d09c24061c24a,,,Ana Bernabe;A World Of Animals Vol. 2;Painting- Animals;;Viking folk Art;2002;-;;English,0,2000-01-01 01:00:00,2016-11-27 19:07:36,1585000/857f613ba692b86d043d09c24061c24a-g.jpg,,
29683388,A World Of Animals Vol. 3,,Painting- Animals,,Ana Bernabe,2003,,Viking folk Art,,,65,English,,,,-,,,,,,,,,,,0,,,,,,0,0,46544505,pdf,d2dbe9b1e95bf109a85cf033d923f5a2,,,Ana Bernabe;A World Of Animals Vol. 3;Painting- Animals;;Viking folk Art;2003;-;;English,0,2000-01-01 01:00:00,2016-11-27 19:07:36,1585000/d2dbe9b1e95bf109a85cf033d923f5a2-g.jpg,,
29683389,20 Easy DIY Holiday Craft,,,,Collective,2015,,FloraCraft,,0,58,English,,,0,-,,,,,,,,,,,0,,,,,,0,1,19194778,pdf,b5d1f6e32d9acffad14ecfb28dac3ac6,,,"Collective;20 Easy DIY Holiday Craft;;;FloraCraft, Prime Publishing LLC;2015;-;;English",0,2000-01-01 01:00:00,2016-11-27 19:07:36,1585000/b5d1f6e32d9acffad14ecfb28dac3ac6-g.jpg,,
29683390,Рассказы и сказки о животных,,Все лучшие сказки,,"Бианки В.В., Паустовский К.Г., Пришвин М.М., Сахарнов С.В., Скребицкий Г.А., Сладков Н.И.",2013,,Росмэн,,,152,Russian,,,,978-5-353-05877-9,,,,,,,,,,,0,,,,,,0,0,132366188,pdf,05f63c9b869bce299430c651a843df87,,,"Бианки В.В., Паустовский К.Г., Пришвин М.М., Сахарнов С.В., Скребицкий Г.А., Сладков Н.И.;Рассказы и сказки о животных;Все лучшие сказки;;Росмэн;2013;978-5-353-05877-9;;Russian",0,2000-01-01 01:00:00,2016-11-27 19:07:36,1587000/05f63c9b869bce299430c651a843df87-g.jpg,,
29683391,Не служил бы я на флоте… II,,,,Бойко В.Н.,2014,,СПД Бакулин В.А.,,,223,Russian,,,,978-617-7091-02-7,,,,,,,,,,,0,,,,,,0,1,8630245,pdf,2bf6ee67ca5e4109c58378cbf43bc3f0,,,Бойко В.Н.;Не служил бы я на флоте… II;;;СПД Бакулин В.А.;2014;978-617-7091-02-7;;Russian,0,2000-01-01 01:00:00,2016-11-27 19:07:36,1587000/2bf6ee67ca5e4109c58378cbf43bc3f0-g.jpg,,
29683392,Визит к минотавру,,,,"Вайнер А., Вайнер Г.",2000,,«Издательство АСТ»,,,415,Russian,,,,5-17-001190-3,,,,,,,,,,,0,,,,,,0,1,7321693,djvu,ed692cd031de51abc4fe620c5408ad2e,,,"Вайнер А., Вайнер Г.;Визит к минотавру;;;«Издательство АСТ»;2000;5-17-001190-3;;Russian",0,2000-01-01 01:00:00,2016-11-27 19:07:36,1587000/ed692cd031de51abc4fe620c5408ad2e-g.jpg,,
29683393,Век Екатерины Великой,,,,Волгина София,2015,,Алетейя,,,352,Russian,,,,978-5-906823-16-8,,,,,,,,,,,0,,,,,,0,1,7446624,pdf,2a575f03d2dc0afc12f30ebccc97d85b,,,Волгина София;Век Екатерины Великой;;;Алетейя;2015;978-5-906823-16-8;;Russian,0,2000-01-01 01:00:00,2016-11-27 19:07:36,1587000/2a575f03d2dc0afc12f30ebccc97d85b-g.jpg,,
29683394,Собрание сочинений в пяти томах.,Том 3,,,Гранин Д.,1989,,"Худож. лит.,",,,658,Russian,,,,5-280-00863-X,,,,,,,,,,,0,,,,,,0,1,7868558,pdf,086c1d3c43dc07b1fd0d425805961085,,,"Гранин Д.;Собрание сочинений в пяти томах.;;Том 3;Худож. лит.,;1989;5-280-00863-X;;Russian",0,2000-01-01 01:00:00,2016-11-27 19:07:36,1587000/086c1d3c43dc07b1fd0d425805961085-g.jpg,,
29683395,Вредители и болезни сельскохозяйственных культур,,,,"Гриценко В.В., Стройков Ю.М., Третьяков Н.Н.",2008,,Академия,,,114,Russian,,,,978-5-7695-4109-4,,,,,,,,,,,0,,,,,,0,1,7905478,pdf,c474707f280be34b6b3518a76318765a,,,"Гриценко В.В., Стройков Ю.М., Третьяков Н.Н.;Вредители и болезни сельскохозяйственных культур;;;Академия;2008;978-5-7695-4109-4;;Russian",0,2000-01-01 01:00:00,2016-11-27 19:07:36,1587000/c474707f280be34b6b3518a76318765a-g.jpg,,
29683396,Жизнь и удивительные приключения морехода Робинзона Крузо,,Школьная библиотека,,Даниель Дефо,2013,,Самовар,,,224,Russian,,,,978-5-9781-0351-9,,,,,,,,,,,0,,,,,,0,0,132118667,pdf,e105cc7984b138149c767579c19a4c7b,,,Даниель Дефо;Жизнь и удивительные приключения морехода Робинзона Крузо;Школьная библиотека;;Самовар;2013;978-5-9781-0351-9;;Russian,0,2000-01-01 01:00:00,2016-11-27 19:07:36,1587000/e105cc7984b138149c767579c19a4c7b-g.jpg,,
29683397,Готовые домашние задания по химии. К учебнику О.С. Габриеляна Химия. 9 класс (Решебник-Шпаргалка),,,,Зайнулина Р.Г.,2003,,Экзамен,,,161,Russian,,,,5-94692-251-3,,,,,,,,,,,0,,,,,,0,1,8582913,pdf,2298330c1759a48017cd35b5e5479314,,,Зайнулина Р.Г.;Готовые домашние задания по химии. К учебнику О.С. Габриеляна Химия. 9 класс (Решебник-Шпаргалка);;;  Экзамен;2003;5-94692-251-3;;Russian,0,2000-01-01 01:00:00,2016-11-27 19:07:36,1587000/2298330c1759a48017cd35b5e5479314-g.jpg,,
29683398,"Химическая защита растений  средства, технология и экологическая безопасность",,,,Зинченко В.А.,2012,,КолосС,,,127,Russian,,,,978-5-9532-0816-1,,,,,,,,,,,0,,,,,,0,1,7888020,pdf,eb0ab84d1e673a812ae896d7a6ae7d89,,,"Зинченко В.А.;Химическая защита растений  средства, технология и экологическая безопасность;;;КолосС;2012;978-5-9532-0816-1;;Russian",0,2000-01-01 01:00:00,2016-11-27 19:07:36,1587000/eb0ab84d1e673a812ae896d7a6ae7d89-g.jpg,,
29683399,Частицы и атомные ядра,,,,"Ишханов Б.С., Капитонов И.М., Юдин Н.П.",2007,,Издательство ЛКИ,,,586,Russian,,,,978-5-382-00060-2,,,,,,,,,,,0,,,,,,0,0,8529165,pdf,73957e970d0180a7d7afc887a1397db6,,,"Ишханов Б.С., Капитонов И.М., Юдин Н.П.;Частицы и атомные ядра;;;  Издательство ЛКИ;2007;978-5-382-00060-2;;Russian",0,2000-01-01 01:00:00,2016-11-27 19:07:36,1587000/73957e970d0180a7d7afc887a1397db6-g.jpg,,
29683400,Домашняя работа по алгебре и началам математического анализа за 11 кл. к учебнику Ш.А. Алимова и др. «Алгебра и начала математического анализа. 10-11 кл.»,,,,"Кадеев А.А., Перфильева О.Г.",2014,,«Экзамен»,,,321,Russian,,,,978-5-377-06377-3,,,,,,,,,,,0,,,,,,0,0,8008839,pdf,2299b93b92ae0ee1ace5e66207ac4c8f,,,"Кадеев А.А., Перфильева О.Г.;Домашняя работа по алгебре и началам математического анализа за 11 кл. к учебнику Ш.А. Алимова и др. «Алгебра и начала математического анализа. 10-11 кл.»;;;«Экзамен»;2014;978-5-377-06377-3;;Russian",0,2000-01-01 01:00:00,2016-11-27 19:07:36,1587000/2299b93b92ae0ee1ace5e66207ac4c8f-g.jpg,,
29683401,Наташа. Новая повесть о Ходже Насреддине,,,,Климай А.П.,1994,,Зауралье,,,283,Russian,,,,5-87247-048-7,,,,,,,,,,,0,,,,,,0,1,7635715,pdf,eb7795f6b293f3dd0b407b0f08aaf635,,,Климай А.П.;Наташа. Новая повесть о Ходже Насреддине;;;Зауралье;1994;5-87247-048-7;;Russian,0,2000-01-01 01:00:00,2016-11-27 19:07:36,1587000/eb7795f6b293f3dd0b407b0f08aaf635-g.jpg,,
29683402,Нелинейные задачи гидродинамики,,,,Крайнов В.П.,1996,,МФТИ. Московский физико-технический институт,,,92,Russian,,,,5-7417-0014-4,,,,,,,,,,,0,,,,,,0,0,7499895,pdf,b61414971e72749a62514aa8de1214c9,,,Крайнов В.П.;Нелинейные задачи гидродинамики;;;МФТИ. Московский физико-технический институт;1996;5-7417-0014-4;;Russian,0,2000-01-01 01:00:00,2016-11-27 19:07:36,1587000/b61414971e72749a62514aa8de1214c9-g.jpg,,
29683403,Электромагнитные волны и оптика,,,,"Литвинов О.С., Горелик В.С.",2006,,МГТУ им. Н. Э. Баумана,,,448,Russian,,,,5-7038-2793-0,,,,,,,,,,,0,,,,,,0,0,8574446,pdf,496f98f9f06e3d77c3661519d92836b5,,,"Литвинов О.С., Горелик В.С.;Электромагнитные волны и оптика;;;МГТУ им. Н. Э. Баумана;    2006;5-7038-2793-0;;Russian",0,2000-01-01 01:00:00,2016-11-27 19:07:36,1588000/496f98f9f06e3d77c3661519d92836b5-g.jpg,,
29683404,"Теория шаровой расширяющейся Вселенной. Природа времени, движения и материи",,,,М. Х. Шульман,2003,,Едиториал УРСС,,,159,Russian,,,,5-354-00308-3,,,,,,,,,,,0,,,,,,0,1,7841443,pdf,5bb0c61e87bc6cdf5e1b851cfde3f6ab,,,"М. Х. Шульман;Теория шаровой расширяющейся Вселенной. Природа времени, движения и материи;;;Едиториал УРСС;    2003;5-354-00308-3;;Russian",0,2000-01-01 01:00:00,2016-11-27 19:07:36,1588000/5bb0c61e87bc6cdf5e1b851cfde3f6ab-g.jpg,,
29683405,Человек Инфу,,,,Мари Слип,2009,,Dizzaster,,,144,Russian,,,,978-5-904263-03-4,,,,,,,,,,,0,,,,,,0,0,132811848,pdf,fd5bb29208392d9c135b23e907aecef5,,,Мари Слип;Человек Инфу;;;Dizzaster;2009;978-5-904263-03-4;;Russian,0,2000-01-01 01:00:00,2016-11-27 19:07:36,1588000/fd5bb29208392d9c135b23e907aecef5-g.jpg,,
29683406,Тематические тесты по геометрии. 9 класс,,,,Мищенко Т.М.,2011,,АСТ  Астрель,,,144,Russian,,,,"978-5-17-074792-4, 987-5-271-36560-7, 978-5-226-04189-1",,,,,,,,,,,0,,,,,,0,0,7975261,pdf,a4be2ba26b64b8d4aa21c2d8ee215ce1,,,"Мищенко Т.М.;Тематические тесты по геометрии. 9 класс;;;  АСТ  Астрель;2011;978-5-17-074792-4, 987-5-271-36560-7, 978-5-226-04189-1;;Russian",0,2000-01-01 01:00:00,2016-11-27 19:07:36,1588000/a4be2ba26b64b8d4aa21c2d8ee215ce1-g.jpg,,
29683407,Tempo - 28 November 2016: Perang Digital Pilkada Jakarta,,,,Tempo,2016,,PT Tempo Inti Media,,152,152,Indonesian,,,0,,,,,,,,,,,,0,,,,,,,1,27613224,pdf,f6f049ee8de854449590d1e114abd7f6,,,Tempo-20161128_28November_Perang Digital Pilkada Jakarta.pdf,0,2000-01-01 01:00:00,2016-11-27 19:11:17,,,
29683408,Tempo - 28 November 2016: Perang Digital Pilkada Jakarta,,,,Tempo,2016,,PT Tempo Inti Media,,152,152,Indonesian,,,0,,,,,,,,,,,,0,,,,,,,1,27613224,pdf,f6f049ee8de854449590d1e114abd7f6,,,Tempo-20161128_28November_Perang Digital Pilkada Jakarta.pdf,0,2000-01-01 01:00:00,2016-11-27 19:11:47,1588000/f6f049ee8de854449590d1e114abd7f6-g.jpg,,
29683409,An Introduction to Pain and its relation to Nervous System Disorders,,,,Anna A. Battaglia,2016,1,Wiley,,436,422,English,,,0,"1118455975,9781118455975",,,,,,,,,,,0,,,,,,,1,5935951,pdf,d475ec3c621ca02758361fba37f0cc94,,,m6w6v.An.Introduction.to.Pain.and.its.relation.to.Nervous.System.Disorders.pdf,0,2000-01-01 01:00:00,2016-11-27 19:29:45,http://ecx.images-amazon.com/images/I/51sZ1jSGOlL.jpg,"Biology;Cell Biology;Developmental Biology;Entomology;Marine Biology;Microbiology;Molecular Biology;Biostatistics;Biological Sciences;Science & Math;Science & Mathematics;Agriculture;Astronomy & Astrophysics;Biology & Life Sciences;Chemistry;Earth Sciences;Environmental Studies;Mathematics;Mechanics;Physics;New, Used & Rental Textbooks;Specialty Boutique","1118455975,9781118455975"
29683410,Histori e Skenderbeut,,,,Naim Frasheri,1987,,Mihal Duri,Tirane,321,321,Albanian,108,,0,,,,,,,,,,,,0,,,0,1,1,,1,14222706,pdf,e160cf170d7f6ead9d82ce5255044bc2,,,Naim Frasheri - Histori e Skenderbeut.pdf,0,2000-01-01 01:00:00,2016-11-27 19:35:31,,,
29683411,Histori e Skenderbeut,,,,Naim Frasheri,1987,,Mihal Duri,Tirane,321,321,Albanian,108,,0,,,,,,,,,,,,0,,,0,1,1,,1,14222706,pdf,e160cf170d7f6ead9d82ce5255044bc2,,,Naim Frasheri - Histori e Skenderbeut.pdf,0,2000-01-01 01:00:00,2016-11-27 19:36:47,1588000/e160cf170d7f6ead9d82ce5255044bc2-g.jpg,,
29683412,"Nie tłumacz się, działaj! Odkryj moc samodyscypliny",,,,Brian Tracy,2011,,HELION,,0,0,Polish,,,0,978-83-246-2852-0,,,,,,,,,,,0,,,,,,,,15977848,rar,8d23df6fa2803f120991078b132422bd,,,"Brian tracy - Nie tłumacz się, działaj! Odkryj moc samodyscypliny (2011).rar",0,2000-01-01 01:00:00,2016-11-27 19:49:45,http://qrrro.com/images/2016/11/z9i6iy3w2h22gdqh02ie.jpg,samodyscyplina; poradnik; psychologia; rozwój osobisty,9788324628520
29683413,Театрал,,,,Греч Н.И.,1853,,Типография Н. Греча,,,162,Russian,,,,-,,,,,,,,,,,0,,,,,,0,1,37959134,pdf,25c2fd4d768b164089e605624a96fb6a,,,Греч Н.И.;Театрал;;;Типография Н. Греча;1853;-;;Russian,0,2000-01-01 01:00:00,2016-11-27 20:07:39,1573000/25c2fd4d768b164089e605624a96fb6a-g.jpg,,
29683414,Иллюстрированный практический путеводитель по Одессе,,,,Москвич Г.Г.,1904,,Типография Л. Нитче (Одесса),,,193,Russian,,,,-,,,,,,,,,,,0,,,,,,0,1,114294202,pdf,6056c19c1332a4c10e4a7a718155860f,,,Москвич Г.Г.;Иллюстрированный практический путеводитель по Одессе;;;Типография Л. Нитче (Одесса);1904;-;;Russian,0,2000-01-01 01:00:00,2016-11-27 20:07:39,1577000/6056c19c1332a4c10e4a7a718155860f-g.jpg,,
29683415,«Отчизну сердцем защитили»  Стихи поэтов Тейковского района,,,,,2011,,"ОАО «Издательство «Иваново»,",,,64,Russian,,,,-,,,,,,,,,,,0,,,,,,0,1,2010197,pdf,ca229279281b8a331bc80b0e6cfa53f2,,,";«Отчизну сердцем защитили»  Стихи поэтов Тейковского района;;;ОАО «Издательство «Иваново»,;2011;-;;Russian",0,2000-01-01 01:00:00,2016-11-27 20:07:39,1585000/ca229279281b8a331bc80b0e6cfa53f2-g.jpg,,
29683416,Recettes Angéliques. Le bœuf: Le goût d’être ensemble,,,,(Collective),2012,,INTERBEV,,0,32,French,,,0,-,,,,,,,,,,,0,,,,,,0,1,3164060,pdf,be017384eb788f84803d6cf2728a3a68,,,;Recettes Angliques. Le boeuf Le got d’tre ensemble;;;INTERBEV;2012;-;;French,0,2000-01-01 01:00:00,2016-11-27 20:07:39,1585000/be017384eb788f84803d6cf2728a3a68-g.jpg,,
29683417,A World Of Animals Vol. 2,,Painting- Animals,,Ana Bernabe,2002,,Viking folk Art,,,60,English,,,,-,,,,,,,,,,,0,,,,,,0,0,50405079,pdf,857f613ba692b86d043d09c24061c24a,,,Ana Bernabe;A World Of Animals Vol. 2;Painting- Animals;;Viking folk Art;2002;-;;English,0,2000-01-01 01:00:00,2016-11-27 20:07:39,1585000/857f613ba692b86d043d09c24061c24a-g.jpg,,
29683418,A World Of Animals Vol. 3,,Painting- Animals,,Ana Bernabe,2003,,Viking folk Art,,,65,English,,,,-,,,,,,,,,,,0,,,,,,0,0,46544505,pdf,d2dbe9b1e95bf109a85cf033d923f5a2,,,Ana Bernabe;A World Of Animals Vol. 3;Painting- Animals;;Viking folk Art;2003;-;;English,0,2000-01-01 01:00:00,2016-11-27 20:07:39,1585000/d2dbe9b1e95bf109a85cf033d923f5a2-g.jpg,,
29683419,20 Easy DIY Holiday Craft,,,,Collective,2015,,FloraCraft,,0,58,English,,,0,-,,,,,,,,,,,0,,,,,,0,1,19194778,pdf,b5d1f6e32d9acffad14ecfb28dac3ac6,,,"Collective;20 Easy DIY Holiday Craft;;;FloraCraft, Prime Publishing LLC;2015;-;;English",0,2000-01-01 01:00:00,2016-11-27 20:07:39,1585000/b5d1f6e32d9acffad14ecfb28dac3ac6-g.jpg,,
29683420,Меловой биоценотический кризис и эволюция насекомых,,,,Пономаренко Е.Г. (ред.),1988,,Наука,,,236,Russian,,,,5-02-004646-9,,,,,,,,,,,0,,,,,,0,1,7268393,pdf,06fb325b391386a912729bc8f7053c96,,,Пономаренко Е.Г. (ред.);Меловой биоценотический кризис и эволюция насекомых;;;Наука;1988;5-02-004646-9;;Russian,0,2000-01-01 01:00:00,2016-11-27 20:07:39,1588000/06fb325b391386a912729bc8f7053c96-g.jpg,,
29683421,Решение контрольных и самостоятельных работ по геометрии за 11 класс к пособию Б.Г. Зива «Дидактические материалы по геометрии для 11 класса»,,,,Рылов А.С.,2007,,«Экзамен»,,,193,Russian,,,,5-472-02506-0,,,,,,,,,,,0,,,,,,0,0,7469358,pdf,b153caca059064a4311d9e2b3ffa54a0,,,Рылов А.С.;Решение контрольных и самостоятельных работ по геометрии за 11 класс к пособию Б.Г. Зива «Дидактические материалы по геометрии для 11 класса»;;;«Экзамен»;2007;5-472-02506-0;;Russian,0,2000-01-01 01:00:00,2016-11-27 20:07:39,1588000/b153caca059064a4311d9e2b3ffa54a0-g.jpg,,
29683422,Treatise on Invertebrate Paleontology - Part T - Echinodermata 2,3,Treatise on Invertebrate Paleontology,,"Moore, Raymond C. & Teichert, Curt",1983,,The  University of Kansas,,218,218,English,24,,0,0-8137-3021-X,,,,,,,,,,,0,,,,,,,0,26304291,pdf,a7c693118f700df462cfbcf06369f082,,,Treatise on Invertebrate Paleontology - Part T - Echinodermata 2 volume 3 - Moore Ed (1978).pdf,0,2000-01-01 01:00:00,2016-11-27 20:49:43,,,081373021X
29683423,Театрал,,,,Греч Н.И.,1853,,Типография Н. Греча,,,162,Russian,,,,-,,,,,,,,,,,0,,,,,,0,1,37959134,pdf,25c2fd4d768b164089e605624a96fb6a,,,Греч Н.И.;Театрал;;;Типография Н. Греча;1853;-;;Russian,0,2000-01-01 01:00:00,2016-11-27 21:07:36,1573000/25c2fd4d768b164089e605624a96fb6a-g.jpg,,
29683424,Иллюстрированный практический путеводитель по Одессе,,,,Москвич Г.Г.,1904,,Типография Л. Нитче (Одесса),,,193,Russian,,,,-,,,,,,,,,,,0,,,,,,0,1,114294202,pdf,6056c19c1332a4c10e4a7a718155860f,,,Москвич Г.Г.;Иллюстрированный практический путеводитель по Одессе;;;Типография Л. Нитче (Одесса);1904;-;;Russian,0,2000-01-01 01:00:00,2016-11-27 21:07:36,1577000/6056c19c1332a4c10e4a7a718155860f-g.jpg,,
29683425,«Отчизну сердцем защитили»  Стихи поэтов Тейковского района,,,,,2011,,"ОАО «Издательство «Иваново»,",,,64,Russian,,,,-,,,,,,,,,,,0,,,,,,0,1,2010197,pdf,ca229279281b8a331bc80b0e6cfa53f2,,,";«Отчизну сердцем защитили»  Стихи поэтов Тейковского района;;;ОАО «Издательство «Иваново»,;2011;-;;Russian",0,2000-01-01 01:00:00,2016-11-27 21:07:36,1585000/ca229279281b8a331bc80b0e6cfa53f2-g.jpg,,
29683426,Recettes Angéliques. Le bœuf: Le goût d’être ensemble,,,,(Collective),2012,,INTERBEV,,0,32,French,,,0,-,,,,,,,,,,,0,,,,,,0,1,3164060,pdf,be017384eb788f84803d6cf2728a3a68,,,;Recettes Angliques. Le boeuf Le got d’tre ensemble;;;INTERBEV;2012;-;;French,0,2000-01-01 01:00:00,2016-11-27 21:07:36,1585000/be017384eb788f84803d6cf2728a3a68-g.jpg,,
29683427,A World Of Animals Vol. 2,,Painting- Animals,,Ana Bernabe,2002,,Viking folk Art,,,60,English,,,,-,,,,,,,,,,,0,,,,,,0,0,50405079,pdf,857f613ba692b86d043d09c24061c24a,,,Ana Bernabe;A World Of Animals Vol. 2;Painting- Animals;;Viking folk Art;2002;-;;English,0,2000-01-01 01:00:00,2016-11-27 21:07:36,1585000/857f613ba692b86d043d09c24061c24a-g.jpg,,
29683428,A World Of Animals Vol. 3,,Painting- Animals,,Ana Bernabe,2003,,Viking folk Art,,,65,English,,,,-,,,,,,,,,,,0,,,,,,0,0,46544505,pdf,d2dbe9b1e95bf109a85cf033d923f5a2,,,Ana Bernabe;A World Of Animals Vol. 3;Painting- Animals;;Viking folk Art;2003;-;;English,0,2000-01-01 01:00:00,2016-11-27 21:07:36,1585000/d2dbe9b1e95bf109a85cf033d923f5a2-g.jpg,,
29683429,20 Easy DIY Holiday Craft,,,,Collective,2015,,FloraCraft,,0,58,English,,,0,-,,,,,,,,,,,0,,,,,,0,1,19194778,pdf,b5d1f6e32d9acffad14ecfb28dac3ac6,,,"Collective;20 Easy DIY Holiday Craft;;;FloraCraft, Prime Publishing LLC;2015;-;;English",0,2000-01-01 01:00:00,2016-11-27 21:07:36,1585000/b5d1f6e32d9acffad14ecfb28dac3ac6-g.jpg,,
29683430,KAPITALI,,,,Karl Marks,1980,,8 Nentori,Tirane,481,0,Albanian,,,0,,,,,,,,,,,perkthyes Sami LEKA,0,,,0,1,1,,0,13506762,pdf,987fe049ae8ee14744f6c6185d476942,,,KAPITALI - ST.pdf,0,2000-01-01 01:00:00,2016-11-27 21:23:03,,,
29683431,Lukiani - vepra te zgjedhura,,,,Lukiani,1979,,Naim Frasheri,Tirane,510,510,Albanian,,,0,,,,,,,,,,,,0,,1,0,1,1,,0,13225440,pdf,c72e4ec6d80474aadb5295ff5df10d18,,,LUKIANI - ST.pdf,0,2000-01-01 01:00:00,2016-11-27 21:24:32,1587000/c72e4ec6d80474aadb5295ff5df10d18-g.jpg,,
29683432,KAPITALI,,,,Karl Marks,1980,,8 Nentori,Tirane,481,0,Albanian,,,0,,,,,,,,,,,perkthyes Sami LEKA,0,,,0,1,1,,0,13506762,pdf,987fe049ae8ee14744f6c6185d476942,,,KAPITALI - ST.pdf,0,2000-01-01 01:00:00,2016-11-27 21:25:34,1588000/987fe049ae8ee14744f6c6185d476942-g.jpg,,
29683433,KAPITALI (vëllimi i tretë),,,,Karl Marks,1980,,8 Nentori,Tirane,481,0,Albanian,,,0,,,,,,,,,,,perkthyes Sami LEKA,0,,,0,1,1,,0,13506762,pdf,987fe049ae8ee14744f6c6185d476942,,,KAPITALI - ST.pdf,0,2000-01-01 01:00:00,2016-11-27 21:26:18,1588000/987fe049ae8ee14744f6c6185d476942-g.jpg,,
29683434,Idiot’s Guides: Beginning Investing,,,,Danielle L. Schultz,2016,,Alpha,,336,338,English,,,0,"1615648836,9781615648832",,,,,,,,,,,0,,,,,,,1,10827274,pdf,4d10265ea3e0cc98f9355e08ccd6ac9c,,,Idiot_s Guides - Beginning Inve - Danielle L. Schultz.pdf,0,2000-01-01 01:00:00,2016-11-27 21:49:24,http://ecx.images-amazon.com/images/I/51QFtlCVTnL.jpg,Introduction;Investing;Business & Money,"1615648836,9781615648832"
29683435,Lukiani - vepra të zgjedhura,,,,Lukiani,1979,,Naim Frashëri,Tiranë,510,510,Albanian,,,0,,,,,,,,,,,përkthyes Bujar DOKO,0,,1,0,1,1,,0,13225440,pdf,c72e4ec6d80474aadb5295ff5df10d18,,,LUKIANI - ST.pdf,0,2000-01-01 01:00:00,2016-11-27 21:54:05,1587000/c72e4ec6d80474aadb5295ff5df10d18-g.jpg,shqip Bujar DOKO letërsi antike greke,
29683436,KAPITALI (vëllimi i tretë),,,,Karl Marks,1980,,8 Nëntori,Tiranë,481,0,Albanian,,,0,,,,,,,,,,,përkthyes Sami LEKA,0,,,0,1,1,,0,13506762,pdf,987fe049ae8ee14744f6c6185d476942,,,KAPITALI - ST.pdf,0,2000-01-01 01:00:00,2016-11-27 21:58:24,1588000/987fe049ae8ee14744f6c6185d476942-g.jpg,,
29683437,Театрал,,,,Греч Н.И.,1853,,Типография Н. Греча,,,162,Russian,,,,-,,,,,,,,,,,0,,,,,,0,1,37959134,pdf,25c2fd4d768b164089e605624a96fb6a,,,Греч Н.И.;Театрал;;;Типография Н. Греча;1853;-;;Russian,0,2000-01-01 01:00:00,2016-11-27 22:07:36,1573000/25c2fd4d768b164089e605624a96fb6a-g.jpg,,
29683438,Иллюстрированный практический путеводитель по Одессе,,,,Москвич Г.Г.,1904,,Типография Л. Нитче (Одесса),,,193,Russian,,,,-,,,,,,,,,,,0,,,,,,0,1,114294202,pdf,6056c19c1332a4c10e4a7a718155860f,,,Москвич Г.Г.;Иллюстрированный практический путеводитель по Одессе;;;Типография Л. Нитче (Одесса);1904;-;;Russian,0,2000-01-01 01:00:00,2016-11-27 22:07:36,1577000/6056c19c1332a4c10e4a7a718155860f-g.jpg,,
29683439,«Отчизну сердцем защитили»  Стихи поэтов Тейковского района,,,,,2011,,"ОАО «Издательство «Иваново»,",,,64,Russian,,,,-,,,,,,,,,,,0,,,,,,0,1,2010197,pdf,ca229279281b8a331bc80b0e6cfa53f2,,,";«Отчизну сердцем защитили»  Стихи поэтов Тейковского района;;;ОАО «Издательство «Иваново»,;2011;-;;Russian",0,2000-01-01 01:00:00,2016-11-27 22:07:36,1585000/ca229279281b8a331bc80b0e6cfa53f2-g.jpg,,
29683440,Recettes Angéliques. Le bœuf: Le goût d’être ensemble,,,,(Collective),2012,,INTERBEV,,0,32,French,,,0,-,,,,,,,,,,,0,,,,,,0,1,3164060,pdf,be017384eb788f84803d6cf2728a3a68,,,;Recettes Angliques. Le boeuf Le got d’tre ensemble;;;INTERBEV;2012;-;;French,0,2000-01-01 01:00:00,2016-11-27 22:07:36,1585000/be017384eb788f84803d6cf2728a3a68-g.jpg,,
29683441,A World Of Animals Vol. 2,,Painting- Animals,,Ana Bernabe,2002,,Viking folk Art,,,60,English,,,,-,,,,,,,,,,,0,,,,,,0,0,50405079,pdf,857f613ba692b86d043d09c24061c24a,,,Ana Bernabe;A World Of Animals Vol. 2;Painting- Animals;;Viking folk Art;2002;-;;English,0,2000-01-01 01:00:00,2016-11-27 22:07:36,1585000/857f613ba692b86d043d09c24061c24a-g.jpg,,
29683442,A World Of Animals Vol. 3,,Painting- Animals,,Ana Bernabe,2003,,Viking folk Art,,,65,English,,,,-,,,,,,,,,,,0,,,,,,0,0,46544505,pdf,d2dbe9b1e95bf109a85cf033d923f5a2,,,Ana Bernabe;A World Of Animals Vol. 3;Painting- Animals;;Viking folk Art;2003;-;;English,0,2000-01-01 01:00:00,2016-11-27 22:07:36,1585000/d2dbe9b1e95bf109a85cf033d923f5a2-g.jpg,,
29683443,20 Easy DIY Holiday Craft,,,,Collective,2015,,FloraCraft,,0,58,English,,,0,-,,,,,,,,,,,0,,,,,,0,1,19194778,pdf,b5d1f6e32d9acffad14ecfb28dac3ac6,,,"Collective;20 Easy DIY Holiday Craft;;;FloraCraft, Prime Publishing LLC;2015;-;;English",0,2000-01-01 01:00:00,2016-11-27 22:07:36,1585000/b5d1f6e32d9acffad14ecfb28dac3ac6-g.jpg,,
29683444,What Customers Crave: How to Create Relevant and Memorable Experiences at Every Touchpoint,,,,Nicholas J. Webb,2016,,AMACOM,,256,284,English,,,0,"0814437818,9780814437810",,,,,,,,,,,0,,,,,,,1,5273525,pdf,f9c1158daca4c0998cb5426129807676,,,What Customers Crave.pdf,0,2000-01-01 01:00:00,2016-11-27 22:37:21,http://ecx.images-amazon.com/images/I/41Y9Vsg3lLL.jpg,Marketing;Direct;Global;Industrial;Multilevel;Product Management;Research;Telemarketing;Web Marketing;Marketing & Sales;Business & Money;Customer Relations;Processes & Infrastructure;Business & Money;E-Commerce;Processes & Infrastructure;Business & Money;Web Marketing;Business Technology;Computers & Technology,"0814437818,9780814437810"
29683445,The Road,,,,Cormac McCarthy,2006,,Vintage Books,,353,0,English,103,,0,"9780307387899, 0307387895",,,,,,,,,,,0,,,,,,,,195620,epub,3e7d859eab09df607c2f113d5e383735,,,The Road - Cormac McCarthy.epub,0,2000-01-01 01:00:00,2016-11-27 23:00:45,,,"9780307387899,0307387895"
29683446,Театрал,,,,Греч Н.И.,1853,,Типография Н. Греча,,,162,Russian,,,,-,,,,,,,,,,,0,,,,,,0,1,37959134,pdf,25c2fd4d768b164089e605624a96fb6a,,,Греч Н.И.;Театрал;;;Типография Н. Греча;1853;-;;Russian,0,2000-01-01 01:00:00,2016-11-27 23:07:36,1573000/25c2fd4d768b164089e605624a96fb6a-g.jpg,,
29683447,Иллюстрированный практический путеводитель по Одессе,,,,Москвич Г.Г.,1904,,Типография Л. Нитче (Одесса),,,193,Russian,,,,-,,,,,,,,,,,0,,,,,,0,1,114294202,pdf,6056c19c1332a4c10e4a7a718155860f,,,Москвич Г.Г.;Иллюстрированный практический путеводитель по Одессе;;;Типография Л. Нитче (Одесса);1904;-;;Russian,0,2000-01-01 01:00:00,2016-11-27 23:07:36,1577000/6056c19c1332a4c10e4a7a718155860f-g.jpg,,
29683448,«Отчизну сердцем защитили»  Стихи поэтов Тейковского района,,,,,2011,,"ОАО «Издательство «Иваново»,",,,64,Russian,,,,-,,,,,,,,,,,0,,,,,,0,1,2010197,pdf,ca229279281b8a331bc80b0e6cfa53f2,,,";«Отчизну сердцем защитили»  Стихи поэтов Тейковского района;;;ОАО «Издательство «Иваново»,;2011;-;;Russian",0,2000-01-01 01:00:00,2016-11-27 23:07:36,1585000/ca229279281b8a331bc80b0e6cfa53f2-g.jpg,,
29683449,Recettes Angéliques. Le bœuf: Le goût d’être ensemble,,,,(Collective),2012,,INTERBEV,,0,32,French,,,0,-,,,,,,,,,,,0,,,,,,0,1,3164060,pdf,be017384eb788f84803d6cf2728a3a68,,,;Recettes Angliques. Le boeuf Le got d’tre ensemble;;;INTERBEV;2012;-;;French,0,2000-01-01 01:00:00,2016-11-27 23:07:36,1585000/be017384eb788f84803d6cf2728a3a68-g.jpg,,
29683450,A World Of Animals Vol. 2,,Painting- Animals,,Ana Bernabe,2002,,Viking folk Art,,,60,English,,,,-,,,,,,,,,,,0,,,,,,0,0,50405079,pdf,857f613ba692b86d043d09c24061c24a,,,Ana Bernabe;A World Of Animals Vol. 2;Painting- Animals;;Viking folk Art;2002;-;;English,0,2000-01-01 01:00:00,2016-11-27 23:07:36,1585000/857f613ba692b86d043d09c24061c24a-g.jpg,,
29683451,A World Of Animals Vol. 3,,Painting- Animals,,Ana Bernabe,2003,,Viking folk Art,,,65,English,,,,-,,,,,,,,,,,0,,,,,,0,0,46544505,pdf,d2dbe9b1e95bf109a85cf033d923f5a2,,,Ana Bernabe;A World Of Animals Vol. 3;Painting- Animals;;Viking folk Art;2003;-;;English,0,2000-01-01 01:00:00,2016-11-27 23:07:36,1585000/d2dbe9b1e95bf109a85cf033d923f5a2-g.jpg,,
29683452,20 Easy DIY Holiday Craft,,,,Collective,2015,,FloraCraft,,0,58,English,,,0,-,,,,,,,,,,,0,,,,,,0,1,19194778,pdf,b5d1f6e32d9acffad14ecfb28dac3ac6,,,"Collective;20 Easy DIY Holiday Craft;;;FloraCraft, Prime Publishing LLC;2015;-;;English",0,2000-01-01 01:00:00,2016-11-27 23:07:36,1585000/b5d1f6e32d9acffad14ecfb28dac3ac6-g.jpg,,
29683453,KAPITALI (vëllimi i tretë),III,,,Karl Marks,1980,,8 Nëntori,Tiranë,481,0,Albanian,,,0,,,,,,,,,,,përkthyes Sami LEKA,0,,,0,1,1,,0,13506762,pdf,987fe049ae8ee14744f6c6185d476942,,,KAPITALI - ST.pdf,0,2000-01-01 01:00:00,2016-11-27 23:17:05,1588000/987fe049ae8ee14744f6c6185d476942-g.jpg,,
29683454,Akte te Rilindjes Kombetare Shqiptare 1878-1912,,,,Stefanaq POLLO & Selami PULAHA,1978,,Akademia e Shkencave dhe Arteve e Shqiperise,Tirane,284,284,Albanian,64,,0,,,,,,,,,,,,0,,,0,1,1,,1,15623519,pdf,17c6f53752e78c539be635d9de307a25,,,Akte-Te-Rilindjes-Kombetare-Shqiptare-1878-1912 PDF-A.pdf,0,2000-01-01 01:00:00,2016-11-27 23:40:40,,historia shqiptare Rlindja Kombetare Shqiptare 1878 1912,
29683455,Akte te Rilindjes Kombetare Shqiptare 1878-1912,,,,Stefanaq POLLO & Selami PULAHA,1978,,Akademia e Shkencave dhe Arteve e Shqiperise,Tirane,284,284,Albanian,64,,0,,,,,,,,,,,,0,,,0,1,1,,1,15623519,pdf,17c6f53752e78c539be635d9de307a25,,,Akte-Te-Rilindjes-Kombetare-Shqiptare-1878-1912 PDF-A.pdf,0,2000-01-01 01:00:00,2016-11-27 23:41:48,1588000/17c6f53752e78c539be635d9de307a25-g.jpg,historia shqiptare Rlindja Kombetare Shqiptare 1878 1912,
29683456,Akte te Rilindjes Kombetare Shqiptare 1878-1912,,,,Stefanaq POLLO / Selami PULAHA,1978,,Akademia e Shkencave dhe Arteve e Shqiperise,Tirane,284,284,Albanian,64,,0,,,,,,,,,,,,0,,,0,1,1,,1,15623519,pdf,17c6f53752e78c539be635d9de307a25,,,Akte-Te-Rilindjes-Kombetare-Shqiptare-1878-1912 PDF-A.pdf,0,2000-01-01 01:00:00,2016-11-27 23:42:44,1588000/17c6f53752e78c539be635d9de307a25-g.jpg,historia shqiptare Rlindja Kombetare Shqiptare 1878 1912,
29683457,ALBANIA - Assambly of European Captive Nations,,,,Athanas GEGAJ and Rexhep KRASNIQI,1964,,Free Albania Comittee,New York,52,52,English,64,,0,,,,,,,,,,,,0,,,0,1,1,,1,3756641,pdf,62ea40daa07b435e8235ee15604b0603,,,Albania PDF-A.pdf,0,2000-01-01 01:00:00,2016-11-27 23:49:11,,,
29683458,ALBANIA - Assambly of European Captive Nations,,,,Athanas GEGAJ and Rexhep KRASNIQI,1964,,Free Albania Comittee,New York,52,52,English,64,,0,,,,,,,,,,,,0,,,0,1,1,,1,3756641,pdf,62ea40daa07b435e8235ee15604b0603,,,Albania PDF-A.pdf,0,2000-01-01 01:00:00,2016-11-27 23:50:16,1588000/62ea40daa07b435e8235ee15604b0603-g.jpg,,
29683459,Театрал,,,,Греч Н.И.,1853,,Типография Н. Греча,,,162,Russian,,,,-,,,,,,,,,,,0,,,,,,0,1,37959134,pdf,25c2fd4d768b164089e605624a96fb6a,,,Греч Н.И.;Театрал;;;Типография Н. Греча;1853;-;;Russian,0,2000-01-01 01:00:00,2016-11-28 00:07:36,1573000/25c2fd4d768b164089e605624a96fb6a-g.jpg,,
29683460,Иллюстрированный практический путеводитель по Одессе,,,,Москвич Г.Г.,1904,,Типография Л. Нитче (Одесса),,,193,Russian,,,,-,,,,,,,,,,,0,,,,,,0,1,114294202,pdf,6056c19c1332a4c10e4a7a718155860f,,,Москвич Г.Г.;Иллюстрированный практический путеводитель по Одессе;;;Типография Л. Нитче (Одесса);1904;-;;Russian,0,2000-01-01 01:00:00,2016-11-28 00:07:36,1577000/6056c19c1332a4c10e4a7a718155860f-g.jpg,,
29683461,«Отчизну сердцем защитили»  Стихи поэтов Тейковского района,,,,,2011,,"ОАО «Издательство «Иваново»,",,,64,Russian,,,,-,,,,,,,,,,,0,,,,,,0,1,2010197,pdf,ca229279281b8a331bc80b0e6cfa53f2,,,";«Отчизну сердцем защитили»  Стихи поэтов Тейковского района;;;ОАО «Издательство «Иваново»,;2011;-;;Russian",0,2000-01-01 01:00:00,2016-11-28 00:07:36,1585000/ca229279281b8a331bc80b0e6cfa53f2-g.jpg,,
29683462,Recettes Angéliques. Le bœuf: Le goût d’être ensemble,,,,(Collective),2012,,INTERBEV,,0,32,French,,,0,-,,,,,,,,,,,0,,,,,,0,1,3164060,pdf,be017384eb788f84803d6cf2728a3a68,,,;Recettes Angliques. Le boeuf Le got d’tre ensemble;;;INTERBEV;2012;-;;French,0,2000-01-01 01:00:00,2016-11-28 00:07:36,1585000/be017384eb788f84803d6cf2728a3a68-g.jpg,,
29683463,A World Of Animals Vol. 2,,Painting- Animals,,Ana Bernabe,2002,,Viking folk Art,,,60,English,,,,-,,,,,,,,,,,0,,,,,,0,0,50405079,pdf,857f613ba692b86d043d09c24061c24a,,,Ana Bernabe;A World Of Animals Vol. 2;Painting- Animals;;Viking folk Art;2002;-;;English,0,2000-01-01 01:00:00,2016-11-28 00:07:36,1585000/857f613ba692b86d043d09c24061c24a-g.jpg,,
29683464,A World Of Animals Vol. 3,,Painting- Animals,,Ana Bernabe,2003,,Viking folk Art,,,65,English,,,,-,,,,,,,,,,,0,,,,,,0,0,46544505,pdf,d2dbe9b1e95bf109a85cf033d923f5a2,,,Ana Bernabe;A World Of Animals Vol. 3;Painting- Animals;;Viking folk Art;2003;-;;English,0,2000-01-01 01:00:00,2016-11-28 00:07:36,1585000/d2dbe9b1e95bf109a85cf033d923f5a2-g.jpg,,
29683465,20 Easy DIY Holiday Craft,,,,Collective,2015,,FloraCraft,,0,58,English,,,0,-,,,,,,,,,,,0,,,,,,0,1,19194778,pdf,b5d1f6e32d9acffad14ecfb28dac3ac6,,,"Collective;20 Easy DIY Holiday Craft;;;FloraCraft, Prime Publishing LLC;2015;-;;English",0,2000-01-01 01:00:00,2016-11-28 00:07:36,1585000/b5d1f6e32d9acffad14ecfb28dac3ac6-g.jpg,,
29683466,Театрал,,,,Греч Н.И.,1853,,Типография Н. Греча,,,162,Russian,,,,-,,,,,,,,,,,0,,,,,,0,1,37959134,pdf,25c2fd4d768b164089e605624a96fb6a,,,Греч Н.И.;Театрал;;;Типография Н. Греча;1853;-;;Russian,0,2000-01-01 01:00:00,2016-11-28 01:07:36,1573000/25c2fd4d768b164089e605624a96fb6a-g.jpg,,
29683467,Иллюстрированный практический путеводитель по Одессе,,,,Москвич Г.Г.,1904,,Типография Л. Нитче (Одесса),,,193,Russian,,,,-,,,,,,,,,,,0,,,,,,0,1,114294202,pdf,6056c19c1332a4c10e4a7a718155860f,,,Москвич Г.Г.;Иллюстрированный практический путеводитель по Одессе;;;Типография Л. Нитче (Одесса);1904;-;;Russian,0,2000-01-01 01:00:00,2016-11-28 01:07:36,1577000/6056c19c1332a4c10e4a7a718155860f-g.jpg,,
29683468,«Отчизну сердцем защитили»  Стихи поэтов Тейковского района,,,,,2011,,"ОАО «Издательство «Иваново»,",,,64,Russian,,,,-,,,,,,,,,,,0,,,,,,0,1,2010197,pdf,ca229279281b8a331bc80b0e6cfa53f2,,,";«Отчизну сердцем защитили»  Стихи поэтов Тейковского района;;;ОАО «Издательство «Иваново»,;2011;-;;Russian",0,2000-01-01 01:00:00,2016-11-28 01:07:36,1585000/ca229279281b8a331bc80b0e6cfa53f2-g.jpg,,
29683469,Recettes Angéliques. Le bœuf: Le goût d’être ensemble,,,,(Collective),2012,,INTERBEV,,0,32,French,,,0,-,,,,,,,,,,,0,,,,,,0,1,3164060,pdf,be017384eb788f84803d6cf2728a3a68,,,;Recettes Angliques. Le boeuf Le got d’tre ensemble;;;INTERBEV;2012;-;;French,0,2000-01-01 01:00:00,2016-11-28 01:07:36,1585000/be017384eb788f84803d6cf2728a3a68-g.jpg,,
29683470,A World Of Animals Vol. 2,,Painting- Animals,,Ana Bernabe,2002,,Viking folk Art,,,60,English,,,,-,,,,,,,,,,,0,,,,,,0,0,50405079,pdf,857f613ba692b86d043d09c24061c24a,,,Ana Bernabe;A World Of Animals Vol. 2;Painting- Animals;;Viking folk Art;2002;-;;English,0,2000-01-01 01:00:00,2016-11-28 01:07:36,1585000/857f613ba692b86d043d09c24061c24a-g.jpg,,
29683471,A World Of Animals Vol. 3,,Painting- Animals,,Ana Bernabe,2003,,Viking folk Art,,,65,English,,,,-,,,,,,,,,,,0,,,,,,0,0,46544505,pdf,d2dbe9b1e95bf109a85cf033d923f5a2,,,Ana Bernabe;A World Of Animals Vol. 3;Painting- Animals;;Viking folk Art;2003;-;;English,0,2000-01-01 01:00:00,2016-11-28 01:07:36,1585000/d2dbe9b1e95bf109a85cf033d923f5a2-g.jpg,,
29683472,20 Easy DIY Holiday Craft,,,,Collective,2015,,FloraCraft,,0,58,English,,,0,-,,,,,,,,,,,0,,,,,,0,1,19194778,pdf,b5d1f6e32d9acffad14ecfb28dac3ac6,,,"Collective;20 Easy DIY Holiday Craft;;;FloraCraft, Prime Publishing LLC;2015;-;;English",0,2000-01-01 01:00:00,2016-11-28 01:07:36,1585000/b5d1f6e32d9acffad14ecfb28dac3ac6-g.jpg,,
29683473,Театрал,,,,Греч Н.И.,1853,,Типография Н. Греча,,,162,Russian,,,,-,,,,,,,,,,,0,,,,,,0,1,37959134,pdf,25c2fd4d768b164089e605624a96fb6a,,,Греч Н.И.;Театрал;;;Типография Н. Греча;1853;-;;Russian,0,2000-01-01 01:00:00,2016-11-28 02:07:36,1573000/25c2fd4d768b164089e605624a96fb6a-g.jpg,,
29683474,Иллюстрированный практический путеводитель по Одессе,,,,Москвич Г.Г.,1904,,Типография Л. Нитче (Одесса),,,193,Russian,,,,-,,,,,,,,,,,0,,,,,,0,1,114294202,pdf,6056c19c1332a4c10e4a7a718155860f,,,Москвич Г.Г.;Иллюстрированный практический путеводитель по Одессе;;;Типография Л. Нитче (Одесса);1904;-;;Russian,0,2000-01-01 01:00:00,2016-11-28 02:07:36,1577000/6056c19c1332a4c10e4a7a718155860f-g.jpg,,
29683475,«Отчизну сердцем защитили»  Стихи поэтов Тейковского района,,,,,2011,,"ОАО «Издательство «Иваново»,",,,64,Russian,,,,-,,,,,,,,,,,0,,,,,,0,1,2010197,pdf,ca229279281b8a331bc80b0e6cfa53f2,,,";«Отчизну сердцем защитили»  Стихи поэтов Тейковского района;;;ОАО «Издательство «Иваново»,;2011;-;;Russian",0,2000-01-01 01:00:00,2016-11-28 02:07:36,1585000/ca229279281b8a331bc80b0e6cfa53f2-g.jpg,,
29683476,Recettes Angéliques. Le bœuf: Le goût d’être ensemble,,,,(Collective),2012,,INTERBEV,,0,32,French,,,0,-,,,,,,,,,,,0,,,,,,0,1,3164060,pdf,be017384eb788f84803d6cf2728a3a68,,,;Recettes Angliques. Le boeuf Le got d’tre ensemble;;;INTERBEV;2012;-;;French,0,2000-01-01 01:00:00,2016-11-28 02:07:36,1585000/be017384eb788f84803d6cf2728a3a68-g.jpg,,
29683477,A World Of Animals Vol. 2,,Painting- Animals,,Ana Bernabe,2002,,Viking folk Art,,,60,English,,,,-,,,,,,,,,,,0,,,,,,0,0,50405079,pdf,857f613ba692b86d043d09c24061c24a,,,Ana Bernabe;A World Of Animals Vol. 2;Painting- Animals;;Viking folk Art;2002;-;;English,0,2000-01-01 01:00:00,2016-11-28 02:07:36,1585000/857f613ba692b86d043d09c24061c24a-g.jpg,,
29683478,A World Of Animals Vol. 3,,Painting- Animals,,Ana Bernabe,2003,,Viking folk Art,,,65,English,,,,-,,,,,,,,,,,0,,,,,,0,0,46544505,pdf,d2dbe9b1e95bf109a85cf033d923f5a2,,,Ana Bernabe;A World Of Animals Vol. 3;Painting- Animals;;Viking folk Art;2003;-;;English,0,2000-01-01 01:00:00,2016-11-28 02:07:36,1585000/d2dbe9b1e95bf109a85cf033d923f5a2-g.jpg,,
29683479,20 Easy DIY Holiday Craft,,,,Collective,2015,,FloraCraft,,0,58,English,,,0,-,,,,,,,,,,,0,,,,,,0,1,19194778,pdf,b5d1f6e32d9acffad14ecfb28dac3ac6,,,"Collective;20 Easy DIY Holiday Craft;;;FloraCraft, Prime Publishing LLC;2015;-;;English",0,2000-01-01 01:00:00,2016-11-28 02:07:36,1585000/b5d1f6e32d9acffad14ecfb28dac3ac6-g.jpg,,
29683480,Базисы Грёбнера и системы алгебраических уравнений,,,,Аржанцев И. В.,2003,,МЦНМО  Московский центр непрерывного математического образования,,,484,Russian,,,,5-94057-095-X,,,,,,,,,,,0,,,,,,0,1,8720916,djvu,9b18ab96fb33a571f28159f128ebf1e1,,,Аржанцев И. В.;Базисы Грёбнера и системы алгебраических уравнений;;;МЦНМО  Московский центр непрерывного математического образования;  2003;5-94057-095-X;;Russian,0,2000-01-01 01:00:00,2016-11-28 02:07:36,1588000/9b18ab96fb33a571f28159f128ebf1e1-g.jpg,,
29683481,Практикум по органической химии,,,,"Артеменко А.И., Тикунова И.В., Ануфриев Е.К.",2001,,Высшая школа,,,187,Russian,,,,5-06-003987-0,,,,,,,,,,,0,,,,,,0,1,10070256,pdf,fe0bc8b5697869def28252a5624378c8,,,"Артеменко А.И., Тикунова И.В., Ануфриев Е.К.;Практикум по органической химии;;;Высшая школа;2001;5-06-003987-0;;Russian",0,2000-01-01 01:00:00,2016-11-28 02:07:36,1588000/fe0bc8b5697869def28252a5624378c8-g.jpg,,
29683482,Практикум по химической защите растений,,,,"Афанасьева А.И., Груздев Г.С., Дмитриев Л.Б. и др.",1992,,Колос,,,144,Russian,,,,5-10-002072-5,,,,,,,,,,,0,,,,,,0,1,9441120,pdf,0aa3c17e0d3ab667b7ccc57c7e75353b,,,"Афанасьева А.И., Груздев Г.С., Дмитриев Л.Б. и др.;Практикум по химической защите растений;;;Колос;1992;5-10-002072-5;;Russian",0,2000-01-01 01:00:00,2016-11-28 02:07:36,1588000/0aa3c17e0d3ab667b7ccc57c7e75353b-g.jpg,,
29683483,600 задач по физике,,,,Бабанова Е.Н. и др.,2003,,УМЦ УПИ,,,43,Russian,,,,5-8295-0008-6,,,,,,,,,,,0,,,,,,0,0,8972452,pdf,6a09798cc657c053260557bc7a85c59d,,,Бабанова Е.Н. и др.;600 задач по физике;;;УМЦ УПИ;2003;5-8295-0008-6;;Russian,0,2000-01-01 01:00:00,2016-11-28 02:07:36,1588000/6a09798cc657c053260557bc7a85c59d-g.jpg,,
29683484,Курс общей физики для природопользователей. Электричество,,Учебная литература для вузов,,"Бармасов А.В., Холмогоров В.Е.",2010,,БХВ-Петербург,,,438,Russian,,,,978-5-9775-0420-1,,,,,,,,,,,0,,,,,,0,1,9803619,pdf,56d70dc2002c6149265cf98f286666c9,,,"Бармасов А.В., Холмогоров В.Е.;Курс общей физики для природопользователей. Электричество;Учебная литература для вузов;;БХВ-Петербург;2010;978-5-9775-0420-1;;Russian",0,2000-01-01 01:00:00,2016-11-28 02:07:36,1588000/56d70dc2002c6149265cf98f286666c9-g.jpg,,
29683485,Практикум по физиологии сельскохозяйственных животных,,,,"Битюков И.П., Лысов В.Ф., Сафонов Н.А.",1990,,Агропромиздат,,,252,Russian,,,,5-10-000-673-0,,,,,,,,,,,0,,,,,,0,1,9357791,djvu,27f6d791a19119ce1e84fd100aae567e,,,"Битюков И.П., Лысов В.Ф., Сафонов Н.А.;Практикум по физиологии сельскохозяйственных животных;;;Агропромиздат;1990;5-10-000-673-0;;Russian",0,2000-01-01 01:00:00,2016-11-28 02:07:36,1588000/27f6d791a19119ce1e84fd100aae567e-g.jpg,,
29683486,Деревья и кустарники средней полосы европейской части России,,Определители по флоре фауне России.,,Валягина-Малютина Е.Т.,2012,,КМК,,,530,Russian,,,,978-5-87317-856-8,,,,,,,,,,,0,,,,,,0,0,9681209,djvu,cf4d4986d6b9acb01ffe815cae8b5891,,,Валягина-Малютина Е.Т.;Деревья и кустарники средней полосы европейской части России;Определители по флоре фауне России.;;КМК; 2012;978-5-87317-856-8;;Russian,0,2000-01-01 01:00:00,2016-11-28 02:07:36,1588000/cf4d4986d6b9acb01ffe815cae8b5891-g.jpg,,
29683487,Империя атома,Вып. 9,«Осирис»,,Ван-Вогт А.,1992,,Центрполиграф,,,530,Russian,,,,5-7001-0033-9,,,,,,,,,,,0,,,,,,0,1,10190459,djvu,acc5e508b90721abb3a7ecfa507aabee,,,Ван-Вогт А.;Империя атома;«Осирис»;Вып. 9;Центрполиграф;1992;5-7001-0033-9;;Russian,0,2000-01-01 01:00:00,2016-11-28 02:07:36,1588000/acc5e508b90721abb3a7ecfa507aabee-g.jpg,,
29683488,Общая биология. 10-11 классы,,,,Вертьянов С.Ю.,2012,,Свято-Троицкая Сергиева Лавра,,,354,Russian,,,,5-903102-01-8,,,,,,,,,,,0,,,,,,0,1,9243291,pdf,84452f70a92271ff382ce2073391ea35,,,Вертьянов С.Ю.;Общая биология. 10-11 классы;;;Свято-Троицкая Сергиева Лавра;2012;5-903102-01-8;;Russian,0,2000-01-01 01:00:00,2016-11-28 02:07:36,1588000/84452f70a92271ff382ce2073391ea35-g.jpg,,
29683489,Умирающая Земля,,Зал славы всемирной фантастики.,,Джек Вэнс,1995,,Альтерпрес,,,642,Russian,,,,5-7707-4761-7,,,,,,,,,,,0,,,,,,0,1,9952026,djvu,a90be7e5b4e31afe65d8ba3ddf60ff47,,,Джек Вэнс;Умирающая Земля;Зал славы всемирной фантастики.;;Альтерпрес;1995;5-7707-4761-7;;Russian,0,2000-01-01 01:00:00,2016-11-28 02:07:36,1588000/a90be7e5b4e31afe65d8ba3ddf60ff47-g.jpg,,
29683490,Тень сатаны. Книга 1,,Современная российская фантастика,,"Зеленский А., Рясной И.",1996,,Локид,,,355,Russian,,,,5-320-00083-9,,,,,,,,,,,0,,,,,,0,1,9924249,pdf,edfe0ec6859600278eed6523f4e36806,,,"Зеленский А., Рясной И.;Тень сатаны. Книга 1;Современная российская фантастика;;Локид;1996;5-320-00083-9;;Russian",0,2000-01-01 01:00:00,2016-11-28 02:07:36,1588000/edfe0ec6859600278eed6523f4e36806-g.jpg,,
29683491,Пуассоновские процессы,,,,Кингман Дж.,2007,,МЦНМО,,,135,Russian,,,,978-5-94057-318-0,,,,,,,,,,,0,,,,,,0,0,9120141,pdf,db787f885ab6ad7b165c88a241a2d3b0,,,Кингман Дж.;Пуассоновские процессы;;;  МЦНМО;2007;978-5-94057-318-0;;Russian,0,2000-01-01 01:00:00,2016-11-28 02:07:36,1588000/db787f885ab6ad7b165c88a241a2d3b0-g.jpg,,
29683492,Приключения путеводной стрелки,,,,Коваленко А.П.,1991,,Мысль,,,289,Russian,,,,5-244-00480-8,,,,,,,,,,,0,,,,,,0,1,9837170,pdf,64f5997e9d5b120eb48947b634ca73c6,,,Коваленко А.П.;Приключения путеводной стрелки;;;Мысль;1991;5-244-00480-8;;Russian,0,2000-01-01 01:00:00,2016-11-28 02:07:36,1588000/64f5997e9d5b120eb48947b634ca73c6-g.jpg,,
29683493,Химия за 24 часа,,Абитуриент,,Коваценко Л.С.,2010,,Феникс,,,322,Russian,,,,978-5-222-15450-2,,,,,,,,,,,0,,,,,,0,0,130077275,pdf,54a9d314da2b5f0202a785ed9e14bf60,,,Коваценко Л.С.;Химия за 24 часа;Абитуриент;;Феникс;2010;978-5-222-15450-2;;Russian,0,2000-01-01 01:00:00,2016-11-28 02:07:36,1588000/54a9d314da2b5f0202a785ed9e14bf60-g.jpg,,
29683494,Интегральные уравнения. Задачи и примеры с подробными решениями,,,,"Краснов М.Л., Киселев А.И., Макаренко Г.И.",2003,,Едиториал УРСС,,,194,Russian,,,,5-354-00390-3,,,,,,,,,,,0,,,,,,0,1,9956335,pdf,153bccfa7198eca25f03f540362b923b,,,"Краснов М.Л., Киселев А.И., Макаренко Г.И.;Интегральные уравнения. Задачи и примеры с подробными решениями;;;Едиториал УРСС;2003;5-354-00390-3;;Russian",0,2000-01-01 01:00:00,2016-11-28 02:07:36,1588000/153bccfa7198eca25f03f540362b923b-g.jpg,,
29683495,Радиотермолюминесценция полимеров,,Химия - промышленности,,"Кулешов И.В., Никольский В.Г.",1991,,Химия,,,130,Russian,,,,5-7245-0163-5,,,,,,,,,,,0,,,,,,0,1,9156331,pdf,04547bbcffebd5f7eef7df0a79090a12,,,"Кулешов И.В., Никольский В.Г.;Радиотермолюминесценция полимеров;Химия - промышленности;;Химия;1991;5-7245-0163-5;;Russian",0,2000-01-01 01:00:00,2016-11-28 02:07:36,1588000/04547bbcffebd5f7eef7df0a79090a12-g.jpg,,
29683496,Общая химическая технология.,,,,"Кутепов А.М., Бондарева Т.И., Беренгартен М.Г.",2004,3-е,Академкнига,,,528,Russian,,,,5-94628-079-1,,,,,,,,,,,0,,,,,,0,1,9932362,pdf,7a084c51689665a6122ed7969b280273,,,"Кутепов А.М., Бондарева Т.И., Беренгартен М.Г.;Общая химическая технология.;;;Академкнига;2004;5-94628-079-1;3-е;Russian",0,2000-01-01 01:00:00,2016-11-28 02:07:36,1588000/7a084c51689665a6122ed7969b280273-g.jpg,,
29683497,Неорганическая химия в вопросах,,,,"Лидин Р.А., Аликберова Л.Ю., Логинова Г.П.",1991,,Химия,,,256,Russian,,,,5-7245-0224-0,,,,,,,,,,,0,,,,,,0,0,10081110,pdf,81c21f5c96d2209782d0f58581fdcbc0,,,"Лидин Р.А., Аликберова Л.Ю., Логинова Г.П.;Неорганическая химия в вопросах;;;Химия;1991;5-7245-0224-0;;Russian",0,2000-01-01 01:00:00,2016-11-28 02:07:36,1588000/81c21f5c96d2209782d0f58581fdcbc0-g.jpg,,
29683498,"Квантовая физика. 2-е изд., испр. и доп.",,,,"Мартинсон Л.K., Смирнов Е.В.",2006,,МГТУ им. Н. Э. Баумана,,,528,Russian,,,,5-7038-2797-3,,,,,,,,,,,0,,,,,,0,0,9648963,pdf,c3c150edafacf15b5c342a1565259024,,,"Мартинсон Л.K., Смирнов Е.В.;Квантовая физика. 2-е изд., испр. и доп.;;;МГТУ им. Н. Э. Баумана;    2006;5-7038-2797-3;;Russian",0,2000-01-01 01:00:00,2016-11-28 02:07:36,1588000/c3c150edafacf15b5c342a1565259024-g.jpg,,
29683499,"Теория вероятностей, математическая статистика и случайные процессы",,,,"Маталыцкий М.А., Хацкевич Г.А.",2012,,Вышэйшая школа,,,721,Russian,,,,978-985-06-2105-4,,,,,,,,,,,0,,,,,,0,1,9712219,pdf,6a3d52cafab41b043a73933edc542311,,,"Маталыцкий М.А., Хацкевич Г.А.;Теория вероятностей, математическая статистика и случайные процессы;;;Вышэйшая школа;2012;978-985-06-2105-4;;Russian",0,2000-01-01 01:00:00,2016-11-28 02:07:36,1588000/6a3d52cafab41b043a73933edc542311-g.jpg,,
29683500,Васек Трубачев и его товарищи. Девочка из города,,Библиотека пионера,,"Осеева Валентина, Воронкова Любовь",1989,,Детская литература,,,521,Russian,,,,5-08-000480-0,,,,,,,,,,,0,,,,,,0,1,10189075,djvu,505b73e5072c3b90a98977389e35e88c,,,"Осеева Валентина, Воронкова Любовь;Васек Трубачев и его товарищи. Девочка из города;Библиотека пионера;;Детская литература;1989;5-08-000480-0;;Russian",0,2000-01-01 01:00:00,2016-11-28 02:07:36,1588000/505b73e5072c3b90a98977389e35e88c-g.jpg,,
29683501,Общая фитопатология,,Классики отечественной науки,,Попкова К.В.,2005,,Дрофа,,,234,Russian,,,,5-7107-7752-8,,,,,,,,,,,0,,,,,,0,0,123609297,djvu,a7d591fbdffa1a760236238cde782a42,,,Попкова К.В.;Общая фитопатология;Классики отечественной науки;;Дрофа;2005;5-7107-7752-8;;Russian,0,2000-01-01 01:00:00,2016-11-28 02:07:36,1588000/a7d591fbdffa1a760236238cde782a42-g.jpg,,
29683502,Основы биохимии для медицинских колледжей,,,,Пустовалова Л.М.,2010,,Феникс,,,223,Russian,,,,978-5-222-15879-1,,,,,,,,,,,0,,,,,,0,0,9891309,pdf,35cedbf3b092849e8f63d5d9d66ca368,,,Пустовалова Л.М.;Основы биохимии для медицинских колледжей;;;Феникс;2010;978-5-222-15879-1;;Russian,0,2000-01-01 01:00:00,2016-11-28 02:07:36,1588000/35cedbf3b092849e8f63d5d9d66ca368-g.jpg,,
29683503,Физика газового разряда,,,,Райзер Ю.П.,2009,,ИД Интеллект,,,738,Russian,,,,978-5-91559-019-8,,,,,,,,,,,0,,,,,,0,0,129382084,pdf,668ba464f65c13dc4c2bbdb5d4bd2517,,,Райзер Ю.П.;Физика газового разряда;;;ИД Интеллект;2009;978-5-91559-019-8;;Russian,0,2000-01-01 01:00:00,2016-11-28 02:07:36,1588000/668ba464f65c13dc4c2bbdb5d4bd2517-g.jpg,,
29683504,Сергей Козлов. Сказки,,Все лучшие сказки,,Сергей Козлов,2014,,Росмэн,,,152,Russian,,,,978-5-353-06637-8,,,,,,,,,,,0,,,,,,0,0,129400722,pdf,f209d1ab8336e2258be8e9260ee39f8b,,,Сергей Козлов;Сергей Козлов. Сказки;Все лучшие сказки;;Росмэн;2014;978-5-353-06637-8;;Russian,0,2000-01-01 01:00:00,2016-11-28 02:07:36,1588000/f209d1ab8336e2258be8e9260ee39f8b-g.jpg,,
29683505,Атлас повреждений плодовых и ягодных культур морозами,,,,Соловьева М.А.,1988,,Урожай,,,178,Russian,,,,5-337-00133-7,,,,,,,,,,,0,,,,,,0,1,8964274,pdf,2282348d51a668ab9bc44dd6ecbbb93d,,,Соловьева М.А.;Атлас повреждений плодовых и ягодных культур морозами;;;Урожай;1988;5-337-00133-7;;Russian,0,2000-01-01 01:00:00,2016-11-28 02:07:36,1588000/2282348d51a668ab9bc44dd6ecbbb93d-g.jpg,,
29683506,Кедр. Царь сибирской тайги,,,,Титов Е.В.,2007,,Колос,,,172,Russian,,,,978-5-10-003978-5,,,,,,,,,,,0,,,,,,0,1,9977163,pdf,88603fa3a06e5be05e2395dbc86ac166,,,Титов Е.В.;Кедр. Царь сибирской тайги;;;Колос;2007;978-5-10-003978-5;;Russian,0,2000-01-01 01:00:00,2016-11-28 02:07:36,1588000/88603fa3a06e5be05e2395dbc86ac166-g.jpg,,
29683507,Вильгельм Завоеватель,,Великие властители,,Хейер Ж.,2002,,ООО «Издательство Астрель»,,,468,Russian,,,,5-17-013111-9,,,,,,,,,,,0,,,,,,0,1,8914175,pdf,3acb33501b2350ce6a90635f0538f234,,,Хейер Ж.;Вильгельм Завоеватель;Великие властители;;ООО «Издательство Астрель»;2002;5-17-013111-9;;Russian,0,2000-01-01 01:00:00,2016-11-28 02:07:36,1588000/3acb33501b2350ce6a90635f0538f234-g.jpg,,
29683508,Основы экологии,,,,Христофорова Н.К.,1999,,Дальнаука,,,516,Russian,,,,5-7442-0973-5.,,,,,,,,,,,0,,,,,,0,0,127248654,pdf,985901985750cb4f79fe6490073abd4f,,,Христофорова Н.К.;Основы экологии;;;Дальнаука;1999;5-7442-0973-5.;;Russian,0,2000-01-01 01:00:00,2016-11-28 02:07:36,1588000/985901985750cb4f79fe6490073abd4f-g.jpg,,
29683509,Экология,,,,Шилов И.А.,1998,,Высшая школа,,,255,Russian,,,,5-06-003366-Х,,,,,,,,,,,0,,,,,,0,0,9979403,djvu,a1398642cc1dbf963765d0929fcfa2bc,,,Шилов И.А.;Экология;;;Высшая школа;1998;5-06-003366-Х;;Russian,0,2000-01-01 01:00:00,2016-11-28 02:07:36,1588000/a1398642cc1dbf963765d0929fcfa2bc-g.jpg,,
29683510,Защита растений от болезней,,,,Шкаликов В.А.(ред.),2003,,КолосС,,,287,Russian,,,,5-9532-0074-9,,,,,,,,,,,0,,,,,,0,1,9846586,djvu,7df9213ceb5dcfe4092c25ccffd9728c,,,Шкаликов В.А.(ред.);Защита растений от болезней;;;КолосС;2003;5-9532-0074-9;;Russian,0,2000-01-01 01:00:00,2016-11-28 02:07:36,1588000/7df9213ceb5dcfe4092c25ccffd9728c-g.jpg,,
29683511,Кормопроизводство в Центральном Черноземье,,,,"Щедрина Д.И., Федотов В.А., Попов А.Ф., Саратовский Л.И.",2010,,ФГОУ ВПО ВГАУ,,,231,Russian,,,,978-5-7267-0547-7,,,,,,,,,,,0,,,,,,0,0,10066158,djvu,eb0bfe2ed7c47b9d5125b711a0484104,,,"Щедрина Д.И., Федотов В.А., Попов А.Ф., Саратовский Л.И.;Кормопроизводство в Центральном Черноземье;;;ФГОУ ВПО ВГАУ;2010;978-5-7267-0547-7;;Russian",0,2000-01-01 01:00:00,2016-11-28 02:07:36,1588000/eb0bfe2ed7c47b9d5125b711a0484104-g.jpg,,
29683512,Zayn - The Official Autobiography,,,,Zayn Malik,2016,,Penguin publications,,0,0,English,61,,0,,,,,,,,,,,,0,,,,,,,,4988995,epub,7951fea2661fce66cf94852be6652467,,,Zayn - The Official Autobiography - Zayn Malik.epub,0,2000-01-01 01:00:00,2016-11-28 02:16:33,,"zayn,zayn malik",
29683513,Problemas de vida o muerte. Diez ensayos de bioética,,,,"RIVERA LÓPEZ, Eduardo.",0,Marcial Pons,,,196,196,Español,,,0,,,,,,,,,,,,0,,,,,,,1,11112685,pdf,ec9f19045f08e99d86b613a81ad6afd8,,,"RIVERA LÓPEZ, Eduardo. Problemas de vida o muerte. Diez ensayos de bioética.pdf",0,2000-01-01 01:00:00,2016-11-28 02:22:41,,,
29683514,Problemas de vida o muerte. Diez ensayos de bioética,,,,"RIVERA LÓPEZ, Eduardo.",0,Marcial Pons,,,196,196,Español,,,0,,,,,,,,,,,,0,,,,,,,1,11112685,pdf,ec9f19045f08e99d86b613a81ad6afd8,,,"RIVERA LÓPEZ, Eduardo. Problemas de vida o muerte. Diez ensayos de bioética.pdf",0,2000-01-01 01:00:00,2016-11-28 02:23:10,1588000/ec9f19045f08e99d86b613a81ad6afd8-g.jpg,,
29683515,Insulation Materials in Context of Sustainability,,,,Amjad Almusaed and Asaad Almssad,2016,,ExLi4EvA,,144,0,English,219,,0,978-953-51-2625-6,,,,,,,,,,,0,1,1,0,,,1,1,57635672,pdf,fe26e06f544635784b98c1046a22c8d2,,,"Insulation Materials in Context of Sustainability - Amjad Almusaed, Asaad Almssad (ExLi4EvA, 2016).pdf",0,2000-01-01 01:00:00,2016-11-28 03:03:45,,,9789535126256
29683516,Театрал,,,,Греч Н.И.,1853,,Типография Н. Греча,,,162,Russian,,,,-,,,,,,,,,,,0,,,,,,0,1,37959134,pdf,25c2fd4d768b164089e605624a96fb6a,,,Греч Н.И.;Театрал;;;Типография Н. Греча;1853;-;;Russian,0,2000-01-01 01:00:00,2016-11-28 03:07:36,1573000/25c2fd4d768b164089e605624a96fb6a-g.jpg,,
29683517,Иллюстрированный практический путеводитель по Одессе,,,,Москвич Г.Г.,1904,,Типография Л. Нитче (Одесса),,,193,Russian,,,,-,,,,,,,,,,,0,,,,,,0,1,114294202,pdf,6056c19c1332a4c10e4a7a718155860f,,,Москвич Г.Г.;Иллюстрированный практический путеводитель по Одессе;;;Типография Л. Нитче (Одесса);1904;-;;Russian,0,2000-01-01 01:00:00,2016-11-28 03:07:36,1577000/6056c19c1332a4c10e4a7a718155860f-g.jpg,,
29683518,«Отчизну сердцем защитили»  Стихи поэтов Тейковского района,,,,,2011,,"ОАО «Издательство «Иваново»,",,,64,Russian,,,,-,,,,,,,,,,,0,,,,,,0,1,2010197,pdf,ca229279281b8a331bc80b0e6cfa53f2,,,";«Отчизну сердцем защитили»  Стихи поэтов Тейковского района;;;ОАО «Издательство «Иваново»,;2011;-;;Russian",0,2000-01-01 01:00:00,2016-11-28 03:07:36,1585000/ca229279281b8a331bc80b0e6cfa53f2-g.jpg,,
29683519,Recettes Angéliques. Le bœuf: Le goût d’être ensemble,,,,(Collective),2012,,INTERBEV,,0,32,French,,,0,-,,,,,,,,,,,0,,,,,,0,1,3164060,pdf,be017384eb788f84803d6cf2728a3a68,,,;Recettes Angliques. Le boeuf Le got d’tre ensemble;;;INTERBEV;2012;-;;French,0,2000-01-01 01:00:00,2016-11-28 03:07:36,1585000/be017384eb788f84803d6cf2728a3a68-g.jpg,,
29683520,A World Of Animals Vol. 2,,Painting- Animals,,Ana Bernabe,2002,,Viking folk Art,,,60,English,,,,-,,,,,,,,,,,0,,,,,,0,0,50405079,pdf,857f613ba692b86d043d09c24061c24a,,,Ana Bernabe;A World Of Animals Vol. 2;Painting- Animals;;Viking folk Art;2002;-;;English,0,2000-01-01 01:00:00,2016-11-28 03:07:36,1585000/857f613ba692b86d043d09c24061c24a-g.jpg,,
29683521,A World Of Animals Vol. 3,,Painting- Animals,,Ana Bernabe,2003,,Viking folk Art,,,65,English,,,,-,,,,,,,,,,,0,,,,,,0,0,46544505,pdf,d2dbe9b1e95bf109a85cf033d923f5a2,,,Ana Bernabe;A World Of Animals Vol. 3;Painting- Animals;;Viking folk Art;2003;-;;English,0,2000-01-01 01:00:00,2016-11-28 03:07:36,1585000/d2dbe9b1e95bf109a85cf033d923f5a2-g.jpg,,
29683522,20 Easy DIY Holiday Craft,,,,Collective,2015,,FloraCraft,,0,58,English,,,0,-,,,,,,,,,,,0,,,,,,0,1,19194778,pdf,b5d1f6e32d9acffad14ecfb28dac3ac6,,,"Collective;20 Easy DIY Holiday Craft;;;FloraCraft, Prime Publishing LLC;2015;-;;English",0,2000-01-01 01:00:00,2016-11-28 03:07:36,1585000/b5d1f6e32d9acffad14ecfb28dac3ac6-g.jpg,,
29683523,Оксигенная фототрофия. Руководство по эволюционной клеточной биологии,,,,"А.В.Пиневич, С.Г.Аверина",2002,,"Издательство Санкт-Петербургского университета, СПБ",,,237,Russian,,,,5-288-03065-0,,,,,,,,,,,0,,,,,,0,0,10757063,djvu,c88b27b60fb189efd193d2e105671f37,,,"А.В.Пиневич, С.Г.Аверина;Оксигенная фототрофия. Руководство по эволюционной клеточной биологии;;;Издательство Санкт-Петербургского университета, СПБ;2002;5-288-03065-0;;Russian",0,2000-01-01 01:00:00,2016-11-28 03:07:36,1588000/c88b27b60fb189efd193d2e105671f37-g.jpg,,
29683524,Введение в синергетику,,,,"А.Ю. Лоскутов, А.С. Михайлов",1990,,Наука,,,134,Russian,,,,5-02-014475-4,,,,,,,,,,,0,,,,,,0,0,11311067,pdf,e04f560f16335c73f3e7e1231836f229,,,"А.Ю. Лоскутов, А.С. Михайлов;Введение в синергетику;;;  Наука;1990;5-02-014475-4;;Russian",0,2000-01-01 01:00:00,2016-11-28 03:07:36,1588000/e04f560f16335c73f3e7e1231836f229-g.jpg,,
29683525,Корабль Иштар,,Fantasy,,Абрахам Мерритт,1993,,Северо-Запад,,,457,Russian,,,,5-8352-0119-2,,,,,,,,,,,0,,,,,,0,0,10710929,djvu,52e73fde6b399b2d4e684a7307cf96b7,,,Абрахам Мерритт;Корабль Иштар;Fantasy;;Северо-Запад;1993;5-8352-0119-2;;Russian,0,2000-01-01 01:00:00,2016-11-28 03:07:36,1588000/52e73fde6b399b2d4e684a7307cf96b7-g.jpg,,
29683526,Задачи по химии и способы их решения. 8-9 классы,,,,"Габриелян О.С., Остроумов И.Г., Решетов П.В.",2004,,Дрофа,,,160,Russian,,,,5-7107-7711-0,,,,,,,,,,,0,,,,,,0,1,10332953,pdf,e5e00a415eded9dafb2998592708c489,,,"Габриелян О.С., Остроумов И.Г., Решетов П.В.;Задачи по химии и способы их решения. 8-9 классы;;;Дрофа;2004;5-7107-7711-0;;Russian",0,2000-01-01 01:00:00,2016-11-28 03:07:36,1588000/e5e00a415eded9dafb2998592708c489-g.jpg,,
29683527,Математические бильярды,Вып. 77,Библиотечка Квант,,"Гальперин Г. А., Земляков А. Н.",1990,,Наука,,,292,Russian,,,,5-02-014080-5,,,,,,,,,,,0,,,,,,0,0,11036681,djvu,fc95e937a763c2f24b47a673fee99a02,,,"Гальперин Г. А., Земляков А. Н.;Математические бильярды;Библиотечка Квант;Вып. 77;Наука;1990;5-02-014080-5;;Russian",0,2000-01-01 01:00:00,2016-11-28 03:07:36,1588000/fc95e937a763c2f24b47a673fee99a02-g.jpg,,
29683528,Практикум по почвоведению,,,,"Ганжара Н.Ф., Борисов Б.А., Байбеков Р.Ф.",2002,,Агроконсалт,,,282,Russian,,,,5-94325-023-9,,,,,,,,,,,0,,,,,,0,1,10481258,pdf,f1909364938a7aec8805078d3b8ee5b9,,,"Ганжара Н.Ф., Борисов Б.А., Байбеков Р.Ф.;Практикум по почвоведению;;;Агроконсалт;2002;5-94325-023-9;;Russian",0,2000-01-01 01:00:00,2016-11-28 03:07:36,1588000/f1909364938a7aec8805078d3b8ee5b9-g.jpg,,
29683529,Молот Вулкана,,Зал славы всемирной фантастики,,Дик Ф.К.,1994,,Альтерпрес,,,579,Russian,,,,5-7707-3614-3,,,,,,,,,,,0,,,,,,0,1,10331838,djvu,728cb9116eba6b644fe8e1e2249d5371,,,Дик Ф.К.;Молот Вулкана;Зал славы всемирной фантастики;;Альтерпрес;1994;5-7707-3614-3;;Russian,0,2000-01-01 01:00:00,2016-11-28 03:07:36,1588000/728cb9116eba6b644fe8e1e2249d5371-g.jpg,,
29683530,Виноградарство Крыма,,,,Дикань А.П,2001,,Симферополь  Бизнес Информ,,,579,Russian,,,,966-7189-98-8,,,,,,,,,,,0,,,,,,0,1,11157982,djvu,df93816e133c4a6e26c6ac6275ad4a4d,,,Дикань А.П;Виноградарство Крыма;;;Симферополь  Бизнес Информ;2001;966-7189-98-8;;Russian,0,2000-01-01 01:00:00,2016-11-28 03:07:36,1588000/df93816e133c4a6e26c6ac6275ad4a4d-g.jpg,,
29683531,Волоконная оптика. Техническое руководство,,,,"Дональд Дж. Стерлинг, младший",1998,,Лори,,,195,Russian,,,,5-85582-030-0,,,,,,,,,,,0,,,,,,0,0,10855109,pdf,a38a53a09118a1bbdb10d02e3ef53ab8,,,"Дональд Дж. Стерлинг, младший;Волоконная оптика. Техническое руководство;;;Лори;1998;5-85582-030-0;;Russian",0,2000-01-01 01:00:00,2016-11-28 03:07:36,1588000/a38a53a09118a1bbdb10d02e3ef53ab8-g.jpg,,
29683532,Илион,,Золотая библиотека фантастики,,Дэн Симмонс,2005,,ACT  ЛЮКС,,,676,Russian,,,,"5-17-025948-4, 5-9660-0304-1",,,,,,,,,,,0,,,,,,0,1,11276995,djvu,54032e105b0229479d3c869e6ad29136,,,"Дэн Симмонс;Илион;Золотая библиотека фантастики;;ACT  ЛЮКС;2005;5-17-025948-4, 5-9660-0304-1;;Russian",0,2000-01-01 01:00:00,2016-11-28 03:07:36,1588000/54032e105b0229479d3c869e6ad29136-g.jpg,,
29683533,Новая парадигма релятивистской и квантовой механики,,,,Е. Л. Тюрин,2012,,Кафедра - М,,,223,Russian,,,,978-5-93165-270-2,,,,,,,,,,,0,,,,,,0,1,10470743,pdf,06b022cb4881dda8dfc644a014f03ce1,,,Е. Л. Тюрин;Новая парадигма релятивистской и квантовой механики;;;Кафедра - М;    2012;978-5-93165-270-2;;Russian,0,2000-01-01 01:00:00,2016-11-28 03:07:36,1588000/06b022cb4881dda8dfc644a014f03ce1-g.jpg,,
29683534,Имам Шамиль,,,,Ибрагимова Мариам,2001,,Благотворительный фонд им. М. Ибрагимовой,,,380,Russian,,,,5-88149-080-0,,,,,,,,,,,0,,,,,,0,0,121372811,djvu,495338e265ad97d8a40584c02c4fbd4e,,,Ибрагимова Мариам;Имам Шамиль;;;Благотворительный фонд им. М. Ибрагимовой;2001;5-88149-080-0;;Russian,0,2000-01-01 01:00:00,2016-11-28 03:07:36,1588000/495338e265ad97d8a40584c02c4fbd4e-g.jpg,,
29683535,Учебно-полевая практика по ботанике,,,,"Каденова А.Б., Камкин В.А.",2010,,Павлодар  Кереку,,,339,Russian,,,,9965-573-57-3,,,,,,,,,,,0,,,,,,0,1,10664937,pdf,8d17d986c16025f0b9594c89c8419b19,,,"Каденова А.Б., Камкин В.А.;Учебно-полевая практика по ботанике;;;Павлодар  Кереку;2010;9965-573-57-3;;Russian",0,2000-01-01 01:00:00,2016-11-28 03:07:36,1588000/8d17d986c16025f0b9594c89c8419b19-g.jpg,,
29683536,Последняя цитадель Земли,,Классика фантастического боевика,,"Каттнер Г., Мур К.",1997,,АРМАДА,,,553,Russian,,,,5-7632-0522-7,,,,,,,,,,,0,,,,,,0,1,10265389,djvu,b33a48f941e09a58c6bd13e687844bf3,,,"Каттнер Г., Мур К.;Последняя цитадель Земли;Классика фантастического боевика;;АРМАДА;1997;5-7632-0522-7;;Russian",0,2000-01-01 01:00:00,2016-11-28 03:07:36,1588000/b33a48f941e09a58c6bd13e687844bf3-g.jpg,,
29683537,Основы ветеринарной хирургии,,,,Кертиева Н.М.,2009,,РГАУ-МСХА,,,90,Russian,,,,978-5-9675-0344-3,,,,,,,,,,,0,,,,,,0,1,11183995,pdf,52c67bf2906f5fcee7390abf4f433edd,,,Кертиева Н.М.;Основы ветеринарной хирургии;;;РГАУ-МСХА;2009;978-5-9675-0344-3;;Russian,0,2000-01-01 01:00:00,2016-11-28 03:07:36,1588000/52c67bf2906f5fcee7390abf4f433edd-g.jpg,,
29683538,Элементарная геометрия. Книга для учителя,,,,Киселев А.П.,1996,,Просвещение,,,305,Russian,,,,5-09-005136-4,,,,,,,,,,,0,,,,,,0,1,11143760,pdf,a3003e3ea9623abb7942470b5f015e69,,,Киселев А.П.;Элементарная геометрия. Книга для учителя;;;Просвещение;1996;5-09-005136-4;;Russian,0,2000-01-01 01:00:00,2016-11-28 03:07:36,1588000/a3003e3ea9623abb7942470b5f015e69-g.jpg,,
29683539,"Алгебра и начала математического анализа. Профильный уровень. 11 класс (8-е изд., стерот.)",,,,"Колягин Ю.М., Сидоров Ю.В., Ткачева М.В., Федорова Н.Е., Шабунин М.И.",2010,,Мнемозина,,,265,Russian,,,,978-5-346-01343-3,,,,,,,,,,,0,,,,,,0,0,10519487,pdf,3c6b7cfe13d373a40ffa3f18915a0bad,,,"Колягин Ю.М., Сидоров Ю.В., Ткачева М.В., Федорова Н.Е., Шабунин М.И.;Алгебра и начала математического анализа. Профильный уровень. 11 класс (8-е изд., стерот.);;;Мнемозина;2010;978-5-346-01343-3;;Russian",0,2000-01-01 01:00:00,2016-11-28 03:07:36,1588000/3c6b7cfe13d373a40ffa3f18915a0bad-g.jpg,,
29683540,Основы геодезии и топографии,,,,"Курошев Г.Д., Смирнов Л.Е.",1994,,СПбГУ,,,154,Russian,,,,5-87403-31-X,,,,,,,,,,,0,,,,,,0,1,10622818,pdf,20f10101875c9f0d96f089ce17dd64c0,,,"Курошев Г.Д., Смирнов Л.Е.;Основы геодезии и топографии  ;;;СПбГУ;1994;5-87403-31-X;;Russian",0,2000-01-01 01:00:00,2016-11-28 03:07:36,1588000/20f10101875c9f0d96f089ce17dd64c0-g.jpg,,
29683541,Механика сплошных сред. Теоретические основы обработки давлением композитных металлов,,,,Кучеряев Б.В.,2000,,МИСИС,,,320,Russian,,,,5-87623-009-Х,,,,,,,,,,,0,,,,,,0,0,11127743,pdf,075c0fdd0aff9cb5dccc2a716d99d63c,,,Кучеряев Б.В.;Механика сплошных сред. Теоретические основы обработки давлением композитных металлов;;;МИСИС;2000;5-87623-009-Х;;Russian,0,2000-01-01 01:00:00,2016-11-28 03:07:36,1588000/075c0fdd0aff9cb5dccc2a716d99d63c-g.jpg,,
29683542,Пропионовокислые бактерии,,,,Л.И.Воробьева,1995,,Издательство Московского университета,,,288,Russian,,,,5-211-02303-2,,,,,,,,,,,0,,,,,,0,0,10294872,djvu,4f78c4451395a9c2f6661296b36e1a2c,,,Л.И.Воробьева;Пропионовокислые бактерии;;;Издательство Московского университета;1995;5-211-02303-2;;Russian,0,2000-01-01 01:00:00,2016-11-28 03:07:36,1588000/4f78c4451395a9c2f6661296b36e1a2c-g.jpg,,
29683543,Технология хранения зерна,,,,Малин Н.И.,2005,,КолосС,,,140,Russian,,,,5-9532-0338-1,,,,,,,,,,,0,,,,,,0,0,10496450,pdf,efa8d00dde4b5393b0a846d431ec6b3a,,,Малин Н.И.;Технология хранения зерна;;;КолосС;2005;5-9532-0338-1;;Russian,0,2000-01-01 01:00:00,2016-11-28 03:07:36,1588000/efa8d00dde4b5393b0a846d431ec6b3a-g.jpg,,
29683544,Интегрированная защита растений,,,,"Миренков Ю.А., Саскевич П.А. и др.",2008,,ИВЦ Минфина,,,184,Russian,,,,978-985-6847-44-1,,,,,,,,,,,0,,,,,,0,1,11108136,pdf,0805b5be0a7351a511e078ed58e98051,,,"Миренков Ю.А., Саскевич П.А. и др.;Интегрированная защита растений;;;ИВЦ Минфина;2008;978-985-6847-44-1;;Russian",0,2000-01-01 01:00:00,2016-11-28 03:07:36,1588000/0805b5be0a7351a511e078ed58e98051-g.jpg,,
29683545,Геохимические основы прогноза нефтегазоносности,,,,"Неручев С.Г., Рогозина Е.А.",2010,,ВНИГРИ,,,141,Russian,,,,978-5-88953-135-7,,,,,,,,,,,0,,,,,,0,1,10305033,pdf,03ff0e798e73fa66080bceb8a8d1431d,,,"Неручев С.Г., Рогозина Е.А.;Геохимические основы прогноза нефтегазоносности;;; ВНИГРИ;2010;978-5-88953-135-7;;Russian",0,2000-01-01 01:00:00,2016-11-28 03:07:36,1588000/03ff0e798e73fa66080bceb8a8d1431d-g.jpg,,
29683546,Мишкина каша,,Школьная библиотека,,Носов Н.Н.,2013,,Самовар,,,120,Russian,,,,978-5-9781-0418-9,,,,,,,,,,,0,,,,,,0,0,121360832,pdf,170c7ec9bf9e7850a409cdaf682ab387,,,Носов Н.Н.;Мишкина каша;Школьная библиотека;;Самовар;2013;978-5-9781-0418-9;;Russian,0,2000-01-01 01:00:00,2016-11-28 03:07:36,1588000/170c7ec9bf9e7850a409cdaf682ab387-g.jpg,,
29683547,Химия  Алгоритмы решения задач. Тесты,,,,"Олейников Н.Н., Муравьева Г.П.",2014,,ЛИБРОКОМ,,,247,Russian,,,,978-5-397-04339-7,,,,,,,,,,,0,,,,,,0,1,10393214,pdf,3a648a148d9fdf51ab8e17b952728def,,,"Олейников Н.Н., Муравьева Г.П.;Химия  Алгоритмы решения задач. Тесты;;;ЛИБРОКОМ;2014;978-5-397-04339-7;;Russian",0,2000-01-01 01:00:00,2016-11-28 03:07:36,1588000/3a648a148d9fdf51ab8e17b952728def-g.jpg,,
29683548,Венценосный крэг,,Далекая Радуга,,Ольга Ларионова,1996,,"ТКО ACT, Terra Fantastica",,,512,Russian,,,,5-7921-0067-5,,,,,,,,,,,0,,,,,,0,1,10994694,djvu,f76919bec5746d2197e065c5a1f452c2,,,"Ольга Ларионова;Венценосный крэг;Далекая Радуга;;ТКО ACT, Terra Fantastica;1996;5-7921-0067-5;;Russian",0,2000-01-01 01:00:00,2016-11-28 03:07:36,1588000/f76919bec5746d2197e065c5a1f452c2-g.jpg,,
29683549,Механика на квантовом уровне,,,,Панин Д.,1993,,Наука,,,272,Russian,,,,5-02-015114-9,,,,,,,,,,,0,,,,,,0,0,10326412,pdf,a1ac39f9e8987b5bdee8afdb9ee82d04,,,Панин Д.;Механика на квантовом уровне;;;Наука;1993;5-02-015114-9;;Russian,0,2000-01-01 01:00:00,2016-11-28 03:07:36,1588000/a1ac39f9e8987b5bdee8afdb9ee82d04-g.jpg,,
29683550,Бетагемот,,Сны разума,,Питер Уоттс,2015,,ACT,,,609,Russian,,,,978-5-17-087255-8,,,,,,,,,,,0,,,,,,0,1,11198251,djvu,5d5c93ab04e0b84e6857eea6e924a857,,,Питер Уоттс;Бетагемот;Сны разума;;ACT;2015;978-5-17-087255-8;;Russian,0,2000-01-01 01:00:00,2016-11-28 03:07:36,1588000/5d5c93ab04e0b84e6857eea6e924a857-g.jpg,,
29683551,За страницами учебника алгебры,,,,Пичурин Л.Ф.,1990,,Просвещение,,,609,Russian,,,,5-09-001290-3,,,,,,,,,,,0,,,,,,0,0,10889832,djvu,230446a0317c2ba62b26527c808b04c5,,,Пичурин Л.Ф.;За страницами учебника алгебры;;;Просвещение;1990;5-09-001290-3;;Russian,0,2000-01-01 01:00:00,2016-11-28 03:07:36,1588000/230446a0317c2ba62b26527c808b04c5-g.jpg,,
29683552,Дискретная математика,,,,Редькин Н.П.,2009,,Физматлит,,,263,Russian,,,,978-5-9221-1093-8,,,,,,,,,,,0,,,,,,0,1,11105580,pdf,2e616067c7552c8d12c8615f0166f064,,,Редькин Н.П.;Дискретная математика;;;Физматлит;2009;978-5-9221-1093-8;;Russian,0,2000-01-01 01:00:00,2016-11-28 03:07:36,1588000/2e616067c7552c8d12c8615f0166f064-g.jpg,,
29683553,Основы теории нечетких множеств и нечеткой логики,,,,Рыбин В.В.,2007,,МАИ,,,97,Russian,,,,978-5-7035-1862-5,,,,,,,,,,,0,,,,,,0,0,10687727,pdf,4f2ba0934680e0a133bb2e1fd860a6e4,,,Рыбин В.В.;Основы теории нечетких множеств и нечеткой логики;;;  МАИ;2007;978-5-7035-1862-5;;Russian,0,2000-01-01 01:00:00,2016-11-28 03:07:36,1588000/4f2ba0934680e0a133bb2e1fd860a6e4-g.jpg,,
29683554,Плата за смерть,,ЭЛИТА,,Силверберг Р.,1993,,АО «ЭГОС»,,,706,Russian,,,,5-85476-019-3,,,,,,,,,,,0,,,,,,0,1,11315551,djvu,21664a20ee4cecbdbf44ded8399715e0,,,Силверберг Р.;Плата за смерть;ЭЛИТА;;АО «ЭГОС»;1993;5-85476-019-3;;Russian,0,2000-01-01 01:00:00,2016-11-28 03:07:36,1588000/21664a20ee4cecbdbf44ded8399715e0-g.jpg,,
29683555,Всемогущий атом,,ЭЛИТА,,Сильверберг Р.,1992,,АО «ЭГОС»,,,706,Russian,,,,5-85476-002-9,,,,,,,,,,,0,,,,,,0,1,11228622,djvu,c387c9963e693c892517f5efeec060a6,,,Сильверберг Р.;Всемогущий атом;ЭЛИТА;;АО «ЭГОС»;1992;5-85476-002-9;;Russian,0,2000-01-01 01:00:00,2016-11-28 03:07:36,1588000/c387c9963e693c892517f5efeec060a6-g.jpg,,
29683556,Семеноводство с основами селекции полевых культур,,Технологии сельскохозяйственных производств,,Смиловенко Л.А.,2004,,МарТ,,,240,Russian,,,,5-241-00081-Х,,,,,,,,,,,0,,,,,,0,0,10474790,pdf,23fb0c4d86139a2d0b4620b73a22d01f,,,Смиловенко Л.А.;Семеноводство с основами селекции полевых культур;Технологии сельскохозяйственных производств;;МарТ;2004;5-241-00081-Х;;Russian,0,2000-01-01 01:00:00,2016-11-28 03:07:36,1588000/23fb0c4d86139a2d0b4620b73a22d01f-g.jpg,,
29683557,Саги об уладах,,Наследие кельтов,,сост. Т. Михайловой,2004,,Аграф,,,643,Russian,,,,5-7784-0270-8,,,,,,,,,,,0,,,,,,0,1,10787992,pdf,fb28b382a1a0f7e0ff83741609ad6774,,,сост. Т. Михайловой;Саги об уладах;Наследие кельтов;;Аграф;2004;5-7784-0270-8;;Russian,0,2000-01-01 01:00:00,2016-11-28 03:07:36,1588000/fb28b382a1a0f7e0ff83741609ad6774-g.jpg,,
29683558,Красная шкатулка. Смерть потаскушки,,Все звезды. Выпуск 11,,Стаут Р.,1992,,СП «Интерграф Сервис»,,,292,Russian,,,,5-85052-041-4,,,,,,,,,,,0,,,,,,0,1,11130483,djvu,516a35b521dbaf4b66726b95f2992c08,,,Стаут Р.;Красная шкатулка. Смерть потаскушки;Все звезды. Выпуск 11;;СП «Интерграф Сервис»;1992;5-85052-041-4;;Russian,0,2000-01-01 01:00:00,2016-11-28 03:07:36,1588000/516a35b521dbaf4b66726b95f2992c08-g.jpg,,
29683559,Собрание сочинений. Восход Черной Звезды. Эра осторожности,Том 5,Англо-американская фантастика XX века,,Фредерик Пол,1995,,"Сигма-пресс, Амбер, Лтд",,,443,Russian,,,,5-85949-056-9,,,,,,,,,,,0,,,,,,0,1,10340727,djvu,b0ba5d965b6177afc1bf7dad8b4c2769,,,"Фредерик Пол;Собрание сочинений. Восход Черной Звезды. Эра осторожности;Англо-американская фантастика XX века;Том 5;Сигма-пресс, Амбер, Лтд;1995;5-85949-056-9;;Russian",0,2000-01-01 01:00:00,2016-11-28 03:07:36,1588000/b0ba5d965b6177afc1bf7dad8b4c2769-g.jpg,,
29683560,"Ботаника (цитология, гистология, анатомия)",,,,"Чухлебова Н.С., Бутинова Л.М., Ледовская Н.В.",2007,,"Колос, СтГАУ АГРУС",,,148,Russian,,,,"978-5-10-003954-4, 978-5-9596-0409-7",,,,,,,,,,,0,,,,,,0,1,11116132,pdf,b54f18166f77096c85da549c4cac9c67,,,"Чухлебова Н.С., Бутинова Л.М., Ледовская Н.В.;Ботаника (цитология, гистология, анатомия);;;Колос, СтГАУ АГРУС;2007;978-5-10-003954-4, 978-5-9596-0409-7;;Russian",0,2000-01-01 01:00:00,2016-11-28 03:07:36,1588000/b54f18166f77096c85da549c4cac9c67-g.jpg,,
29683561,За страницами учебника математики. Мат. анализ. Теория вероятностей. Старин. и занимат. задачи.,,,,"Шибасов Л.П., Шибасова З.Ф.",1997,,Просвещение,,,276,Russian,,,,5-09-007090-3,,,,,,,,,,,0,,,,,,0,0,10206124,djvu,55c86b215ac1c641a1d9f14a3ad512b1,,,"Шибасов Л.П., Шибасова З.Ф.;За страницами учебника математики. Мат. анализ. Теория вероятностей. Старин. и занимат. задачи.;;;Просвещение;1997;5-09-007090-3;;Russian",0,2000-01-01 01:00:00,2016-11-28 03:07:36,1588000/55c86b215ac1c641a1d9f14a3ad512b1-g.jpg,,
29683562,Архитектурно-дизайнерское проектирование. Основы теории (средовой подход),,,,Шимко В.Т.,2009,,Архитектура-С,,,412,Russian,,,,978-5-9647-0167-5,,,,,,,,,,,0,,,,,,0,0,122340589,djvu,5d52172747dd5de3611b987ea83155eb,,,Шимко В.Т.;Архитектурно-дизайнерское проектирование. Основы теории (средовой подход)  ;;;Архитектура-С;2009;978-5-9647-0167-5;;Russian,0,2000-01-01 01:00:00,2016-11-28 03:07:36,1588000/5d52172747dd5de3611b987ea83155eb-g.jpg,,
29683563,Приключения инспектора Бел Амора,,Звёздный лабиринт  коллекция,,Штерн Б.,2002,,"ООО «Издательство АСТ»,  «Сталкер»",,,580,Russian,,,,"5-17-011911-9, 966-596-750-9",,,,,,,,,,,0,,,,,,0,1,10237028,djvu,fd4eb154f7205789db72092371edd0eb,,,"Штерн Б.;Приключения инспектора Бел Амора;Звёздный лабиринт  коллекция;;ООО «Издательство АСТ»,  «Сталкер»;2002;5-17-011911-9, 966-596-750-9;;Russian",0,2000-01-01 01:00:00,2016-11-28 03:07:36,1588000/fd4eb154f7205789db72092371edd0eb-g.jpg,,
29683564,ЕГЭ 2015. Химия. Типовые тестовые задания,,,,Ю. Н. Медведев,2015,,Экзамен,,,113,Russian,,,,978-5-377-08336-8,,,,,,,,,,,0,,,,,,0,1,11318353,pdf,1421f2815c8157b36881fea80ec0d311,,,Ю. Н. Медведев;ЕГЭ 2015. Химия. Типовые тестовые задания;;;Экзамен; 2015;978-5-377-08336-8;;Russian,0,2000-01-01 01:00:00,2016-11-28 03:07:36,1588000/1421f2815c8157b36881fea80ec0d311-g.jpg,,
29683565,Химия висмутовых соединений и материалов,,,,"Юхин Ю.М., Михайлов Ю.И.",2001,,,,,740,Russian,,,,5-7692-0404,,,,,,,,,,,0,,,,,,0,1,10465191,djvu,765e078a873795bd4aadfa4e4778fc39,,,"Юхин Ю.М., Михайлов Ю.И.;Химия висмутовых соединений и материалов;;;;2001;5-7692-0404;;Russian",0,2000-01-01 01:00:00,2016-11-28 03:07:36,1588000/765e078a873795bd4aadfa4e4778fc39-g.jpg,,
29683566,Аффинная проективная геометрия,,,,Я. П. Понарин,2009,,МЦНМО,,,286,Russian,,,,978-5-94057-401-9,,,,,,,,,,,0,,,,,,0,1,10821445,pdf,90501592e2853ff295395bd0e146c78f,,,Я. П. Понарин;Аффинная проективная геометрия;;;МЦНМО;    2009;978-5-94057-401-9;;Russian,0,2000-01-01 01:00:00,2016-11-28 03:07:36,1588000/90501592e2853ff295395bd0e146c78f-g.jpg,,
29683567,Эпидемиология и профилактика зоонозных инфекций,,Библиотека среднего медицинского работника,,"Смирнов С.М., Тер-Карапетян А.З.",1975,2,Медицина,,157,157,Russian,147,,0,,,,,,,,,,,,400,,,,,1,,0,3707788,djvu,8ca5352671ce91286192bd67bd0f3c9c,,,"Смирнов С.М., Тер-Карапетян А.З. - Эпидемиология и профилактика зоонозных инфекций.(1975) -157.djvu",0,2000-01-01 01:00:00,2016-11-28 03:21:47,,,
29683568,Caesar,,Erträge der Forschung 51.,,"Gesche, Helga",1976,1. Aufl.,Wissenschaftliche Buchgesellschaft,Darmstadt,357,0,German,64,,0,"9783534053339,3534053338",,,,,,,,,,,300,0,1,0,1,1,1,1,13592081,pdf,6f2d4946b4d790d97e04536e4fbd9324,,,Gesche_Caesar.pdf,0,2000-01-01 01:00:00,2016-11-28 03:41:30,,,"9783534053339,3534053338"
29683569,New Polymers for Special Applications,,,,Ailton De Souza Gomes,2012,,InTech,,365,365,English,219,,0,978-953-51-0744-6,,,,,,,http://dx.doi.org/10.5772/3345,,,,0,1,1,0,,,1,1,24314612,pdf,b090235b5ba55ab48702a990623cd67e,,,"New Polymers for Special Applications - Ailton De Souza Gomes (InTech, 2012).pdf",0,2000-01-01 01:00:00,2016-11-28 03:41:59,,,9789535107446
29683570,Театрал,,,,Греч Н.И.,1853,,Типография Н. Греча,,,162,Russian,,,,-,,,,,,,,,,,0,,,,,,0,1,37959134,pdf,25c2fd4d768b164089e605624a96fb6a,,,Греч Н.И.;Театрал;;;Типография Н. Греча;1853;-;;Russian,0,2000-01-01 01:00:00,2016-11-28 04:07:36,1573000/25c2fd4d768b164089e605624a96fb6a-g.jpg,,
29683571,Иллюстрированный практический путеводитель по Одессе,,,,Москвич Г.Г.,1904,,Типография Л. Нитче (Одесса),,,193,Russian,,,,-,,,,,,,,,,,0,,,,,,0,1,114294202,pdf,6056c19c1332a4c10e4a7a718155860f,,,Москвич Г.Г.;Иллюстрированный практический путеводитель по Одессе;;;Типография Л. Нитче (Одесса);1904;-;;Russian,0,2000-01-01 01:00:00,2016-11-28 04:07:36,1577000/6056c19c1332a4c10e4a7a718155860f-g.jpg,,
29683572,«Отчизну сердцем защитили»  Стихи поэтов Тейковского района,,,,,2011,,"ОАО «Издательство «Иваново»,",,,64,Russian,,,,-,,,,,,,,,,,0,,,,,,0,1,2010197,pdf,ca229279281b8a331bc80b0e6cfa53f2,,,";«Отчизну сердцем защитили»  Стихи поэтов Тейковского района;;;ОАО «Издательство «Иваново»,;2011;-;;Russian",0,2000-01-01 01:00:00,2016-11-28 04:07:36,1585000/ca229279281b8a331bc80b0e6cfa53f2-g.jpg,,
29683573,Recettes Angéliques. Le bœuf: Le goût d’être ensemble,,,,(Collective),2012,,INTERBEV,,0,32,French,,,0,-,,,,,,,,,,,0,,,,,,0,1,3164060,pdf,be017384eb788f84803d6cf2728a3a68,,,;Recettes Angliques. Le boeuf Le got d’tre ensemble;;;INTERBEV;2012;-;;French,0,2000-01-01 01:00:00,2016-11-28 04:07:36,1585000/be017384eb788f84803d6cf2728a3a68-g.jpg,,
29683574,A World Of Animals Vol. 2,,Painting- Animals,,Ana Bernabe,2002,,Viking folk Art,,,60,English,,,,-,,,,,,,,,,,0,,,,,,0,0,50405079,pdf,857f613ba692b86d043d09c24061c24a,,,Ana Bernabe;A World Of Animals Vol. 2;Painting- Animals;;Viking folk Art;2002;-;;English,0,2000-01-01 01:00:00,2016-11-28 04:07:36,1585000/857f613ba692b86d043d09c24061c24a-g.jpg,,
29683575,A World Of Animals Vol. 3,,Painting- Animals,,Ana Bernabe,2003,,Viking folk Art,,,65,English,,,,-,,,,,,,,,,,0,,,,,,0,0,46544505,pdf,d2dbe9b1e95bf109a85cf033d923f5a2,,,Ana Bernabe;A World Of Animals Vol. 3;Painting- Animals;;Viking folk Art;2003;-;;English,0,2000-01-01 01:00:00,2016-11-28 04:07:36,1585000/d2dbe9b1e95bf109a85cf033d923f5a2-g.jpg,,
29683576,20 Easy DIY Holiday Craft,,,,Collective,2015,,FloraCraft,,0,58,English,,,0,-,,,,,,,,,,,0,,,,,,0,1,19194778,pdf,b5d1f6e32d9acffad14ecfb28dac3ac6,,,"Collective;20 Easy DIY Holiday Craft;;;FloraCraft, Prime Publishing LLC;2015;-;;English",0,2000-01-01 01:00:00,2016-11-28 04:07:36,1585000/b5d1f6e32d9acffad14ecfb28dac3ac6-g.jpg,,
29683577,Театрал,,,,Греч Н.И.,1853,,Типография Н. Греча,,,162,Russian,,,,-,,,,,,,,,,,0,,,,,,0,1,37959134,pdf,25c2fd4d768b164089e605624a96fb6a,,,Греч Н.И.;Театрал;;;Типография Н. Греча;1853;-;;Russian,0,2000-01-01 01:00:00,2016-11-28 05:07:36,1573000/25c2fd4d768b164089e605624a96fb6a-g.jpg,,
29683578,Иллюстрированный практический путеводитель по Одессе,,,,Москвич Г.Г.,1904,,Типография Л. Нитче (Одесса),,,193,Russian,,,,-,,,,,,,,,,,0,,,,,,0,1,114294202,pdf,6056c19c1332a4c10e4a7a718155860f,,,Москвич Г.Г.;Иллюстрированный практический путеводитель по Одессе;;;Типография Л. Нитче (Одесса);1904;-;;Russian,0,2000-01-01 01:00:00,2016-11-28 05:07:36,1577000/6056c19c1332a4c10e4a7a718155860f-g.jpg,,
29683579,«Отчизну сердцем защитили»  Стихи поэтов Тейковского района,,,,,2011,,"ОАО «Издательство «Иваново»,",,,64,Russian,,,,-,,,,,,,,,,,0,,,,,,0,1,2010197,pdf,ca229279281b8a331bc80b0e6cfa53f2,,,";«Отчизну сердцем защитили»  Стихи поэтов Тейковского района;;;ОАО «Издательство «Иваново»,;2011;-;;Russian",0,2000-01-01 01:00:00,2016-11-28 05:07:36,1585000/ca229279281b8a331bc80b0e6cfa53f2-g.jpg,,
29683580,Recettes Angéliques. Le bœuf: Le goût d’être ensemble,,,,(Collective),2012,,INTERBEV,,0,32,French,,,0,-,,,,,,,,,,,0,,,,,,0,1,3164060,pdf,be017384eb788f84803d6cf2728a3a68,,,;Recettes Angliques. Le boeuf Le got d’tre ensemble;;;INTERBEV;2012;-;;French,0,2000-01-01 01:00:00,2016-11-28 05:07:36,1585000/be017384eb788f84803d6cf2728a3a68-g.jpg,,
29683581,A World Of Animals Vol. 2,,Painting- Animals,,Ana Bernabe,2002,,Viking folk Art,,,60,English,,,,-,,,,,,,,,,,0,,,,,,0,0,50405079,pdf,857f613ba692b86d043d09c24061c24a,,,Ana Bernabe;A World Of Animals Vol. 2;Painting- Animals;;Viking folk Art;2002;-;;English,0,2000-01-01 01:00:00,2016-11-28 05:07:36,1585000/857f613ba692b86d043d09c24061c24a-g.jpg,,
29683582,A World Of Animals Vol. 3,,Painting- Animals,,Ana Bernabe,2003,,Viking folk Art,,,65,English,,,,-,,,,,,,,,,,0,,,,,,0,0,46544505,pdf,d2dbe9b1e95bf109a85cf033d923f5a2,,,Ana Bernabe;A World Of Animals Vol. 3;Painting- Animals;;Viking folk Art;2003;-;;English,0,2000-01-01 01:00:00,2016-11-28 05:07:36,1585000/d2dbe9b1e95bf109a85cf033d923f5a2-g.jpg,,
29683583,20 Easy DIY Holiday Craft,,,,Collective,2015,,FloraCraft,,0,58,English,,,0,-,,,,,,,,,,,0,,,,,,0,1,19194778,pdf,b5d1f6e32d9acffad14ecfb28dac3ac6,,,"Collective;20 Easy DIY Holiday Craft;;;FloraCraft, Prime Publishing LLC;2015;-;;English",0,2000-01-01 01:00:00,2016-11-28 05:07:36,1585000/b5d1f6e32d9acffad14ecfb28dac3ac6-g.jpg,,
29683584,"Travail force, expropriation et formation du salariat en Afrique noire (Actualites-recherche) (French Edition)",,,,Hilaire Babassana,1978,,Presses universitaires de Grenoble,,255,250,French,,,0,"2706101350,9782706101359",,,,,,,,,,,150,0,1,0,,1,0,1,6737055,pdf,d84045c75a8a0a03e1b0197127dc0e0c,,,"Babassana Travail Force, expropriation et formation du salariat en Afrique noire 1978.pdf",0,2000-01-01 01:00:00,2016-11-28 05:42:56,http://ecx.images-amazon.com/images/I/41eLiWawfiL.jpg,Foreign Language Study & Reference;Instruction;Foreign Language Dictionaries & Thesauruses;Reference,"2706101350,9782706101359"
29683585,Театрал,,,,Греч Н.И.,1853,,Типография Н. Греча,,,162,Russian,,,,-,,,,,,,,,,,0,,,,,,0,1,37959134,pdf,25c2fd4d768b164089e605624a96fb6a,,,Греч Н.И.;Театрал;;;Типография Н. Греча;1853;-;;Russian,0,2000-01-01 01:00:00,2016-11-28 06:07:36,1573000/25c2fd4d768b164089e605624a96fb6a-g.jpg,,
29683586,Иллюстрированный практический путеводитель по Одессе,,,,Москвич Г.Г.,1904,,Типография Л. Нитче (Одесса),,,193,Russian,,,,-,,,,,,,,,,,0,,,,,,0,1,114294202,pdf,6056c19c1332a4c10e4a7a718155860f,,,Москвич Г.Г.;Иллюстрированный практический путеводитель по Одессе;;;Типография Л. Нитче (Одесса);1904;-;;Russian,0,2000-01-01 01:00:00,2016-11-28 06:07:36,1577000/6056c19c1332a4c10e4a7a718155860f-g.jpg,,
29683587,«Отчизну сердцем защитили»  Стихи поэтов Тейковского района,,,,,2011,,"ОАО «Издательство «Иваново»,",,,64,Russian,,,,-,,,,,,,,,,,0,,,,,,0,1,2010197,pdf,ca229279281b8a331bc80b0e6cfa53f2,,,";«Отчизну сердцем защитили»  Стихи поэтов Тейковского района;;;ОАО «Издательство «Иваново»,;2011;-;;Russian",0,2000-01-01 01:00:00,2016-11-28 06:07:36,1585000/ca229279281b8a331bc80b0e6cfa53f2-g.jpg,,
29683588,Recettes Angéliques. Le bœuf: Le goût d’être ensemble,,,,(Collective),2012,,INTERBEV,,0,32,French,,,0,-,,,,,,,,,,,0,,,,,,0,1,3164060,pdf,be017384eb788f84803d6cf2728a3a68,,,;Recettes Angliques. Le boeuf Le got d’tre ensemble;;;INTERBEV;2012;-;;French,0,2000-01-01 01:00:00,2016-11-28 06:07:36,1585000/be017384eb788f84803d6cf2728a3a68-g.jpg,,
29683589,A World Of Animals Vol. 2,,Painting- Animals,,Ana Bernabe,2002,,Viking folk Art,,,60,English,,,,-,,,,,,,,,,,0,,,,,,0,0,50405079,pdf,857f613ba692b86d043d09c24061c24a,,,Ana Bernabe;A World Of Animals Vol. 2;Painting- Animals;;Viking folk Art;2002;-;;English,0,2000-01-01 01:00:00,2016-11-28 06:07:36,1585000/857f613ba692b86d043d09c24061c24a-g.jpg,,
29683590,A World Of Animals Vol. 3,,Painting- Animals,,Ana Bernabe,2003,,Viking folk Art,,,65,English,,,,-,,,,,,,,,,,0,,,,,,0,0,46544505,pdf,d2dbe9b1e95bf109a85cf033d923f5a2,,,Ana Bernabe;A World Of Animals Vol. 3;Painting- Animals;;Viking folk Art;2003;-;;English,0,2000-01-01 01:00:00,2016-11-28 06:07:36,1585000/d2dbe9b1e95bf109a85cf033d923f5a2-g.jpg,,
29683591,20 Easy DIY Holiday Craft,,,,Collective,2015,,FloraCraft,,0,58,English,,,0,-,,,,,,,,,,,0,,,,,,0,1,19194778,pdf,b5d1f6e32d9acffad14ecfb28dac3ac6,,,"Collective;20 Easy DIY Holiday Craft;;;FloraCraft, Prime Publishing LLC;2015;-;;English",0,2000-01-01 01:00:00,2016-11-28 06:07:36,1585000/b5d1f6e32d9acffad14ecfb28dac3ac6-g.jpg,,
29683592,Analisi musicale e giudizio estetico,,,,Carl Dahlhaus,1987,,il Mulino,,49,49,Italian,61,,0,88-15-01462-4,,,,,,,,,,,600,0,0,1,,1,,0,4537426,pdf,f17b80e7175ffcafaecce3090bb8e361,,,"C. DAHLHAUS_Analisi musicale e giudizio estetico, Bologna, Il Mulino 1987.pdf",0,2000-01-01 01:00:00,2016-11-28 06:13:28,,,8815014624
29683593,"Чтобы не забыть  Стихотворения, записки",,,,"Ника ТУРБИНА Составление, предисловие А. Ратнера",2004,,Издательство «Монолит»,,,174,Russian,,,,,,,,,,,,,,,0,,,,,,0,0,118599472,pdf,b9531595349d1beb509dffec367e536e,,,"Ника ТУРБИНА Составление, предисловие А. Ратнера;Чтобы не забыть  Стихотворения, записки;;;Издательство «Монолит»;2004;;;Russian",0,2000-01-01 01:00:00,2016-11-28 06:21:24,1588000/b9531595349d1beb509dffec367e536e-g.jpg,,
29683594,У океана  Жизнь на крайнем севере.,Том 1,,,Немирович-Данченко Василий Иванович,1902,,типография П.П. Сойкина,,,408,Russian,,,,,,,,,,,,,,,0,,,,,,0,0,121884922,pdf,4c48539a7dc0ee6e98011768a4209b34,,,Немирович-Данченко Василий Иванович;У океана  Жизнь на крайнем севере.;;Том 1;типография П.П. Сойкина;1902;;;Russian,0,2000-01-01 01:00:00,2016-11-28 06:21:34,1588000/4c48539a7dc0ee6e98011768a4209b34-g.jpg,,
29683595,Первые основания металлургии или рудных дел,,,,Ломоносов Михаил Васильевич,1763,,Тип. Императорской Академии Наук,,,436,Russian,,,,,,,,,,,,,,,0,,,,,,0,0,10677047,pdf,354addaf641192e83b448d657da39add,,,Ломоносов Михаил Васильевич;Первые основания металлургии или рудных дел;;;Тип. Императорской Академии Наук;1763;;;Russian,0,2000-01-01 01:00:00,2016-11-28 06:21:51,1588000/354addaf641192e83b448d657da39add-g.jpg,,
29683596,Методы теории функций комплексного переменного,,,,"Лаврентьев М.А, Шабат Б.В.",1973,,Главная редакция физико-математической литературы изд-ва «Наука»,,,288,Russian,,,,,,,,,,,,,,,0,,,,,,0,1,10742444,djvu,f20bea84cc89aca0206551d21cc162e0,,,"Лаврентьев М.А, Шабат Б.В.;Методы теории функций комплексного переменного;;;Главная редакция физико-математической литературы изд-ва «Наука»;1973;;;Russian",0,2000-01-01 01:00:00,2016-11-28 06:22:04,1588000/f20bea84cc89aca0206551d21cc162e0-g.jpg,,
29683597,Precis d’ecologie  Экология,,,,Dreux F.  Дрё Ф.,1976,,Атомиздат,,,166,Russian,,,,,,,,,,,,,,,0,,,,,,0,1,5412993,pdf,230b10f53240dd76ad04ca4977961181,,,Dreux F.  Дрё Ф.;Precis d’ecologie  Экология;;;Атомиздат;1976;;;Russian,0,2000-01-01 01:00:00,2016-11-28 06:25:54,1587000/230b10f53240dd76ad04ca4977961181-g.jpg,,
29683598,Физика и жизнь. В помощь учителю,,,,Г. К. Карпинский,1968,,Средне-Уральское Книжное Издательство. Свердловск,,,450,Russian,,,,,,,,,,,,,,,0,,,,,,0,0,10667481,djvu,595cdad183e8b18f53c12df816a79e7e,,,Г. К. Карпинский;Физика и жизнь. В помощь учителю;;;Средне-Уральское Книжное Издательство. Свердловск;1968;;;Russian,0,2000-01-01 01:00:00,2016-11-28 06:26:22,1588000/595cdad183e8b18f53c12df816a79e7e-g.jpg,,
29683599,Неотвратимость,,,,Владимир Печенкин,1985,,Свердловск.Средне-Уральское книжное издательство,,,386,Russian,,,,,,,,,,,,,,,0,,,,,,0,1,11183478,pdf,4f37c3d040f479496b6d26aa26d51459,,,Владимир Печенкин;Неотвратимость;;;Свердловск.Средне-Уральское книжное издательство;1985;;;Russian,0,2000-01-01 01:00:00,2016-11-28 06:26:42,1588000/4f37c3d040f479496b6d26aa26d51459-g.jpg,,
29683600,Précis d’écologie  Экология,,,,Dreux F.  Дрё Ф.,1976,,Атомиздат,,0,166,Russian,,,0,,,,,,,,,,,,0,,,,,,0,1,5412993,pdf,230b10f53240dd76ad04ca4977961181,,,Dreux F.  Дрё Ф.;Precis d’ecologie  Экология;;;Атомиздат;1976;;;Russian,0,2000-01-01 01:00:00,2016-11-28 06:26:57,1587000/230b10f53240dd76ad04ca4977961181-g.jpg,,
29683601,Известия Крымского отдела Географического Общества Союза ССР.,Выпуск 3,,,,1954,,"Симферополь  Крымский филиал АН СССР, Крымский отдел Географического Общества Союза ССР",,,125,Russian,,,,,,,,,,,,,,,0,,,,,,0,1,10252711,pdf,f5709a5207d22a5d86550ab539861bcb,,,";Известия Крымского отдела Географического Общества Союза ССР.;;Выпуск 3;Симферополь  Крымский филиал АН СССР, Крымский отдел Географического Общества Союза ССР;1954;;;Russian",0,2000-01-01 01:00:00,2016-11-28 06:28:31,1588000/f5709a5207d22a5d86550ab539861bcb-g.jpg,,
29683602,Известия Крымского отдела Географического Общества Союза ССР.,Выпуск 4,,,,1957,,Симферополь  Крымский отдел Географического Общества Союза ССР,,,119,Russian,,,,,,,,,,,,,,,0,,,,,,0,1,10514478,pdf,facd3f89edaa0ad430c852ef0602a338,,,;Известия Крымского отдела Географического Общества Союза ССР.;;Выпуск 4;Симферополь  Крымский отдел Географического Общества Союза ССР;1957;;;Russian,0,2000-01-01 01:00:00,2016-11-28 06:28:38,1588000/facd3f89edaa0ad430c852ef0602a338-g.jpg,,
29683603,Problemas de vida o muerte. Diez ensayos de bioética,,,,Rivera Lopez Eduardo.,0,Marcial Pons,,,196,196,Español,,,0,,,,,,,,,,,,0,,,,,,,1,11112685,pdf,ec9f19045f08e99d86b613a81ad6afd8,,,"RIVERA LÓPEZ, Eduardo. Problemas de vida o muerte. Diez ensayos de bioética.pdf",0,2000-01-01 01:00:00,2016-11-28 06:28:54,1588000/ec9f19045f08e99d86b613a81ad6afd8-g.jpg,,
29683604,Zayn - The Official Autobiography,,,,Zayn Malik,2016,,Penguin publications,,0,0,English,61,,0,,,,,,,,,,,,0,,,,,,,,4988995,epub,7951fea2661fce66cf94852be6652467,,,Zayn - The Official Autobiography - Zayn Malik.epub,0,2000-01-01 01:00:00,2016-11-28 06:29:03,1588000/7951fea2661fce66cf94852be6652467-g.jpg,"zayn,zayn malik",
29683605,"Finite Mathematics, 7th Edition",,,,Howard L. Rolf,2007,,Brooks Cole,,,889,English,,,,,,,,,,,,,,,0,,,,,,0,1,10933829,pdf,bb2c94b10c74c1dc2e0fac5b26acf3f2,,,"Howard L. Rolf;Finite Mathematics, 7th Edition;;;Brooks Cole;2007;;;English",0,2000-01-01 01:00:00,2016-11-28 06:29:15,1588000/bb2c94b10c74c1dc2e0fac5b26acf3f2-g.jpg,,
29683606,Atlas of Radiographic Anatomy of the Cat,,,,Helmut Waibl,2004,,Hardcover,,,103,English.,,,,,,,,,,,,,,,0,,,,,,0,0,10779725,pdf,7086214c24c1d94154c57d252c2f8a8f,,,Helmut Waibl;Atlas of Radiographic Anatomy of the Cat;;;Hardcover;2004;;;English.,0,2000-01-01 01:00:00,2016-11-28 06:29:21,1588000/7086214c24c1d94154c57d252c2f8a8f-g.jpg,,
29683607,Лекции по аналитической механике,,,,Феликс Гантмахер,1966,,Наука. Главная редакция физико-математической литературы,,,301,Russian,,,,,,,,,,,,,,,0,,,,,,0,0,9204446,pdf,c15b445e92398d60fb9546c35c22bb02,,,Феликс Гантмахер;Лекции по аналитической механике;;;Наука. Главная редакция физико-математической литературы;1966;;;Russian,0,2000-01-01 01:00:00,2016-11-28 06:30:26,1588000/c15b445e92398d60fb9546c35c22bb02-g.jpg,,
29683608,Релятивистские многоволновые СВЧ-генераторы,,,,"С.П. Бугаев, В.И. Канавец, В.И. Кошелев, В.А. Черепенин",1991,,"\Наука\"""," Сибирское отделение""",Новосибирск,296,296,Russian,285,,0,5-02-029704-6,,,621.385.6,,,,,jP4YAAAAIAAJ,,,600,0,1,0,,1,0,0,33928328,pdf,eafbabd55e2787ef5dbd49524258b755,,,"Релятивистские многоволновые СВЧ-генераторы (Бугаев и др., 1991).pdf",0,2000-01-01 01:00:00,2016-11-28 06:30:51,,
29683609,Сергей Козлов. Сказки,,Все лучшие сказки,,Сергей Козлов,2014,,Росмэн,,,152,Russian,,,,978-5-353-06637-8,,,,,,,,,,,0,,,,,,0,0,129400722,pdf,f209d1ab8336e2258be8e9260ee39f8b,,,Сергей Козлов;Сергей Козлов. Сказки;Все лучшие сказки;;Росмэн;2014;978-5-353-06637-8;;Russian,0,2000-01-01 01:00:00,2016-11-28 06:31:26,1588000/f209d1ab8336e2258be8e9260ee39f8b-g.jpg,,9785353066378
29683610,Экология рыб Обь-Иртышского бассейна,,,,"Редакторы  Дмитрий Павлов, А. Мочек",2006,,КМК,,,304,Russian,,,,,,,,,,,,,,,0,,,,,,0,0,9884661,djvu,26f76507fca9d0aa4e5ce6112179ae25,,,"Редакторы  Дмитрий Павлов, А. Мочек;Экология рыб Обь-Иртышского бассейна;;;КМК;2006;;;Russian",0,2000-01-01 01:00:00,2016-11-28 06:31:59,1588000/26f76507fca9d0aa4e5ce6112179ae25-g.jpg,,
29683611,If you give a mouse a cookie,,,,Laura Joffe Numeroff; Felicia Bond,1997,,HarperCollins Publishers,,40,40,English,183,,0,9780064434096,,,,,,,,,,,0,,,,,,,0,32379679,pdf,ba6476af9f576659bf50d55760f16d25,,,If you give a mouse a cookie.pdf,0,2000-01-01 01:00:00,2016-11-28 06:44:37,,,9780064434096
29683612,Циглер Г. М.,,,,Теория многогранников. Пер. с англ.,2014,,МЦНМО,,,567,Russian,,,,,,,,,,,,,,,0,,,,,,0,0,8266215,djvu,ef955e4502e858159e4117a78ad1e24c,,,Теория многогранников. Пер. с англ.;Циглер Г. М.;;;МЦНМО;2014;;;Russian,0,2000-01-01 01:00:00,2016-11-28 06:48:51,1588000/ef955e4502e858159e4117a78ad1e24c-g.jpg,,
29683613,Les insertions lyriques dans les romans en vers du XIIIe siècle,,,,"Laurent, François",2007,,Université de Limoges,Limoges,521 + 171,692,French,102,,0,,,,,,,,,,,Thèse de doctorat,0,,,,,,,1,5275053,pdf,8d1a7f1468b9bdda5a91b08ede5365c1,,,laurent-francois.pdf,0,2000-01-01 01:00:00,2016-11-28 06:49:52,,Roman médiéval -- Thèses et écrits académiques;Lyrisme (littérature) -- Thèses et écrits académiques,
29683614,Comprendre le nombre d’Or,6 MO,,,Grimault Jacques -,2 mars 2016,,Broché,,60,60,French,,,0,,,,,,,,,,,,0,,,,,,,1,5664697,pdf,d699f5723d75f657a6bb3534ee59b33d,,,Grimault Jacques - Comprendre le nombre d_Or.pdf,0,2000-01-01 01:00:00,2016-11-28 06:50:55,,,
29683615,Преобразования. Векторы,,,,"Владимир Григорьевич Болтянский, Исаак Моисеевич Яглом",1964,,Просвещение,,,305,Russian,,,,,,,,,,,,,,,0,,,,,,0,0,7701134,djvu,70574ee0490955db18c68fe07f67342e,,,"Владимир Григорьевич Болтянский, Исаак Моисеевич Яглом;Преобразования. Векторы;;;Просвещение;1964;;;Russian",0,2000-01-01 01:00:00,2016-11-28 06:53:02,1587000/70574ee0490955db18c68fe07f67342e-g.jpg,,
29683616,Живое вещество,,,,Владимир Иванович Вернадский,1978,,Наука,,,305,Russian,,,,,,,,,,,,,,,0,,,,,,0,1,7738269,djvu,cb929c1e4c6941113918e8d168e3a76c,,,Владимир Иванович Вернадский;Живое вещество;;;Наука;1978;;;Russian,0,2000-01-01 01:00:00,2016-11-28 06:53:34,1587000/cb929c1e4c6941113918e8d168e3a76c-g.jpg,,
29683617,A Practical guide to Feline Dermatology,,,,"Eric. Prelaud, Pascal Guaguere",1999,,Hardcover,,,292,English.,,,,,,,,,,,,,,,0,,,,,,0,0,133488098,pdf,0f8b13410da1748c0df3df32278fc891,,,"Eric. Prelaud, Pascal Guaguere;A Practical guide to Feline Dermatology;;;Hardcover;1999;;;English.",0,2000-01-01 01:00:00,2016-11-28 06:53:36,1587000/0f8b13410da1748c0df3df32278fc891-g.jpg,,
29683618,Handbook of Veterinary Obstetrics,,,,Peter G. G. Jackson,2004,,Paperback,,,271,English.,,,,,,,,,,,,,,,0,,,,,,0,1,135607310,pdf,82ce7782b0183d4d9cf4fdca9225a4f5,,,Peter G. G. Jackson;Handbook of Veterinary Obstetrics;;;Paperback;2004;;;English.,0,2000-01-01 01:00:00,2016-11-28 06:53:51,1587000/82ce7782b0183d4d9cf4fdca9225a4f5-g.jpg,,
29683619,Foundations of the logical theory of scientific knowledge,,,,Zinov'ev A.A.,1973,,"Dordrecht, Reidel",,,328,English,,,,,,,,,,,,,,,0,,,,,,0,1,7528611,pdf,c843bb6ad943d53b9db10b3138e0653c,,,"Zinov'ev A.A.;Foundations of the logical theory of scientific knowledge;;;Dordrecht, Reidel;1973;;;English",0,2000-01-01 01:00:00,2016-11-28 06:54:46,1587000/c843bb6ad943d53b9db10b3138e0653c-g.jpg,,
29683620,Iocari serio : stiinta si arta in gindirea Renasterii,,Biblioteca Ioan Petru Culianu,,Ioan Petru Culianu,0,,Polirom,,224,218,Romanian,195,,0,,,,,,,,,,,,0,,,,,,,1,3942176,pdf,f660ed5ddc6e94a58e0e66ac649fc964,,,Ioan Petru Culianu - Iocari Serio.pdf,0,2000-01-01 01:00:00,2016-11-28 06:56:21,,Civilizaţie -- Renastere,
29683621,Математика плановых решений,,,,"Багриновский К.Л., Бусыгин В.П.",1980,,Наука. Главная редакция физико-математической литературы,,,226,Russian,,,,,,,,,,,,,,,0,,,,,,0,1,7321390,pdf,ea361d67b5d61ac7c6c1c5d27d4c2799,,,"Багриновский К.Л., Бусыгин В.П.;Математика плановых решений;;;Наука. Главная редакция физико-математической литературы;1980;;;Russian",0,2000-01-01 01:00:00,2016-11-28 06:56:49,1587000/ea361d67b5d61ac7c6c1c5d27d4c2799-g.jpg,,
29683622,The Lichen Symbiosis,,,,Vernon Ahmadjian,1967,,BLAISDELL PUBLISHING COMPANY,,80,80,English,12,,0,,,,,,,,,,,,300,0,0,0,1,1,0,1,52351402,pdf,1216e6ce55b403391c878a72d1de4e99,,,Lichen symbiosis Ahamadjian 1967.pdf,0,2000-01-01 01:00:00,2016-11-28 06:57:49,1587000/1216e6ce55b403391c878a72d1de4e99-g.jpg,"Lichen, Symbiosis",
29683623,Distributors at Work,,expository notes,,Jean Bénabou,2015,version 25 Apr 2015,,,28,28,English,,,0,,,,,,,,,,,Downloaded from http://www.mathematik.tu-darmstadt.de/~streicher/FIBR/DiWo.pdf,0,,,,,,,1,401411,pdf,f5fb9f74b331f510e624701aafcc3ffe,,,benabou - distributors at work - DiWo.pdf,0,2000-01-01 01:00:00,2016-11-28 06:58:25,1587000/f5fb9f74b331f510e624701aafcc3ffe-g.jpg,,
29683624,Театрал,,,,Греч Н.И.,1853,,Типография Н. Греча,,,162,Russian,,,,-,,,,,,,,,,,0,,,,,,0,1,37959134,pdf,25c2fd4d768b164089e605624a96fb6a,,,Греч Н.И.;Театрал;;;Типография Н. Греча;1853;-;;Russian,0,2000-01-01 01:00:00,2016-11-28 07:07:36,1573000/25c2fd4d768b164089e605624a96fb6a-g.jpg,,
29683625,Иллюстрированный практический путеводитель по Одессе,,,,Москвич Г.Г.,1904,,Типография Л. Нитче (Одесса),,,193,Russian,,,,-,,,,,,,,,,,0,,,,,,0,1,114294202,pdf,6056c19c1332a4c10e4a7a718155860f,,,Москвич Г.Г.;Иллюстрированный практический путеводитель по Одессе;;;Типография Л. Нитче (Одесса);1904;-;;Russian,0,2000-01-01 01:00:00,2016-11-28 07:07:36,1577000/6056c19c1332a4c10e4a7a718155860f-g.jpg,,
29683626,«Отчизну сердцем защитили»  Стихи поэтов Тейковского района,,,,,2011,,"ОАО «Издательство «Иваново»,",,,64,Russian,,,,-,,,,,,,,,,,0,,,,,,0,1,2010197,pdf,ca229279281b8a331bc80b0e6cfa53f2,,,";«Отчизну сердцем защитили»  Стихи поэтов Тейковского района;;;ОАО «Издательство «Иваново»,;2011;-;;Russian",0,2000-01-01 01:00:00,2016-11-28 07:07:36,1585000/ca229279281b8a331bc80b0e6cfa53f2-g.jpg,,
29683627,Recettes Angéliques. Le bœuf: Le goût d’être ensemble,,,,(Collective),2012,,INTERBEV,,0,32,French,,,0,-,,,,,,,,,,,0,,,,,,0,1,3164060,pdf,be017384eb788f84803d6cf2728a3a68,,,;Recettes Angliques. Le boeuf Le got d’tre ensemble;;;INTERBEV;2012;-;;French,0,2000-01-01 01:00:00,2016-11-28 07:07:36,1585000/be017384eb788f84803d6cf2728a3a68-g.jpg,,
29683628,A World Of Animals Vol. 2,,Painting- Animals,,Ana Bernabe,2002,,Viking folk Art,,,60,English,,,,-,,,,,,,,,,,0,,,,,,0,0,50405079,pdf,857f613ba692b86d043d09c24061c24a,,,Ana Bernabe;A World Of Animals Vol. 2;Painting- Animals;;Viking folk Art;2002;-;;English,0,2000-01-01 01:00:00,2016-11-28 07:07:36,1585000/857f613ba692b86d043d09c24061c24a-g.jpg,,
29683629,A World Of Animals Vol. 3,,Painting- Animals,,Ana Bernabe,2003,,Viking folk Art,,,65,English,,,,-,,,,,,,,,,,0,,,,,,0,0,46544505,pdf,d2dbe9b1e95bf109a85cf033d923f5a2,,,Ana Bernabe;A World Of Animals Vol. 3;Painting- Animals;;Viking folk Art;2003;-;;English,0,2000-01-01 01:00:00,2016-11-28 07:07:36,1585000/d2dbe9b1e95bf109a85cf033d923f5a2-g.jpg,,
29683630,20 Easy DIY Holiday Craft,,,,Collective,2015,,FloraCraft,,0,58,English,,,0,-,,,,,,,,,,,0,,,,,,0,1,19194778,pdf,b5d1f6e32d9acffad14ecfb28dac3ac6,,,"Collective;20 Easy DIY Holiday Craft;;;FloraCraft, Prime Publishing LLC;2015;-;;English",0,2000-01-01 01:00:00,2016-11-28 07:07:36,1585000/b5d1f6e32d9acffad14ecfb28dac3ac6-g.jpg,,
29683631,Рудные формации Рудного Алтая,,,,"Иванкин И.Ф., Иншин И.В., Кузебный В.С.",1961,,Алма-Ата  Издательство академии наук Казахской ССР,,,578,Russian,,,,,,,,,,,,,,,0,,,,,,0,0,6053505,djvu,1285fd64422a7e279a22f2ebd3dda8c7,,,"Иванкин И.Ф., Иншин И.В., Кузебный В.С.;Рудные формации Рудного Алтая;;;Алма-Ата  Издательство академии наук Казахской ССР;1961;;;Russian",0,2000-01-01 01:00:00,2016-11-28 07:08:35,1587000/1285fd64422a7e279a22f2ebd3dda8c7-g.jpg,,
29683632,Дуэнде. Нотное приложение к книге Эль Монди Фламенго: тайны забытых легенд,,,,Эль Монте Анди - Дуэнде,2004,,,,66,66,Russian,62,,0,5-8125-0403-2,,,,,,,,,,,0,,,,,,,0,18698624,pdf,9e07670e213432783a72c3656a8c55bf,,,"Эль Монте Анди - Дуэнде. Нотное приложение, 2004.pdf",0,2000-01-01 01:00:00,2016-11-28 07:09:04,,,5812504032
29683633,"Master Dentistry: Volume 1: Oral and Maxillofacial Surgery, Radiology, Pathology and Oral Medicine",1,1,,"Paul Coulthard, Keith Horner, Philip Sloan",2013,,Churchill Livingstone,,381,381,English,170,,0,978-0702046001,,,,,,,,,,,0,,,,,,,1,27392518,pdf,61c8fc1cb457a90297dbfe81771f758b,,,"Master Dentistry, Volume 1 - Oral and Maxillofacial Surgery, Radiology, Pathology and Oral Medicine - Churchill Livingstone; 3 edition (18 May 2013).pdf",0,2000-01-01 01:00:00,2016-11-28 07:09:19,,,9780702046001
29683634,Искусство и красота в средневековой эстетике,,,,"Эко, Умберто",2015,,АСТ,,353,353,Russian,57,,0,9785170851706,,,,,,,,,,,0,,,,,,,1,9513027,pdf,eaabab13354151ddf5f51c15b6702fb8,,,Эко У. Искусство и красота в средневековой эстетике. 2015.pdf,0,2000-01-01 01:00:00,2016-11-28 07:11:39,,Эстетика,9785170851706
29683635,"The DevOps Handbook: How to Create World-Class Agility, Reliability, and Security in Technology Organizations",,,,"Gene Kim, Patrick Debois, John Willis, Jez Humble, John Allspaw",2016,,IT Revolution Press,,480,0,English,,,0,"1942788002,9781942788003",,,,,,,,,,,0,,,,,,1,,3305136,epub,e34e4802ae102620effb800e014d679c,,,Devops 978-1942788003.epub,0,2000-01-01 01:00:00,2016-11-28 07:12:12,1587000/e34e4802ae102620effb800e014d679c-d.jpg,Information Management;Management & Leadership;Business & Money;Management;Management & Leadership;Business & Money,"1942788002,9781942788003"
29683636,"The Letters of Robert Frost, Volume 2: 1920-1928",,,,"Robert Frost, Donald Sheehy, Mark Richardson, Robert Bernard Hass, Henry Atmore",2016,annotated edition,Belknap Press,,848,841,English,,,0,"0674726642,9780674726642",,,,,,,,,,,0,,,,1,,1,1,4561327,pdf,7c09448fa8238c94832aa7882c322dfb,,,"The Letters of Robert Frost, Volume 2- 9780674973428.pdf",0,2000-01-01 01:00:00,2016-11-28 07:12:55,1587000/7c09448fa8238c94832aa7882c322dfb-d.jpg,Biographies & Memoirs;Arts & Literature;Ethnic & National;Historical;Leaders & Notable People;Memoirs;Professionals & Academics;Reference & Collections;Regional Canada;Regional U.S.;Specific Groups;Sports & Outdoors;Travelers & Explorers;True Crime;Letters;Essays & Correspondence;Literature & Fiction;United States;African American;Asian American;Hispanic American;Native American;Regional & Cultural;Poetry;Literature & Fiction,"0674726642,9780674726642"
29683637,Litwa za rządów ks. Isenburga,,,,Jentys Stefan [S. J.],1919,,nakładem Krakowskiego Oddziału Zjednoczenia Narodowego,Kraków,"IV, 157",176,Polish,64,,0,,,,,,,,,,,,0,,,,,,,1,7672324,pdf,7dbe3b6a2daf6423b0fea4f917684905,,,"Litwa za rzadów ks. Isenburga, 1919.pdf",0,2000-01-01 01:00:00,2016-11-28 07:13:34,1587000/7dbe3b6a2daf6423b0fea4f917684905-g.jpg,,
29683638,"La Lituanie sous le joug allemand, 1915-1918: le plan annexioniste allemand en Lituanie",,,,Pouvreau Yvonne [pseud.: Rivas C.],1918,,Libraire centrale des nationalités,Lausanne,700,706,French,,,0,,,,,,,,,,,,0,,,,,,,1,47291332,pdf,a4505c1437507375a02096bb523e0df5,,,"Pouvreau, Lituanie sous le joug-allemand 1915-1918, 1918.pdf",0,2000-01-01 01:00:00,2016-11-28 07:13:35,1587000/a4505c1437507375a02096bb523e0df5-g.jpg,,
29683639,"The New Woman in Uzbekistan: Islam, Modernity, and Unveiling under Communism",,Jackson School Publications in International Studies,,Marianne Kamp,2006,annotated edition,University of Washington Press,,332,350,English,,,0,"0295986441,9780295986449",,,,,,,,,,,0,,,,,,,1,2460577,pdf,41c2e67af4bba52e8f6e63c8bc7659e6,,,"The New Woman in Uzbekistan Islam, Modernity, and Unveiling Under Communism (2006) - Marianne Kamp.pdf",0,2000-01-01 01:00:00,2016-11-28 07:13:46,1587000/41c2e67af4bba52e8f6e63c8bc7659e6-d.jpg,Asia;China;Hong Kong;India;Japan;Korea;Pakistan;Philippines;Russia;History;Europe;Belgium;France;Germany;Great Britain;Greenland;Italy;Netherlands;Romania;Scandinavia;History;Middle East;Bahrain;Egypt;Iran;Iraq;Israel & Palestine;Jordan;Kuwait;Lebanon;Oman;Qatar;Saudi Arabia;Syria;Turkey;United Arab Emirates;Yemen;History;Women in History;World;History;Social Sciences;Children’s Studies;Communication & Media Studies;Criminology;Customs & Traditions;Demography;Disaster Relief;Emigration & Immig,"0295986441,9780295986449"
29683640,Self Assessment Colour Review of Small Animal Soft Tissue Surgery,,,,Stephen D. Gilson,1998,,Paperback,,,194,English.,,,,,,,,,,,,,,,0,,,,,,0,0,149267544,pdf,b79ea6735c7903036a32bb97924d507b,,,Stephen D. Gilson;Self Assessment Colour Review of Small Animal Soft Tissue Surgery;;;Paperback;1998;;;English.,0,2000-01-01 01:00:00,2016-11-28 07:14:26,1587000/b79ea6735c7903036a32bb97924d507b-g.jpg,,
29683641,BSAVA Manual of Canine and Feline Nephrology and Urology,,,,"Jonathan Elliott , Gregory Grauer",2007,,Paperback,,,312,English.,,,,,,,,,,,,,,,0,,,,,,0,0,147449076,pdf,c4c6a363b45fb3218e010998d1d4c7ad,,,"Jonathan Elliott , Gregory Grauer;BSAVA Manual of Canine and Feline Nephrology and Urology;;;Paperback;2007;;;English.",0,2000-01-01 01:00:00,2016-11-28 07:14:26,1587000/c4c6a363b45fb3218e010998d1d4c7ad-g.jpg,,
29683642,"Stolica Apostolska a biskup Jerzy Matulewicz, 1916-1921",,"Fontes Historiae Marianorum, 2",,"Bukowicz Jan, Górski Tadeusz [tłumaczyli i do druku przygotowali]",1996,,Wydawnictwo Księży Marianów,Warszawa,327,162,Polish,,,0,8371191057,,,,,,,,,,,300,,,,,,0,0,12569865,pdf,a84b2b4127e0586683a0c97835e96e1e,,,"Stolica Apostolska a biskup Jerzy Matulewicz 1916-1921, 1996.pdf",0,2000-01-01 01:00:00,2016-11-28 07:14:44,1587000/a84b2b4127e0586683a0c97835e96e1e-g.jpg,,8371191057
29683643,Севильский цирюльник Дж. Россини,,Путеводители по западноевропейской музыке,,Хохловкина А.,1950,,Музыка,,62,62,Russian,61,,0,,,,,,,,,,,,0,,,,,,,1,5098670,pdf,c2b1fb16edcea22b91fc11331cbbd132,,,Хохловкина А. - Севильский цирюльник Дж. Россини. (Путеводители по западноевропейской музыке) - 1950.pdf,0,2000-01-01 01:00:00,2016-11-28 07:14:46,,,
29683644,Atlas of Stored-Product Insects and Mites,,,,"Tomasz Klejdysz, Bhadriraju Subramanyam, and Jan Nawrot David W. Hagstrum",2013,,AACC International Press,,589,598,English,,,0,"1891127756,9781891127755",,,,,,,,,,,0,,,,1,,1,1,20847193,pdf,a5c8adedf8dac778c8a0748a5fed45ef,,,9781891127755 Atlas of Stored-Product Insects and Mites.pdf,0,2000-01-01 01:00:00,2016-11-28 07:14:58,1587000/a5c8adedf8dac778c8a0748a5fed45ef-d.jpg,"Arts & Photography;Biographies & Memoirs;Business & Money;Calendars;Comics & Graphic Novels;Computers & Technology;Cookbooks, Food & Wine;Crafts, Hobbies & Home;Education & Teaching;Engineering & Transportation;Gay & Lesbian;Health, Fitness & Dieting;History;Humor & Entertainment;Law;Literature & Fiction;Mystery, Thriller & Suspense;Parenting & Relationships;Politics & Social Sciences;Reference;Religion & Spirituality;Romance;Science & Math;Science Fiction & Fantasy;Self-Help;Sports & Outdoors;T","1891127756,9781891127755"
29683645,Santa Sede e Lituania: la rinascita dello Stato lituano nei documenti dell’archivio della Nunziatura Apostolica di Monaco di Baviera (1915-1919),,Chiesa e storia,,Makrickas Rolandas,2006,,Edizioni Liturgiche,Roma,833,824,Italian; German; French; Latin,64,,0,8873670520,,,,,,,,,,,400,,,,,,0,1,40630272,pdf,99a432efa6d0a297372b096e98e0735d,,,"Makrickas, Santa Sede e Lituania, 2006.pdf",0,2000-01-01 01:00:00,2016-11-28 07:16:32,1587000/99a432efa6d0a297372b096e98e0735d-g.jpg,,8873670520
29683646,The Text of the Hebrew Bible and Its Editions: Studies in Celebration of the Fifth Centennial of the Complutensian Polyglot,,Supplements to the Textual History of the Bible,,"Andres Piquer Otero, Pablo A Torijano Morales",2016,Supplement,Brill,,0,596,English,,,0,"900433498X,9789004334984",,,,,,,,,,,0,,,,1,,1,1,5528029,pdf,3a42a0e25c9bf38a9591df86745bcd8e,,,978-90-04-33498-4 The Text of the Hebrew Bible and Its Editions.pdf,0,2000-01-01 01:00:00,2016-11-28 07:19:08,1587000/3a42a0e25c9bf38a9591df86745bcd8e-d.jpg,"Old Testament;Criticism & Interpretation;Bible Study & Reference;Religion & Spirituality;Agnosticism;Atheism;Buddhism;Hinduism;Islam;Judaism;Literature & Fiction;New Age & Spirituality;Occult & Paranormal;Other Eastern Religions & Sacred Texts;Other Religions, Practices & Sacred Texts;Religious Art;Religious Studies;Worship & Devotion;Religious Studies;Buddhism;Christianity;Comparative Religion;Islam;Judaism;Religious History;Humanities;New, Used & Rental Textbooks;Specialty Boutique","900433498X,9789004334984"
29683647,Global Street Design Guide,,,,"National Association of City Transportation Officials, Global Designing Cities Initiative",2016,,Island Press,,442,425,English,,,0,"1610917014,9781610917018",,,,,,,,,,,0,,,,1,,1,1,47558028,pdf,af9d10dbaecce58f177bec3124de97e5,,,Global Street Design Guide_9781610917018.pdf,0,2000-01-01 01:00:00,2016-11-28 07:20:59,1587000/af9d10dbaecce58f177bec3124de97e5-d.jpg,"Urban & Land Use Planning;Architecture;Arts & Photography;Mass Transit;Transportation;Engineering & Transportation;Architecture;Humanities;New, Used & Rental Textbooks;Specialty Boutique","1610917014,9781610917018"
29683648,Дуэнде. Нотное приложение к книге Эль Монди Фламенго: тайны забытых легенд,,,,Эль Монте Анди - Дуэнде,2004,,,,66,66,Russian,62,,0,5-8125-0403-2,,,,,,,,,,,0,,,,,,,0,18698624,pdf,9e07670e213432783a72c3656a8c55bf,,,"Эль Монте Анди - Дуэнде. Нотное приложение, 2004.pdf",0,2000-01-01 01:00:00,2016-11-28 07:25:01,1588000/9e07670e213432783a72c3656a8c55bf-g.jpg,,5812504032
29683649,"Livari Skiadi: A Minoan Cemetery in Lefki, Southeast Crete: Volume I: Excavation and Finds",,,,"Yiannis Papadatos, Chrysa Sofianou",2015,,INSTAP Academic Press (Institute for Aegean Prehistory),,322,320,English,,,0,"1931534810,9781931534819",,,,,,,,,,,0,,,,1,,1,1,13898090,pdf,b9bc5f80306d74301241422fddc4d0cf,,,978-1-931534-81-9 Livari Skiadi.pdf,0,2000-01-01 01:00:00,2016-11-28 07:25:12,1587000/b9bc5f80306d74301241422fddc4d0cf-d.jpg,"Prehistory;Ancient Civilizations;History;Ancient;History;Humanities;New, Used & Rental Textbooks;Specialty Boutique","1931534810,9781931534819"
29683650,Кратчайшая история музыки. Самый полный и самый краткий справочник,,Кратчайшая история,,Хенли Д.,2011,,Рипол классик,М.,269,0,Russian,61,,0,978-5-386-03094-0,,,,,,,,,,,0,,,,,,,1,49298881,pdf,bd9d71e1acee4fd4a450b5501c7eee94,,,Хенли Д. - Кратчайшая история музыки - (Кратчайшая история) - 2011.pdf,0,2000-01-01 01:00:00,2016-11-28 07:28:21,,,9785386030940
29683651,Дуэль. Всемирная история,,Колесо истории,,Хоптон  Р.,2010,,Эксмо,,476,476,Russian,64,,0,978-5-699-41176-4,,,,,,,,,,,0,,,,,,,1,103587966,pdf,6beda0bc03814c21af8bced5ff6cb455,,,Хоптон Р. - Дуэль. Всемирная история (Колесо истории) - 2010.pdf,0,2000-01-01 01:00:00,2016-11-28 07:31:08,,,9785699411764
29683652,Тени завтрашнего дня. Человек и культура. Затемненный мир: Эссе,,,,Хёйзинга Йохан,2010,,Изд-во Ивана Лимбаха,СПб.,460,460,Russian,191,,0,978-5-89059-127-2,,,,,,,,,,,0,,,,,,1,1,4382175,djvu,91df45982465ce54ceac1d9fcdc0f6ce,,,Хейзинга Й. - Тени завтрашнего дня. Человек и культура. Затемненный мир. -  2010.djvu,0,2000-01-01 01:00:00,2016-11-28 07:34:39,,,9785890591272
29683653,Хёйзинга Йохан,,,,Осень Средневековья,2011,,Изд-во Ивана Лимбаха,СПб.,786,0,Russian,191,,0,978-5-89059-166-1,,,,,,,,,,,0,,,,,,,1,39673536,pdf,4c4e2c37da71c186f62c631f81d0d08a,,,Хейзинга Й. - Осень Средневековья. - 2011.pdf,0,2000-01-01 01:00:00,2016-11-28 07:38:13,,,9785890591661
29683654,Хёйзинга Йохан,,,,Осень Средневековья,2011,,Изд-во Ивана Лимбаха,СПб.,786,0,Russian,191,,0,978-5-89059-166-1,,,,,,,,,,,0,,,,,,,1,39673536,pdf,4c4e2c37da71c186f62c631f81d0d08a,,,Хейзинга Й. - Осень Средневековья. - 2011.pdf,0,2000-01-01 01:00:00,2016-11-28 07:42:17,1588000/4c4e2c37da71c186f62c631f81d0d08a-g.jpg,,9785890591661
29683655,Benjamin and Brecht: The Story of a Friendship,,,,"Erdmut Wizisla, Christine Shuttleworth",2016,,Verso,,272,0,English,,,0,"1784781126,9781784781125",,,,,,,,,,,0,,,,,,1,,2296973,epub,1ac93a3732700443af51099f7b398b50,,,1784781126.epub,0,2000-01-01 01:00:00,2016-11-28 07:44:24,http://ecx.images-amazon.com/images/I/41PA4xKXREL.jpg,Philosophers;Professionals & Academics;Biographies & Memoirs;Criticism & Theory;History & Criticism;Literature & Fiction;German;European;Regional & Cultural;History & Criticism;Literature & Fiction;German;European;World Literature;Literature & Fiction;Ethics & Morality;Philosophy;Politics & Social Sciences;Political;Philosophy;Politics & Social Sciences,"1784781126,9781784781125"
29683656,Homo ludens. Человек играющий,,,,Хёйзинга Йохан,2011,,Изд-во Ивана Лимбаха,СПб.,418,418,Russian,191,,0,978-5-89059-168-5,,,,,,,,,,,0,,,,,,,1,21839869,pdf,c7dde8e56eb23eb36a8f95d064464175,,,Хейзинга Й. - Homo ludens. Человек играющий. - 2011.pdf,0,2000-01-01 01:00:00,2016-11-28 07:48:53,,,9785890591685
29683657,Золотая осень английской рыцырственности. Иссле­дование упадка и трансформации рыцарского идеализма,,,,Фергюсон Артур Боулз,2004,,Евразия,СПб.,353,353,Russian,64,,0,5-8071-0147-2,,,,,,,,,,,0,,,,,,,1,7288459,pdf,734a8cf02be51aa73dc291356117e5d3,,,Фергюсон А.Б. Золотая осень английской рыцарственности..pdf,0,2000-01-01 01:00:00,2016-11-28 07:51:39,,,5807101472
29683658,Studii româneşti,,Biblioteca Ioan Petru Culianu,,Ioan Petru Culianu,0,,Polirom,,0,402,Romanian,,,0,,,,,,,,,,,,0,,,,,,,1,7231707,pdf,8e89cfd6159844d56a07ba38db07fe72,,,"Ioan Petru Culianu - Studii romanesti, vol. 1.pdf",0,2000-01-01 01:00:00,2016-11-28 07:55:14,,"Eminescu, Mihai -- 1850-1889 -- Critică şi interpretare;Eliade, Mircea -- 1907-1986 -- Critică şi interpretare;Literatură română -- Istorie şi critică",
29683659,Английский дом. Интимная история,,,,Уорсли Л.,2016,,Синдбад,М.,440,0,Russian,191,,0,978-5-905891-95-3,,,,,,,,,,,0,,,,,,,0,20903369,pdf,5c84ad380c80b85fb203d021cfda6d52,,,Уорсли Л. - Английский дом. Интимная история - 2016.pdf,0,2000-01-01 01:00:00,2016-11-28 07:56:26,,,9785905891953
29683660,Малая история искусств. Искусство средних веков,,,,"Тяжелов В.Н., Сопоцинский О.И.",1975,,Искусство,М.,370,370,Russian,57,,0,,,,,,,,,,,,0,,,,,,,0,28189805,pdf,051f055907f59c37ffea5571a70c4397,,,"Тяжелов В.Н., Сопоцинский О.И. - Малая история искусств. Искусство средних веков - 1975.pdf",0,2000-01-01 01:00:00,2016-11-28 07:58:08,,,
29683661,Театрал,,,,Греч Н.И.,1853,,Типография Н. Греча,,,162,Russian,,,,-,,,,,,,,,,,0,,,,,,0,1,37959134,pdf,25c2fd4d768b164089e605624a96fb6a,,,Греч Н.И.;Театрал;;;Типография Н. Греча;1853;-;;Russian,0,2000-01-01 01:00:00,2016-11-28 08:07:36,1573000/25c2fd4d768b164089e605624a96fb6a-g.jpg,,
29683662,Иллюстрированный практический путеводитель по Одессе,,,,Москвич Г.Г.,1904,,Типография Л. Нитче (Одесса),,,193,Russian,,,,-,,,,,,,,,,,0,,,,,,0,1,114294202,pdf,6056c19c1332a4c10e4a7a718155860f,,,Москвич Г.Г.;Иллюстрированный практический путеводитель по Одессе;;;Типография Л. Нитче (Одесса);1904;-;;Russian,0,2000-01-01 01:00:00,2016-11-28 08:07:36,1577000/6056c19c1332a4c10e4a7a718155860f-g.jpg,,
29683663,«Отчизну сердцем защитили»  Стихи поэтов Тейковского района,,,,,2011,,"ОАО «Издательство «Иваново»,",,,64,Russian,,,,-,,,,,,,,,,,0,,,,,,0,1,2010197,pdf,ca229279281b8a331bc80b0e6cfa53f2,,,";«Отчизну сердцем защитили»  Стихи поэтов Тейковского района;;;ОАО «Издательство «Иваново»,;2011;-;;Russian",0,2000-01-01 01:00:00,2016-11-28 08:07:36,1585000/ca229279281b8a331bc80b0e6cfa53f2-g.jpg,,
29683664,Recettes Angéliques. Le bœuf: Le goût d’être ensemble,,,,(Collective),2012,,INTERBEV,,0,32,French,,,0,-,,,,,,,,,,,0,,,,,,0,1,3164060,pdf,be017384eb788f84803d6cf2728a3a68,,,;Recettes Angliques. Le boeuf Le got d’tre ensemble;;;INTERBEV;2012;-;;French,0,2000-01-01 01:00:00,2016-11-28 08:07:36,1585000/be017384eb788f84803d6cf2728a3a68-g.jpg,,
29683665,A World Of Animals Vol. 2,,Painting- Animals,,Ana Bernabe,2002,,Viking folk Art,,,60,English,,,,-,,,,,,,,,,,0,,,,,,0,0,50405079,pdf,857f613ba692b86d043d09c24061c24a,,,Ana Bernabe;A World Of Animals Vol. 2;Painting- Animals;;Viking folk Art;2002;-;;English,0,2000-01-01 01:00:00,2016-11-28 08:07:36,1585000/857f613ba692b86d043d09c24061c24a-g.jpg,,
29683666,A World Of Animals Vol. 3,,Painting- Animals,,Ana Bernabe,2003,,Viking folk Art,,,65,English,,,,-,,,,,,,,,,,0,,,,,,0,0,46544505,pdf,d2dbe9b1e95bf109a85cf033d923f5a2,,,Ana Bernabe;A World Of Animals Vol. 3;Painting- Animals;;Viking folk Art;2003;-;;English,0,2000-01-01 01:00:00,2016-11-28 08:07:36,1585000/d2dbe9b1e95bf109a85cf033d923f5a2-g.jpg,,
29683667,20 Easy DIY Holiday Craft,,,,Collective,2015,,FloraCraft,,0,58,English,,,0,-,,,,,,,,,,,0,,,,,,0,1,19194778,pdf,b5d1f6e32d9acffad14ecfb28dac3ac6,,,"Collective;20 Easy DIY Holiday Craft;;;FloraCraft, Prime Publishing LLC;2015;-;;English",0,2000-01-01 01:00:00,2016-11-28 08:07:36,1585000/b5d1f6e32d9acffad14ecfb28dac3ac6-g.jpg,,
29683668,Таямніцы полацкай гісторыі (Тайны полоцкой истории),,,,Арлоў Уладзімер (Орлов Владимир),2008,,Папуры,Минск,609,609,Belarusian,64,rutracker+aga,0,978-985-15-0288-8,,,,,,,,,,,0,,,,,,,1,6909523,djvu,42f7237a65a3dd6dc68838b9ec2183b6,,,Арлоў Уладзімер - Таямніцы полацкай гісторыі - 2008 (aga+ocr).djvu,0,2000-01-01 01:00:00,2016-11-28 08:14:45,,,9789851502888
29683669,Рим в 313 году. Художественно-исторический путеводитель по столице древней истории,,,,Таруашвили Л. И.,2010,,Статут,М.,280,280,Russian,66,,0,978-5-8354-0614-2,,,,,,,,,,,0,,,,,,,0,88942125,pdf,70475b0a67420d489d0d06209827c026,,,Таруашвили Л. И. - Рим в 313 году. Художественно-исторический путеводитель... - 2010 (LQ).pdf,0,2000-01-01 01:00:00,2016-11-28 08:18:26,,,9785835406142
29683670,Поэзия и знание: История литературы и культуры. Т. 1,1,Язык. Семиотика. Культура,,Старобинский Ж.,2002,,Языки славянской культуры,М.,498,498,Russian,191,,0,5-94457-002-4,,,,,,,,,,,0,,,,,,,1,35257438,pdf,648b41c59585be2d409974c0e62bc8d3,,,Старобинский Ж. - Поэзия и знание. История литературы и культуры. Т. 1 (Язык. Семиотика. Культура). - 2002.pdf,0,2000-01-01 01:00:00,2016-11-28 08:21:41,,,5944570024
29683671,Запіскі афіцэра Чырвонай Арміі (Записки офицера Красной армии),,,,Пясецкі Сяргей (Пясецкий С.),2005,,VivaFutura,,251,251,Belarusian,64,rutracker+aga,0,985-6056-37-0,,,,,,,,,,,0,,,,,,,1,1532903,djvu,15bd6fad5465fc201bd68689c72ed6b3,,,Пясецкі Сяргей - Запіскі афіцэра Чырвонай Арміі - 2005 (aga+ocr).djvu,0,2000-01-01 01:00:00,2016-11-28 08:29:56,,,9856056370
29683672,Поэзия и знание: История литературы и культуры. Т. 2,2,Язык. Семиотика. Культура,,Старобинский Жан,2002,,Языки славянской культуры,М.,602,602,Russian,191,,0,5-94457-003-2,,,,,,,,,,,0,,,,,,,1,76863081,pdf,8b25dbdadf08ba97dde780991526889b,,,Старобинский Ж. - Поэзия и знание. История литературы и культуры. Т. 2 (Язык. Семиотика. Культура). - 2002.pdf,0,2000-01-01 01:00:00,2016-11-28 08:32:22,,,5944570032
29683673,Запіскі афіцэра Чырвонай Арміі (Записки офицера Красной армии),,,,Пясецкі Сяргей (Пясецкий С.),2005,,VivaFutura,,251,251,Belarusian,64,rutracker+aga,0,985-6056-37-0,,,,,,,,,,,0,,,,,,,1,1532903,djvu,15bd6fad5465fc201bd68689c72ed6b3,,,Пясецкі Сяргей - Запіскі афіцэра Чырвонай Арміі - 2005 (aga+ocr).djvu,0,2000-01-01 01:00:00,2016-11-28 08:36:36,1588000/15bd6fad5465fc201bd68689c72ed6b3-g.jpg,,9856056370
29683674,Special Functions and Orthogonal Polynomials,,Cambridge Studies in Advanced Mathematics,,"Richard Beals, Roderick Wong",2016,2,Cambridge University Press,,488,0,English,,,0,978-1-107-10698-7,,,,,,,,,,,0,,,,,,,1,2816651,pdf,1759d34fe4497132d070e70993794edd,,,beals_wong_2nd_2016_fixed.pdf,0,2000-01-01 01:00:00,2016-11-28 08:38:05,,,9781107106987
29683675,Special Functions and Orthogonal Polynomials,,Cambridge Studies in Advanced Mathematics,,"Richard Beals, Roderick Wong",2016,2,Cambridge University Press,,488,0,English,,,0,978-1-107-10698-7,,,,,,,,,,,0,,,,,,,1,2816651,pdf,1759d34fe4497132d070e70993794edd,,,beals_wong_2nd_2016_fixed.pdf,0,2000-01-01 01:00:00,2016-11-28 08:39:24,1588000/1759d34fe4497132d070e70993794edd-g.jpg,,9781107106987
29683676,lex & yacc,,,,"Doug Brown, John Levine, Tony Mason",1995,2,O’Reilly Media,,388,0,English,90,,0,"1565920007,9781565920002",,,,,,,,,,,0,,,,,0,,1,9089077,pdf,160966db4672dc0a171f56ab71fa7e84,,,"Doug Brown, et al. - lex _amp; yacc (O__039;Reilly) 2nd _1995 - 1565920007.pdf",0,2000-01-01 01:00:00,2016-11-28 08:41:25,http://ecx.images-amazon.com/images/I/510OFPELhPL.jpg,,"1565920007,9781565920002"
29683677,lex & yacc,,,,"Doug Brown, John Levine, Tony Mason",1995,2,O’Reilly Media,,388,0,English,90,,0,"1565920007,9781565920002",,,,,,,,,,,0,,,,,,1,1,1441683,epub,040f83faeb3a72567a94e5f38c07a812,,,"Doug Brown, et al. - lex _amp; yacc (O__039;Reilly) 2nd _1995 - 1565920007.epub",0,2000-01-01 01:00:00,2016-11-28 08:48:05,http://ecx.images-amazon.com/images/I/510OFPELhPL.jpg,,"1565920007,9781565920002"
29683678,Guide de l’astronome debutant,,,,"Jean Victor, Vincent",2016,4,Eyrolles,Paris,109,120,French,,,0,"9782212118759,2212118759",,,,,,,,,,,0,,,,,,,1,23881188,pdf,ec36381064bc992fabcb364ab7dab7f5,,,Guide de l__039;astronome de¦Бbutant.o.pdf,0,2000-01-01 01:00:00,2016-11-28 08:53:33,1587000/ec36381064bc992fabcb364ab7dab7f5-g.jpg,Astronomie -- Manuels d’observation;Astronomie -- Instruments -- Guides pratiques et mémentos,"9782212118759,2212118759"
29683679,Darwin apres Darwin,,,,"Cohen, Henri; Levy, Joseph J. (eds.)",1984,,Presses de l’Universite du Quebec,,220,220,French,,,0,"9781435681989,1435681983,9782760503588,2760503585,9782760522725,2760522725",,,,,,,,,,,0,,,,,,,1,4641751,pdf,ae17e629d56a11c946e14cffbdeb11d3,,,Darwin apre¦Аs Darwin.o.pdf,0,2000-01-01 01:00:00,2016-11-28 08:55:58,1587000/ae17e629d56a11c946e14cffbdeb11d3-g.jpg,"Darwin, Charles, -- 1809-1882 -- Congresses;Evolution (Biology) -- Congresses;Naturalists -- Great Britain -- Biography -- Congresses;Darwin, Charles, -- 1809-1882;Darwin, Charles, -- 1809-1882 -- Critique et interprétation;Évolution (Biologie);Sélection naturelle;SCIENCE -- Life Sciences -- Evolution;BIOGRAPHY & AUTOBIOGRAPHY -- Science & Technology;Evolution (Biology);Naturalists;Great Britain","9781435681989,1435681983,9782760503588,2760503585,9782760522725,2760522725"
29683680,Programmer en langage C : cours et exercices corriges,,,,"Delannoy, Claude",2016,5,Eyrolles,Paris,267,281,French,,,0,"9782212118254,2212118252",,,,,,,,,,,0,,,,,,,1,47867386,pdf,9724e2a93bb040ebc124a3686b13ce8a,,,Programmer en langage C - Cours et exercices corrige¦Бs.o.pdf,0,2000-01-01 01:00:00,2016-11-28 08:58:57,1587000/9724e2a93bb040ebc124a3686b13ce8a-g.jpg,C (langage de programmation) -- Problèmes et exercices,"9782212118254,2212118252"
29683681,La Cuisine creole traditionnelle.,,Collection L’Utile,,E. Désormeaux,1977,,E. Desormeaux,"Fort-de-France, Martinique",126,130,French,,,0,"9782852751163,285275116X",,,,,,,,,,,0,,,,,,,1,2316624,pdf,0300c9d7321a81828367d6da83ae293b,,,La cuisine cre¦Бole traditionnelle - 180 recettes.o.pdf,0,2000-01-01 01:00:00,2016-11-28 08:59:12,1587000/0300c9d7321a81828367d6da83ae293b-g.jpg,"Cooking, Caribbean;Cooking, Creole","9782852751163,285275116X"
29683682,Театрал,,,,Греч Н.И.,1853,,Типография Н. Греча,,,162,Russian,,,,-,,,,,,,,,,,0,,,,,,0,1,37959134,pdf,25c2fd4d768b164089e605624a96fb6a,,,Греч Н.И.;Театрал;;;Типография Н. Греча;1853;-;;Russian,0,2000-01-01 01:00:00,2016-11-28 09:07:36,1573000/25c2fd4d768b164089e605624a96fb6a-g.jpg,,
29683683,Иллюстрированный практический путеводитель по Одессе,,,,Москвич Г.Г.,1904,,Типография Л. Нитче (Одесса),,,193,Russian,,,,-,,,,,,,,,,,0,,,,,,0,1,114294202,pdf,6056c19c1332a4c10e4a7a718155860f,,,Москвич Г.Г.;Иллюстрированный практический путеводитель по Одессе;;;Типография Л. Нитче (Одесса);1904;-;;Russian,0,2000-01-01 01:00:00,2016-11-28 09:07:36,1577000/6056c19c1332a4c10e4a7a718155860f-g.jpg,,
29683684,«Отчизну сердцем защитили»  Стихи поэтов Тейковского района,,,,,2011,,"ОАО «Издательство «Иваново»,",,,64,Russian,,,,-,,,,,,,,,,,0,,,,,,0,1,2010197,pdf,ca229279281b8a331bc80b0e6cfa53f2,,,";«Отчизну сердцем защитили»  Стихи поэтов Тейковского района;;;ОАО «Издательство «Иваново»,;2011;-;;Russian",0,2000-01-01 01:00:00,2016-11-28 09:07:36,1585000/ca229279281b8a331bc80b0e6cfa53f2-g.jpg,,
29683685,Recettes Angéliques. Le bœuf: Le goût d’être ensemble,,,,(Collective),2012,,INTERBEV,,0,32,French,,,0,-,,,,,,,,,,,0,,,,,,0,1,3164060,pdf,be017384eb788f84803d6cf2728a3a68,,,;Recettes Angliques. Le boeuf Le got d’tre ensemble;;;INTERBEV;2012;-;;French,0,2000-01-01 01:00:00,2016-11-28 09:07:36,1585000/be017384eb788f84803d6cf2728a3a68-g.jpg,,
29683686,A World Of Animals Vol. 2,,Painting- Animals,,Ana Bernabe,2002,,Viking folk Art,,,60,English,,,,-,,,,,,,,,,,0,,,,,,0,0,50405079,pdf,857f613ba692b86d043d09c24061c24a,,,Ana Bernabe;A World Of Animals Vol. 2;Painting- Animals;;Viking folk Art;2002;-;;English,0,2000-01-01 01:00:00,2016-11-28 09:07:36,1585000/857f613ba692b86d043d09c24061c24a-g.jpg,,
29683687,A World Of Animals Vol. 3,,Painting- Animals,,Ana Bernabe,2003,,Viking folk Art,,,65,English,,,,-,,,,,,,,,,,0,,,,,,0,0,46544505,pdf,d2dbe9b1e95bf109a85cf033d923f5a2,,,Ana Bernabe;A World Of Animals Vol. 3;Painting- Animals;;Viking folk Art;2003;-;;English,0,2000-01-01 01:00:00,2016-11-28 09:07:36,1585000/d2dbe9b1e95bf109a85cf033d923f5a2-g.jpg,,
29683688,20 Easy DIY Holiday Craft,,,,Collective,2015,,FloraCraft,,0,58,English,,,0,-,,,,,,,,,,,0,,,,,,0,1,19194778,pdf,b5d1f6e32d9acffad14ecfb28dac3ac6,,,"Collective;20 Easy DIY Holiday Craft;;;FloraCraft, Prime Publishing LLC;2015;-;;English",0,2000-01-01 01:00:00,2016-11-28 09:07:36,1585000/b5d1f6e32d9acffad14ecfb28dac3ac6-g.jpg,,
29683689,Шум времени,,,,Джулиан Барнс,2016,,Азбука-Аттикус,,0,0,Russian,110,,0,978-5-389-12181-2,,,,,,,,,,,0,,,,,,,,1593978,epub,b9e0fcfb65693cc3f461c529c5c16a05,,,Barns_D._Shum_Vremeni.epub,0,2000-01-01 01:00:00,2016-11-28 09:15:10,,,9785389121812
29683690,Comprendre le nombre d’Or,6 MO,,,Grimault Jacques -,2 mars 2016,,Broché,,60,60,French,,,0,,,,,,,,,,,,0,,,,,,,1,5664697,pdf,d699f5723d75f657a6bb3534ee59b33d,,,Grimault Jacques - Comprendre le nombre d_Or.pdf,0,2000-01-01 01:00:00,2016-11-28 09:18:51,1588000/d699f5723d75f657a6bb3534ee59b33d-g.jpg,,
29683691,"Master Dentistry: Volume 1: Oral and Maxillofacial Surgery, Radiology, Pathology and Oral Medicine",1,1,,"Paul Coulthard, Keith Horner, Philip Sloan",2013,,Churchill Livingstone,,381,381,English,170,,0,978-0702046001,,,,,,,,,,,0,,,,,,,1,27392518,pdf,61c8fc1cb457a90297dbfe81771f758b,,,"Master Dentistry, Volume 1 - Oral and Maxillofacial Surgery, Radiology, Pathology and Oral Medicine - Churchill Livingstone; 3 edition (18 May 2013).pdf",0,2000-01-01 01:00:00,2016-11-28 09:19:12,1588000/61c8fc1cb457a90297dbfe81771f758b-g.jpg,,9780702046001
29683692,"Travail force, expropriation et formation du salariat en Afrique noire (Actualites-recherche) (French Edition)",,,,Hilaire Babassana,1978,,Presses universitaires de Grenoble,,255,250,French,,,0,"2706101350,9782706101359",,,,,,,,,,,150,0,1,0,,1,0,1,6737055,pdf,d84045c75a8a0a03e1b0197127dc0e0c,,,"Babassana Travail Force, expropriation et formation du salariat en Afrique noire 1978.pdf",0,2000-01-01 01:00:00,2016-11-28 09:19:43,1588000/d84045c75a8a0a03e1b0197127dc0e0c-d.jpg,Foreign Language Study & Reference;Instruction;Foreign Language Dictionaries & Thesauruses;Reference,"2706101350,9782706101359"
29683693,Caesar,,Erträge der Forschung 51.,,"Gesche, Helga",1976,1. Aufl.,Wissenschaftliche Buchgesellschaft,Darmstadt,357,0,German,64,,0,"9783534053339,3534053338",,,,,,,,,,,300,0,1,0,1,1,1,1,13592081,pdf,6f2d4946b4d790d97e04536e4fbd9324,,,Gesche_Caesar.pdf,0,2000-01-01 01:00:00,2016-11-28 09:20:02,1588000/6f2d4946b4d790d97e04536e4fbd9324-g.jpg,,"9783534053339,3534053338"
29683694,Benjamin and Brecht: The Story of a Friendship,,,,"Erdmut Wizisla, Christine Shuttleworth",2016,,Verso,,272,0,English,,,0,"1784781126,9781784781125",,,,,,,,,,,0,,,,,,1,,2296973,epub,1ac93a3732700443af51099f7b398b50,,,1784781126.epub,0,2000-01-01 01:00:00,2016-11-28 09:20:30,1588000/1ac93a3732700443af51099f7b398b50-d.jpg,Philosophers;Professionals & Academics;Biographies & Memoirs;Criticism & Theory;History & Criticism;Literature & Fiction;German;European;Regional & Cultural;History & Criticism;Literature & Fiction;German;European;World Literature;Literature & Fiction;Ethics & Morality;Philosophy;Politics & Social Sciences;Political;Philosophy;Politics & Social Sciences,"1784781126,9781784781125"
29683695,Insulation Materials in Context of Sustainability,,,,Amjad Almusaed and Asaad Almssad,2016,,ExLi4EvA,,144,0,English,219,,0,978-953-51-2625-6,,,,,,,,,,,0,1,1,0,,,1,1,57635672,pdf,fe26e06f544635784b98c1046a22c8d2,,,"Insulation Materials in Context of Sustainability - Amjad Almusaed, Asaad Almssad (ExLi4EvA, 2016).pdf",0,2000-01-01 01:00:00,2016-11-28 09:20:39,1588000/fe26e06f544635784b98c1046a22c8d2-g.jpg,,9789535126256
29683696,"Quantifying Life: A Symbiosis of Computation, Mathematics, and Biology",,,,Dmitry A. Kondrashov,2016,,University Of Chicago Press,,418,0,English,,,0,"022637162X,9780226371627",,,,,,,,,,,0,,,,,,,,15767373,epub,6dac65d42e74f790e8225b518dd1d37a,,,Quantifying Life_ A Symbiosis of Computati - Dmitry A. Kondrashov.epub,0,2000-01-01 01:00:00,2016-11-28 09:28:07,http://ecx.images-amazon.com/images/I/51Ss%2B6mLLsL.jpg,"Biological Sciences;Anatomy;Animals;Bacteriology;Biochemistry;Bioelectricity;Bioinformatics;Biology;Biophysics;Biotechnology;Botany;Ecology;Genetics;Paleontology;Plants;Taxonomic Classification;Zoology;Science & Math;Reference;Mathematics;Science & Math;Biology & Life Sciences;Anatomy & Physiology;Biology;Botany;Ecology;Zoology;Science & Mathematics;New, Used & Rental Textbooks;Specialty Boutique;Mathematics;Algebra & Trigonometry;Calculus;Geometry;Statistics;Science & Mathematics;New, Used & Re","022637162X,9780226371627"
29683697,Programmer en langage C : cours et exercices corrigées,,,,"Delannoy, Claude",2016,5,Eyrolles,Paris,267,281,French,,,0,"9782212118254,2212118252",,,,,,,,,,,0,,,,,,,1,47867386,pdf,9724e2a93bb040ebc124a3686b13ce8a,,,Programmer en langage C - Cours et exercices corrige¦Бs.o.pdf,0,2000-01-01 01:00:00,2016-11-28 09:39:27,1587000/9724e2a93bb040ebc124a3686b13ce8a-g.jpg,C (langage de programmation) -- Problèmes et exercices,"9782212118254,2212118252"
29683698,Ничто,,,,Уэбб Д. (ред.),2016,1,Лаборатория знаний,Москва,240,242,Russian,181,,0,978-5-93208-214-0,,,,,,,,,,"невысокое, но приемлемое разрешение",100,,,,,0,0,0,27193367,pdf,32ab31b51a6131b51e191bd5c4a6d347,,,антология ничто.pdf,0,2000-01-01 01:00:00,2016-11-28 10:07:28,http://i84.fastpic.ru/big/2016/1128/d3/a871d7d610d97b1ef730a369b919c1d3.jpg,,9785932082140
29683699,Театрал,,,,Греч Н.И.,1853,,Типография Н. Греча,,,162,Russian,,,,-,,,,,,,,,,,0,,,,,,0,1,37959134,pdf,25c2fd4d768b164089e605624a96fb6a,,,Греч Н.И.;Театрал;;;Типография Н. Греча;1853;-;;Russian,0,2000-01-01 01:00:00,2016-11-28 10:07:36,1573000/25c2fd4d768b164089e605624a96fb6a-g.jpg,,
29683700,Иллюстрированный практический путеводитель по Одессе,,,,Москвич Г.Г.,1904,,Типография Л. Нитче (Одесса),,,193,Russian,,,,-,,,,,,,,,,,0,,,,,,0,1,114294202,pdf,6056c19c1332a4c10e4a7a718155860f,,,Москвич Г.Г.;Иллюстрированный практический путеводитель по Одессе;;;Типография Л. Нитче (Одесса);1904;-;;Russian,0,2000-01-01 01:00:00,2016-11-28 10:07:36,1577000/6056c19c1332a4c10e4a7a718155860f-g.jpg,,
29683701,«Отчизну сердцем защитили»  Стихи поэтов Тейковского района,,,,,2011,,"ОАО «Издательство «Иваново»,",,,64,Russian,,,,-,,,,,,,,,,,0,,,,,,0,1,2010197,pdf,ca229279281b8a331bc80b0e6cfa53f2,,,";«Отчизну сердцем защитили»  Стихи поэтов Тейковского района;;;ОАО «Издательство «Иваново»,;2011;-;;Russian",0,2000-01-01 01:00:00,2016-11-28 10:07:36,1585000/ca229279281b8a331bc80b0e6cfa53f2-g.jpg,,
29683702,Recettes Angéliques. Le bœuf: Le goût d’être ensemble,,,,(Collective),2012,,INTERBEV,,0,32,French,,,0,-,,,,,,,,,,,0,,,,,,0,1,3164060,pdf,be017384eb788f84803d6cf2728a3a68,,,;Recettes Angliques. Le boeuf Le got d’tre ensemble;;;INTERBEV;2012;-;;French,0,2000-01-01 01:00:00,2016-11-28 10:07:36,1585000/be017384eb788f84803d6cf2728a3a68-g.jpg,,
29683703,A World Of Animals Vol. 2,,Painting- Animals,,Ana Bernabe,2002,,Viking folk Art,,,60,English,,,,-,,,,,,,,,,,0,,,,,,0,0,50405079,pdf,857f613ba692b86d043d09c24061c24a,,,Ana Bernabe;A World Of Animals Vol. 2;Painting- Animals;;Viking folk Art;2002;-;;English,0,2000-01-01 01:00:00,2016-11-28 10:07:36,1585000/857f613ba692b86d043d09c24061c24a-g.jpg,,
29683704,A World Of Animals Vol. 3,,Painting- Animals,,Ana Bernabe,2003,,Viking folk Art,,,65,English,,,,-,,,,,,,,,,,0,,,,,,0,0,46544505,pdf,d2dbe9b1e95bf109a85cf033d923f5a2,,,Ana Bernabe;A World Of Animals Vol. 3;Painting- Animals;;Viking folk Art;2003;-;;English,0,2000-01-01 01:00:00,2016-11-28 10:07:36,1585000/d2dbe9b1e95bf109a85cf033d923f5a2-g.jpg,,
29683705,20 Easy DIY Holiday Craft,,,,Collective,2015,,FloraCraft,,0,58,English,,,0,-,,,,,,,,,,,0,,,,,,0,1,19194778,pdf,b5d1f6e32d9acffad14ecfb28dac3ac6,,,"Collective;20 Easy DIY Holiday Craft;;;FloraCraft, Prime Publishing LLC;2015;-;;English",0,2000-01-01 01:00:00,2016-11-28 10:07:36,1585000/b5d1f6e32d9acffad14ecfb28dac3ac6-g.jpg,,
29683706,О науке [Сборник],,,,Пуанкаре А (Poincare H.),1990,"2-е изд., стер",Наука,Москва,736,0,Russian,113,aga,0,5-02-014328-6,,,,,,,,,,"обрезал поля, 300-DPI",0,,,,,,,1,6077285,djvu,c636e91f9878cdff211a15cbb4fa21e4,,,Пуанкаре А - О науке [Сборник] - Наука 1990 (aga+ocr).djvu,0,2000-01-01 01:00:00,2016-11-28 10:36:51,,,5020143286
29683707,Comprendre le nombre d’Or sans les mathématiques,6 MO,,,Grimault Jacques -,2016,,,,60,60,French,113,,0,,,,,,,,,,,,0,,,,,,,1,5664697,pdf,d699f5723d75f657a6bb3534ee59b33d,,,Grimault Jacques - Comprendre le nombre d_Or.pdf,0,2000-01-01 01:00:00,2016-11-28 10:41:24,1588000/d699f5723d75f657a6bb3534ee59b33d-g.jpg,,
29683708,Les insertions lyriques dans les romans en vers du XIIIe siècle,,,,"Laurent, François",2007,,Université de Limoges,Limoges,521 + 171,692,French,102,,0,,,,,,,,,,,Thèse de doctorat,0,,,,,,,1,5275053,pdf,8d1a7f1468b9bdda5a91b08ede5365c1,,,laurent-francois.pdf,0,2000-01-01 01:00:00,2016-11-28 10:41:54,1588000/8d1a7f1468b9bdda5a91b08ede5365c1-g.jpg,Roman médiéval -- Thèses et écrits académiques;Lyrisme (littérature) -- Thèses et écrits académiques,
29683709,Analisi musicale e giudizio estetico,,,,Carl Dahlhaus,1987,,il Mulino,,49,49,Italian,61,,0,88-15-01462-4,,,,,,,,,,,600,0,0,1,,1,,0,4537426,pdf,f17b80e7175ffcafaecce3090bb8e361,,,"C. DAHLHAUS_Analisi musicale e giudizio estetico, Bologna, Il Mulino 1987.pdf",0,2000-01-01 01:00:00,2016-11-28 10:46:03,1588000/f17b80e7175ffcafaecce3090bb8e361-g.jpg,,8815014624
29683710,Театрал,,,,Греч Н.И.,1853,,Типография Н. Греча,,,162,Russian,,,,-,,,,,,,,,,,0,,,,,,0,1,37959134,pdf,25c2fd4d768b164089e605624a96fb6a,,,Греч Н.И.;Театрал;;;Типография Н. Греча;1853;-;;Russian,0,2000-01-01 01:00:00,2016-11-28 11:07:37,1573000/25c2fd4d768b164089e605624a96fb6a-g.jpg,,
29683711,Иллюстрированный практический путеводитель по Одессе,,,,Москвич Г.Г.,1904,,Типография Л. Нитче (Одесса),,,193,Russian,,,,-,,,,,,,,,,,0,,,,,,0,1,114294202,pdf,6056c19c1332a4c10e4a7a718155860f,,,Москвич Г.Г.;Иллюстрированный практический путеводитель по Одессе;;;Типография Л. Нитче (Одесса);1904;-;;Russian,0,2000-01-01 01:00:00,2016-11-28 11:07:37,1577000/6056c19c1332a4c10e4a7a718155860f-g.jpg,,
29683712,«Отчизну сердцем защитили»  Стихи поэтов Тейковского района,,,,,2011,,"ОАО «Издательство «Иваново»,",,,64,Russian,,,,-,,,,,,,,,,,0,,,,,,0,1,2010197,pdf,ca229279281b8a331bc80b0e6cfa53f2,,,";«Отчизну сердцем защитили»  Стихи поэтов Тейковского района;;;ОАО «Издательство «Иваново»,;2011;-;;Russian",0,2000-01-01 01:00:00,2016-11-28 11:07:37,1585000/ca229279281b8a331bc80b0e6cfa53f2-g.jpg,,
29683713,Recettes Angéliques. Le bœuf: Le goût d’être ensemble,,,,(Collective),2012,,INTERBEV,,0,32,French,,,0,-,,,,,,,,,,,0,,,,,,0,1,3164060,pdf,be017384eb788f84803d6cf2728a3a68,,,;Recettes Angliques. Le boeuf Le got d’tre ensemble;;;INTERBEV;2012;-;;French,0,2000-01-01 01:00:00,2016-11-28 11:07:37,1585000/be017384eb788f84803d6cf2728a3a68-g.jpg,,
29683714,A World Of Animals Vol. 2,,Painting- Animals,,Ana Bernabe,2002,,Viking folk Art,,,60,English,,,,-,,,,,,,,,,,0,,,,,,0,0,50405079,pdf,857f613ba692b86d043d09c24061c24a,,,Ana Bernabe;A World Of Animals Vol. 2;Painting- Animals;;Viking folk Art;2002;-;;English,0,2000-01-01 01:00:00,2016-11-28 11:07:37,1585000/857f613ba692b86d043d09c24061c24a-g.jpg,,
29683715,A World Of Animals Vol. 3,,Painting- Animals,,Ana Bernabe,2003,,Viking folk Art,,,65,English,,,,-,,,,,,,,,,,0,,,,,,0,0,46544505,pdf,d2dbe9b1e95bf109a85cf033d923f5a2,,,Ana Bernabe;A World Of Animals Vol. 3;Painting- Animals;;Viking folk Art;2003;-;;English,0,2000-01-01 01:00:00,2016-11-28 11:07:37,1585000/d2dbe9b1e95bf109a85cf033d923f5a2-g.jpg,,
29683716,20 Easy DIY Holiday Craft,,,,Collective,2015,,FloraCraft,,0,58,English,,,0,-,,,,,,,,,,,0,,,,,,0,1,19194778,pdf,b5d1f6e32d9acffad14ecfb28dac3ac6,,,"Collective;20 Easy DIY Holiday Craft;;;FloraCraft, Prime Publishing LLC;2015;-;;English",0,2000-01-01 01:00:00,2016-11-28 11:07:37,1585000/b5d1f6e32d9acffad14ecfb28dac3ac6-g.jpg,,
29683717,Treatise on Invertebrate Paleontology - Part S - Echinodermata 1,1,Treatise on Invertebrate Paleontology,,"Moore, Raymond C. & Teichert, Curt",0,,,,326,326,English,24,,0,,,,,,,,,,,,0,,,,,,,0,30688382,pdf,1a4e2e6f61cf9315cd70d3c41e3da2a4,,,Treatise on Invertebrate Paleontology - Part S - Echinodermata 1 volume 1 - Moore Ed. (1967).pdf,0,2000-01-01 01:00:00,2016-11-28 11:38:19,,,
29683718,Open Fire on Revisionist Betrayal,,,,"Naim Frasheri Publishing House, 1969",,,,,35,35,English,,,до 2011-01,,,,,,,,,,,,0,,,,,,,0,40040581,pdf,A9546DB89F0B587B45BF7E37DEE9B5C8,,,D:\\!genesis\\library.nu\\a9\\_309808.a9546db89f0b587b45bf7e37dee9b5c8.pdf,0,2000-01-01 01:00:00,2016-11-28 11:38:36,510000/a9546db89f0b587b45bf7e37dee9b5c8-g.jpg,,
29683719,Keywords of Mobility: Critical Engagements,,Worlds in Motion,,"Noel B. Salazar, Kiran Jayaram",2016,1,Berghahn Books,,196,197,English,,,0,"1785331469,9781785331466",,,,,,,,,,,0,,,,,,,1,1299118,pdf,1ef9cf5a3d8580b43bc21fa3e0d176e0,,,Keywords of Mobility.pdf,0,2000-01-01 01:00:00,2016-11-28 11:42:49,,"Travel;Adventure Travel;Food, Lodging & Transportation;Pictorial;Reference;Specialty Travel;Travel Writing;Africa;Asia;Australia & South Pacific;Canada;Caribbean;Central America;Europe;Mexico;Middle East;Polar Regions;South America;United States;Emigration & Immigration;Social Sciences;Politics & Social Sciences;Cultural;Anthropology;Politics & Social Sciences;Anthropology;Social Sciences;New, Used & Rental Textbooks;Specialty Boutique","1785331469,9781785331466"
29683720,BTS Commerce International - Manuel,,,,"Ghislaine Legrand, Hubert Martini",2008,,Dunod,,456,456,French ,,,до 2011-08,"2100519263,9782100519262",,,,,,,,,,,0,,,,,1,,1,9074657,pdf,4DE7D7F331BDF8478C9194041189CCA4,,,_423728.4de7d7f331bdf8478c9194041189cca4.pdf,0,2000-01-01 01:00:00,2016-11-28 11:49:36,690000/4de7d7f331bdf8478c9194041189cca4-g.jpg,,"2100519263,9782100519262"
29683721,Teoria Estética de Adorno como uma Dialética Negativa do Gosto,,0,,Amarildo Malvezzi,0,,,,16,16,Portuguese,196,,0,,,,,,,,,,,,0,,,,,,,1,257966,pdf,95f946f8b1475aa5ab65bedf058274f0,,,Teoria Estética de Adorno como uma Dialética Negativa do Gosto - Amarildo Malvezzi.pdf,0,2000-01-01 01:00:00,2016-11-28 11:55:41,,,
29683722,"Miroslav Vitous , Alphonse Johnson , Jaco Pastorius , Victor Bailey , Weather Report , Double Bass , Fusion Music",,,,"MARK STEVEN FRANDSEN, B.M., M.M.",2010,,Texas Tech University,Texas,169,169,english,61,,0,,,,,,,,,,,,300,0,0,0,1,0,1,1,699769,pdf,ade48e3821dd8797b9a5665a3d6cc7e6,,,miroslav.pdf,0,2000-01-01 01:00:00,2016-11-28 12:03:38,,,
29683723,Treatise on Invertebrate Paleontology - Part W - Suplement 1 - Trace Fossil,1,Treatise on Invertebrate Paleontology,,"Moore, Raymond C. & Teichert, Curt",0,,,,291,291,English,24,,0,,,,,,,,,,,,0,,,,,,,0,32457195,pdf,2b1342f217faef6bc35a506dba05b787,,,Treatise on Invertebrate Paleontology - Part W - Suplement 1 - Trace Fossil - Teichert Ed (1975).pdf,0,2000-01-01 01:00:00,2016-11-28 12:05:35,,,
29683724,Театрал,,,,Греч Н.И.,1853,,Типография Н. Греча,,,162,Russian,,,,-,,,,,,,,,,,0,,,,,,0,1,37959134,pdf,25c2fd4d768b164089e605624a96fb6a,,,Греч Н.И.;Театрал;;;Типография Н. Греча;1853;-;;Russian,0,2000-01-01 01:00:00,2016-11-28 12:07:36,1573000/25c2fd4d768b164089e605624a96fb6a-g.jpg,,
29683725,Иллюстрированный практический путеводитель по Одессе,,,,Москвич Г.Г.,1904,,Типография Л. Нитче (Одесса),,,193,Russian,,,,-,,,,,,,,,,,0,,,,,,0,1,114294202,pdf,6056c19c1332a4c10e4a7a718155860f,,,Москвич Г.Г.;Иллюстрированный практический путеводитель по Одессе;;;Типография Л. Нитче (Одесса);1904;-;;Russian,0,2000-01-01 01:00:00,2016-11-28 12:07:36,1577000/6056c19c1332a4c10e4a7a718155860f-g.jpg,,
29683726,«Отчизну сердцем защитили»  Стихи поэтов Тейковского района,,,,,2011,,"ОАО «Издательство «Иваново»,",,,64,Russian,,,,-,,,,,,,,,,,0,,,,,,0,1,2010197,pdf,ca229279281b8a331bc80b0e6cfa53f2,,,";«Отчизну сердцем защитили»  Стихи поэтов Тейковского района;;;ОАО «Издательство «Иваново»,;2011;-;;Russian",0,2000-01-01 01:00:00,2016-11-28 12:07:36,1585000/ca229279281b8a331bc80b0e6cfa53f2-g.jpg,,
29683727,Recettes Angéliques. Le bœuf: Le goût d’être ensemble,,,,(Collective),2012,,INTERBEV,,0,32,French,,,0,-,,,,,,,,,,,0,,,,,,0,1,3164060,pdf,be017384eb788f84803d6cf2728a3a68,,,;Recettes Angliques. Le boeuf Le got d’tre ensemble;;;INTERBEV;2012;-;;French,0,2000-01-01 01:00:00,2016-11-28 12:07:36,1585000/be017384eb788f84803d6cf2728a3a68-g.jpg,,
29683728,A World Of Animals Vol. 2,,Painting- Animals,,Ana Bernabe,2002,,Viking folk Art,,,60,English,,,,-,,,,,,,,,,,0,,,,,,0,0,50405079,pdf,857f613ba692b86d043d09c24061c24a,,,Ana Bernabe;A World Of Animals Vol. 2;Painting- Animals;;Viking folk Art;2002;-;;English,0,2000-01-01 01:00:00,2016-11-28 12:07:36,1585000/857f613ba692b86d043d09c24061c24a-g.jpg,,
29683729,A World Of Animals Vol. 3,,Painting- Animals,,Ana Bernabe,2003,,Viking folk Art,,,65,English,,,,-,,,,,,,,,,,0,,,,,,0,0,46544505,pdf,d2dbe9b1e95bf109a85cf033d923f5a2,,,Ana Bernabe;A World Of Animals Vol. 3;Painting- Animals;;Viking folk Art;2003;-;;English,0,2000-01-01 01:00:00,2016-11-28 12:07:36,1585000/d2dbe9b1e95bf109a85cf033d923f5a2-g.jpg,,
29683730,20 Easy DIY Holiday Craft,,,,Collective,2015,,FloraCraft,,0,58,English,,,0,-,,,,,,,,,,,0,,,,,,0,1,19194778,pdf,b5d1f6e32d9acffad14ecfb28dac3ac6,,,"Collective;20 Easy DIY Holiday Craft;;;FloraCraft, Prime Publishing LLC;2015;-;;English",0,2000-01-01 01:00:00,2016-11-28 12:07:36,1585000/b5d1f6e32d9acffad14ecfb28dac3ac6-g.jpg,,
29683731,The Diplomat in the Corner Office: Corporate Foreign Policy,,,,Timothy L. Fort,2015,,Stanford Business Books,,224,224,English,,,0,"978-0-8047-8637-9,978-0-8047-9660-6",,,,,,,,,,,0,,,,,,,1,1252170,pdf,02487783d1c06774d60110f3430c88b7,,,Fort - The Diplomat in the Corner Office.pdf,0,2000-01-01 01:00:00,2016-11-28 12:48:21,,Ethics;Business Culture;Business & Money;Education & Reference;CPA Test;GMAT Test;Statistics;Business & Money;Government & Business;Processes & Infrastructure;Business & Money;War & Peace;Specific Topics;Politics & Government;Politics & Social Sciences,"9780804786379,9780804796606"
29683732,"Miroslav Vitous , Alphonse Johnson , Jaco Pastorius , Victor Bailey , Weather Report , Double Bass , Fusion Music",,,,"MARK STEVEN FRANDSEN, B.M., M.M.",2010,,Texas Tech University,Texas,169,169,english,61,,0,,,,,,,,,,,,300,0,0,0,1,0,1,1,699769,pdf,ade48e3821dd8797b9a5665a3d6cc7e6,,,miroslav.pdf,0,2000-01-01 01:00:00,2016-11-28 12:51:40,1588000/ade48e3821dd8797b9a5665a3d6cc7e6-g.jpg,,
29683733,"Miroslav Vitous , Alphonse Johnson , Jaco Pastorius , Victor Bailey , Weather Report , Double Bass , Fusion Music",,,,Mark Steven Frandsen,2010,,Texas Tech University,Texas,169,169,English,61,,0,,,,,,,,,,,,300,0,0,0,1,0,1,1,699769,pdf,ade48e3821dd8797b9a5665a3d6cc7e6,,,miroslav.pdf,0,2000-01-01 01:00:00,2016-11-28 12:51:50,1588000/ade48e3821dd8797b9a5665a3d6cc7e6-g.jpg,,
29683734,Les insertions lyriques dans les romans en vers du XIIIe siècle [PhD diss.],,,,"Laurent, François",2007,,Université de Limoges,Limoges,521 + 171,692,French,102,,0,,,,,,,,,,,,0,,,,,,,1,5275053,pdf,8d1a7f1468b9bdda5a91b08ede5365c1,,,laurent-francois.pdf,0,2000-01-01 01:00:00,2016-11-28 12:53:47,1588000/8d1a7f1468b9bdda5a91b08ede5365c1-g.jpg,Roman médiéval -- Thèses et écrits académiques;Lyrisme (littérature) -- Thèses et écrits académiques,
29683735,Театрал,,,,Греч Н.И.,1853,,Типография Н. Греча,,,162,Russian,,,,-,,,,,,,,,,,0,,,,,,0,1,37959134,pdf,25c2fd4d768b164089e605624a96fb6a,,,Греч Н.И.;Театрал;;;Типография Н. Греча;1853;-;;Russian,0,2000-01-01 01:00:00,2016-11-28 13:07:36,1573000/25c2fd4d768b164089e605624a96fb6a-g.jpg,,
29683736,Иллюстрированный практический путеводитель по Одессе,,,,Москвич Г.Г.,1904,,Типография Л. Нитче (Одесса),,,193,Russian,,,,-,,,,,,,,,,,0,,,,,,0,1,114294202,pdf,6056c19c1332a4c10e4a7a718155860f,,,Москвич Г.Г.;Иллюстрированный практический путеводитель по Одессе;;;Типография Л. Нитче (Одесса);1904;-;;Russian,0,2000-01-01 01:00:00,2016-11-28 13:07:36,1577000/6056c19c1332a4c10e4a7a718155860f-g.jpg,,
29683737,«Отчизну сердцем защитили»  Стихи поэтов Тейковского района,,,,,2011,,"ОАО «Издательство «Иваново»,",,,64,Russian,,,,-,,,,,,,,,,,0,,,,,,0,1,2010197,pdf,ca229279281b8a331bc80b0e6cfa53f2,,,";«Отчизну сердцем защитили»  Стихи поэтов Тейковского района;;;ОАО «Издательство «Иваново»,;2011;-;;Russian",0,2000-01-01 01:00:00,2016-11-28 13:07:36,1585000/ca229279281b8a331bc80b0e6cfa53f2-g.jpg,,
29683738,Recettes Angéliques. Le bœuf: Le goût d’être ensemble,,,,(Collective),2012,,INTERBEV,,0,32,French,,,0,-,,,,,,,,,,,0,,,,,,0,1,3164060,pdf,be017384eb788f84803d6cf2728a3a68,,,;Recettes Angliques. Le boeuf Le got d’tre ensemble;;;INTERBEV;2012;-;;French,0,2000-01-01 01:00:00,2016-11-28 13:07:36,1585000/be017384eb788f84803d6cf2728a3a68-g.jpg,,
29683739,A World Of Animals Vol. 2,,Painting- Animals,,Ana Bernabe,2002,,Viking folk Art,,,60,English,,,,-,,,,,,,,,,,0,,,,,,0,0,50405079,pdf,857f613ba692b86d043d09c24061c24a,,,Ana Bernabe;A World Of Animals Vol. 2;Painting- Animals;;Viking folk Art;2002;-;;English,0,2000-01-01 01:00:00,2016-11-28 13:07:36,1585000/857f613ba692b86d043d09c24061c24a-g.jpg,,
29683740,A World Of Animals Vol. 3,,Painting- Animals,,Ana Bernabe,2003,,Viking folk Art,,,65,English,,,,-,,,,,,,,,,,0,,,,,,0,0,46544505,pdf,d2dbe9b1e95bf109a85cf033d923f5a2,,,Ana Bernabe;A World Of Animals Vol. 3;Painting- Animals;;Viking folk Art;2003;-;;English,0,2000-01-01 01:00:00,2016-11-28 13:07:36,1585000/d2dbe9b1e95bf109a85cf033d923f5a2-g.jpg,,
29683741,20 Easy DIY Holiday Craft,,,,Collective,2015,,FloraCraft,,0,58,English,,,0,-,,,,,,,,,,,0,,,,,,0,1,19194778,pdf,b5d1f6e32d9acffad14ecfb28dac3ac6,,,"Collective;20 Easy DIY Holiday Craft;;;FloraCraft, Prime Publishing LLC;2015;-;;English",0,2000-01-01 01:00:00,2016-11-28 13:07:36,1585000/b5d1f6e32d9acffad14ecfb28dac3ac6-g.jpg,,
29683742,Mediating Modernity: Challenges and Trends in the Jewish Encounter with the Modern World,,,,"Lauren B. Strauss, Michael Brenner",2008,,Wayne State University Press,,392,396,English,,,0,"0814333958,9780814333952",,,,,,,,,,,0,,,,,,,1,19004884,pdf,fce744dec0ed65c6c7a779fff8ac4b05,,,Mediating Modernity  Challenges and Trends in the Jewish Encount.pdf,0,2000-01-01 01:00:00,2016-11-28 13:54:22,http://ecx.images-amazon.com/images/I/51-6Z4mN88L.jpg,"Criticism & Theory;History & Criticism;Literature & Fiction;Jewish;Regional & Cultural;History & Criticism;Literature & Fiction;Politics & Social Sciences;Anthropology;Archaeology;Philosophy;Politics & Government;Social Sciences;Sociology;Women’s Studies;World Literature;African & Middle Eastern;Asian;European;Latin American;Literature;Humanities;New, Used & Rental Textbooks;Specialty Boutique;History;Africa;Ancient;Asia;Europe;Latin America;Middle East;Military;United States;Humanities;New, U","0814333958,9780814333952"
29683743,Театрал,,,,Греч Н.И.,1853,,Типография Н. Греча,,,162,Russian,,,,-,,,,,,,,,,,0,,,,,,0,1,37959134,pdf,25c2fd4d768b164089e605624a96fb6a,,,Греч Н.И.;Театрал;;;Типография Н. Греча;1853;-;;Russian,0,2000-01-01 01:00:00,2016-11-28 14:07:36,1573000/25c2fd4d768b164089e605624a96fb6a-g.jpg,,
29683744,Иллюстрированный практический путеводитель по Одессе,,,,Москвич Г.Г.,1904,,Типография Л. Нитче (Одесса),,,193,Russian,,,,-,,,,,,,,,,,0,,,,,,0,1,114294202,pdf,6056c19c1332a4c10e4a7a718155860f,,,Москвич Г.Г.;Иллюстрированный практический путеводитель по Одессе;;;Типография Л. Нитче (Одесса);1904;-;;Russian,0,2000-01-01 01:00:00,2016-11-28 14:07:36,1577000/6056c19c1332a4c10e4a7a718155860f-g.jpg,,
29683745,«Отчизну сердцем защитили»  Стихи поэтов Тейковского района,,,,,2011,,"ОАО «Издательство «Иваново»,",,,64,Russian,,,,-,,,,,,,,,,,0,,,,,,0,1,2010197,pdf,ca229279281b8a331bc80b0e6cfa53f2,,,";«Отчизну сердцем защитили»  Стихи поэтов Тейковского района;;;ОАО «Издательство «Иваново»,;2011;-;;Russian",0,2000-01-01 01:00:00,2016-11-28 14:07:36,1585000/ca229279281b8a331bc80b0e6cfa53f2-g.jpg,,
29683746,Recettes Angéliques. Le bœuf: Le goût d’être ensemble,,,,(Collective),2012,,INTERBEV,,0,32,French,,,0,-,,,,,,,,,,,0,,,,,,0,1,3164060,pdf,be017384eb788f84803d6cf2728a3a68,,,;Recettes Angliques. Le boeuf Le got d’tre ensemble;;;INTERBEV;2012;-;;French,0,2000-01-01 01:00:00,2016-11-28 14:07:36,1585000/be017384eb788f84803d6cf2728a3a68-g.jpg,,
29683747,A World Of Animals Vol. 2,,Painting- Animals,,Ana Bernabe,2002,,Viking folk Art,,,60,English,,,,-,,,,,,,,,,,0,,,,,,0,0,50405079,pdf,857f613ba692b86d043d09c24061c24a,,,Ana Bernabe;A World Of Animals Vol. 2;Painting- Animals;;Viking folk Art;2002;-;;English,0,2000-01-01 01:00:00,2016-11-28 14:07:36,1585000/857f613ba692b86d043d09c24061c24a-g.jpg,,
29683748,A World Of Animals Vol. 3,,Painting- Animals,,Ana Bernabe,2003,,Viking folk Art,,,65,English,,,,-,,,,,,,,,,,0,,,,,,0,0,46544505,pdf,d2dbe9b1e95bf109a85cf033d923f5a2,,,Ana Bernabe;A World Of Animals Vol. 3;Painting- Animals;;Viking folk Art;2003;-;;English,0,2000-01-01 01:00:00,2016-11-28 14:07:36,1585000/d2dbe9b1e95bf109a85cf033d923f5a2-g.jpg,,
29683749,20 Easy DIY Holiday Craft,,,,Collective,2015,,FloraCraft,,0,58,English,,,0,-,,,,,,,,,,,0,,,,,,0,1,19194778,pdf,b5d1f6e32d9acffad14ecfb28dac3ac6,,,"Collective;20 Easy DIY Holiday Craft;;;FloraCraft, Prime Publishing LLC;2015;-;;English",0,2000-01-01 01:00:00,2016-11-28 14:07:36,1585000/b5d1f6e32d9acffad14ecfb28dac3ac6-g.jpg,,
29683750,Allen's Astrophysical Quantities,,,,Arthur N. Cox,2000,,Springer,,,367,English,,,,0387987460,,,,,,,,,,,0,,,,,,0,0,12465905,djvu,c22f050860713d91ebe8e84be382469b,,,Arthur N. Cox;Allen's Astrophysical Quantities;;;Springer;2000;0387987460;;English,0,2000-01-01 01:00:00,2016-11-28 14:07:36,1588000/c22f050860713d91ebe8e84be382469b-g.jpg,,
29683751,Ras Signaling  Methods and Protocols,,,,"Lorenza Trabalzini, Saverio Francesco Retta",2014,,Humana Press,,,428,English,,,,978-1627037907,,,,,,,,,,,0,,,,,,0,1,11400273,pdf,0d2309c89845f69690c1ac7067461f3e,,,"Lorenza Trabalzini, Saverio Francesco Retta;Ras Signaling  Methods and Protocols;;;Humana Press; 2014;978-1627037907;;English",0,2000-01-01 01:00:00,2016-11-28 14:07:36,1588000/0d2309c89845f69690c1ac7067461f3e-g.jpg,,
29683752,Генетика  учебное пособие,,,,А.А. Сазанов,2011,,ЛГУ им. А.С. Пушкина,,,265,Russian,,,,978-5-8290-1081-2,,,,,,,,,,,0,,,,,,0,1,12575954,pdf,92972000e6ea6fe631295985fba63488,,,А.А. Сазанов;Генетика  учебное пособие;;;ЛГУ им. А.С. Пушкина;2011;978-5-8290-1081-2;;Russian,0,2000-01-01 01:00:00,2016-11-28 14:07:36,1588000/92972000e6ea6fe631295985fba63488-g.jpg,,
29683753,Избранное,,Зарубежная фантастика (Избранное),,Азимов А.,1991,,«Мир»,,,532,Russian,,,,5-03-002744-0,,,,,,,,,,,0,,,,,,0,1,12363435,pdf,99aa9b01eee775fa79d379f4bd965370,,,Азимов А.;Избранное;Зарубежная фантастика (Избранное);;«Мир»;1991;5-03-002744-0;;Russian,0,2000-01-01 01:00:00,2016-11-28 14:07:36,1588000/99aa9b01eee775fa79d379f4bd965370-g.jpg,,
29683754,Сказки русских писателей,,Все лучшие сказки,,"Аксаков С.Т., Телешов Н.Д., Чарская Л.А., Мамин-Сибиряк Д.Н., Шварц Е.Л.",2014,,Росмэн,,,136,Russian,,,,978-5-353-06799-3,,,,,,,,,,,0,,,,,,0,0,112724321,pdf,f885e17188100bdb7e536f183e9d80f6,,,"Аксаков С.Т., Телешов Н.Д., Чарская Л.А., Мамин-Сибиряк Д.Н., Шварц Е.Л.;Сказки русских писателей;Все лучшие сказки;;Росмэн;2014;978-5-353-06799-3;;Russian",0,2000-01-01 01:00:00,2016-11-28 14:07:36,1588000/f885e17188100bdb7e536f183e9d80f6-g.jpg,,
29683755,Экологическая геохимия  Учебник,,,,Алексеенко В.А.,2000,,Логос,,,319,Russian,,,,5-88439-001-7,,,,,,,,,,,0,,,,,,0,0,12224643,djvu,6e55940e49beead172454a57b6c923ca,,,Алексеенко В.А.;Экологическая геохимия  Учебник;;;Логос;2000;5-88439-001-7;;Russian,0,2000-01-01 01:00:00,2016-11-28 14:07:36,1588000/6e55940e49beead172454a57b6c923ca-g.jpg,,
29683756,Физики не шутят  Страницы соц. истории Науч.-исслед. ин-та физики при МГУ,,,,Андреев А.В.,2000,,Прогресс-Традиция,,,321,Russian,,,,5-89826-055-2,,,,,,,,,,,0,,,,,,0,0,11381248,pdf,8d8b7ccf2b660d4757023a353c2c6c45,,,Андреев А.В.;Физики не шутят  Страницы соц. истории Науч.-исслед. ин-та физики при МГУ;;;Прогресс-Традиция;2000;5-89826-055-2;;Russian,0,2000-01-01 01:00:00,2016-11-28 14:07:36,1588000/8d8b7ccf2b660d4757023a353c2c6c45-g.jpg,,
29683757,Наследство,,,,Андрей Блинов,1988,,Военное издательство,,,425,Russian,,,,5-203-00072-7,,,,,,,,,,,0,,,,,,0,1,12166808,pdf,b7d6e08a2094532664594a418767ebc7,,,Андрей Блинов;Наследство;;;Военное издательство;1988;5-203-00072-7;;Russian,0,2000-01-01 01:00:00,2016-11-28 14:07:36,1588000/b7d6e08a2094532664594a418767ebc7-g.jpg,,
29683758,Избранные фантастические произведения. Т. 2. Звездная стража,,Англо-американская фантастика XX века,,Андрэ Нортон,1992,,"Зеленоградская книга, Ангарск  Амбер, Лтд.,",,,530,Russian,,,,5-86314-007-0,,,,,,,,,,,0,,,,,,0,1,12596956,djvu,2033c440603c0755c49fd748cbba306a,,,"Андрэ Нортон;Избранные фантастические произведения. Т. 2. Звездная стража;Англо-американская фантастика XX века;;Зеленоградская книга, Ангарск  Амбер, Лтд.,;1992;5-86314-007-0;;Russian",0,2000-01-01 01:00:00,2016-11-28 14:07:36,1588000/2033c440603c0755c49fd748cbba306a-g.jpg,,
29683759,Методы изогеометрической аппроксимации сплайнами,,,,Б.И. Квасов,2006,,ФИЗМАТЛИТ,,,362,Russian,,,,5-9221-0733-X,,,,,,,,,,,0,,,,,,0,0,12394942,pdf,ee9634099088b897d6947908ad93291f,,,Б.И. Квасов;Методы изогеометрической аппроксимации сплайнами;;;ФИЗМАТЛИТ;2006;5-9221-0733-X;;Russian,0,2000-01-01 01:00:00,2016-11-28 14:07:36,1588000/ee9634099088b897d6947908ad93291f-g.jpg,,
29683760,Курс общей физики для природопользователей. Механика,,Учебная литература для вузов,,"Бармасов А.В., Холмогоров В.Е.",2008,,БХВ-Петербург,,,411,Russian,,,,978-5-94157-729-3,,,,,,,,,,,0,,,,,,0,1,11733574,pdf,da71b1a2fabbe1d10e071da8b9b867c5,,,"Бармасов А.В., Холмогоров В.Е.;Курс общей физики для природопользователей. Механика;Учебная литература для вузов;;БХВ-Петербург;2008;978-5-94157-729-3;;Russian",0,2000-01-01 01:00:00,2016-11-28 14:07:36,1588000/da71b1a2fabbe1d10e071da8b9b867c5-g.jpg,,
29683761,Курс общей физики для природопользователей. Молекулярная физика и термодинамика,,Учебная литература для вузов,,"Бармасов А.В., Холмогоров В.Е.",2009,,БХВ-Петербург,,,499,Russian,,,,978-5-94157-731-6,,,,,,,,,,,0,,,,,,0,1,11613200,pdf,c9259ee1906ef5fa5e80829eb3008a4d,,,"Бармасов А.В., Холмогоров В.Е.;Курс общей физики для природопользователей. Молекулярная физика и термодинамика;Учебная литература для вузов;;БХВ-Петербург;2009;978-5-94157-731-6;;Russian",0,2000-01-01 01:00:00,2016-11-28 14:07:36,1588000/c9259ee1906ef5fa5e80829eb3008a4d-g.jpg,,
29683762,Классификация почв,,,,Безуглова О.С.,2009,,Изд-во Южного федерального университета,,,129,Russian,,,,978-5-9275-0673-6,,,,,,,,,,,0,,,,,,0,0,11854211,pdf,87bebb542237743d4ccc70ac2c22202c,,,Безуглова О.С.;Классификация почв;;;Изд-во Южного федерального университета;2009;978-5-9275-0673-6;;Russian,0,2000-01-01 01:00:00,2016-11-28 14:07:36,1588000/87bebb542237743d4ccc70ac2c22202c-g.jpg,,
29683763,Рассказы о войне,,Школьная библиотека,,"Богомолов В.О., Кассиль Л.А., Митяев А.В., Осеева В.А., Погодин Р.П., Симонов К.М., Толстой А.Н., Шолохов М.А.",2014,,Самовар,,,212,Russian,,,,978-5-9781-0635-0,,,,,,,,,,,0,,,,,,0,0,112888729,pdf,f13a9130ace3aa2b95e7ec8d11f43e8d,,,"Богомолов В.О., Кассиль Л.А., Митяев А.В., Осеева В.А., Погодин Р.П., Симонов К.М., Толстой А.Н., Шолохов М.А.;Рассказы о войне;Школьная библиотека;;Самовар;2014;978-5-9781-0635-0;;Russian",0,2000-01-01 01:00:00,2016-11-28 14:07:36,1588000/f13a9130ace3aa2b95e7ec8d11f43e8d-g.jpg,,
29683764,Комарра. Вселенная Майлза,,Золотая библиотека фантастики,,Буджолд Л.М.,2001,,ООО «Издательство АСТ»,,,580,Russian,,,,5-17-004123-3,,,,,,,,,,,0,,,,,,0,1,12423192,djvu,a99d77a0f248a572af411af1bacf22c1,,,Буджолд Л.М.;Комарра. Вселенная Майлза;Золотая библиотека фантастики;;ООО «Издательство АСТ»;2001;5-17-004123-3;;Russian,0,2000-01-01 01:00:00,2016-11-28 14:07:36,1588000/a99d77a0f248a572af411af1bacf22c1-g.jpg,,
29683765,Органическая химия,,Высшее образование,,"В.Г. Иванов, В.А. Горленко, О.Н. Гева",2003,,Мастерство,,,416,Russian,,,,5-294-00176-4,,,,,,,,,,,0,,,,,,0,0,12195723,djvu,022f4448f022a92b414f4e290abfeb00,,,"В.Г. Иванов, В.А. Горленко, О.Н. Гева;Органическая химия  ;Высшее образование;;Мастерство;2003;5-294-00176-4;;Russian",0,2000-01-01 01:00:00,2016-11-28 14:07:36,1588000/022f4448f022a92b414f4e290abfeb00-g.jpg,,
29683766,Война против Рулл,,ЭЛИТА,,Ван Вогт А. Е.,1993,,АО «ЭГОС»,,,484,Russian,,,,5-85476-009-6,,,,,,,,,,,0,,,,,,0,1,12371531,djvu,c12c9f574105d012cdfb6b5a891436d8,,,Ван Вогт А. Е.;Война против Рулл;ЭЛИТА;;АО «ЭГОС»;1993;5-85476-009-6;;Russian,0,2000-01-01 01:00:00,2016-11-28 14:07:36,1588000/c12c9f574105d012cdfb6b5a891436d8-g.jpg,,
29683767,Решение экзаменационных задач по алгебре за 9 кл. к учебнику С.А. Шестакова и др. «Сборник задач для подготовки и проведения письменного экзамена по алгебре за курс основной школы  9 кл.»,,,,Веремьёв А.Ф.,2008,,«Экзамен»,,,385,Russian,,,,978-5-377-00935-1,,,,,,,,,,,0,,,,,,0,0,12115798,pdf,a425674b622416d51f62d84590db0cc5,,,Веремьёв А.Ф.;Решение экзаменационных задач по алгебре за 9 кл. к учебнику С.А. Шестакова и др. «Сборник задач для подготовки и проведения письменного экзамена по алгебре за курс основной школы  9 кл.»;;;«Экзамен»;2008;978-5-377-00935-1;;Russian,0,2000-01-01 01:00:00,2016-11-28 14:07:36,1588000/a425674b622416d51f62d84590db0cc5-g.jpg,,
29683768,Землеустройство. Том 3. Землеустроительное проектирование. Межхозяйственное (территориальное) землеустройство,,,,Волков С.Н.,2002,,Колос,,,448,Russian,,,,5-10-003692-3,,,,,,,,,,,0,,,,,,0,1,11358265,djvu,3d9e0119e6e916c19dcd89eaa5a8fdb1,,,Волков С.Н.;Землеустройство. Том 3. Землеустроительное проектирование. Межхозяйственное (территориальное) землеустройство;;;Колос;2002;5-10-003692-3;;Russian,0,2000-01-01 01:00:00,2016-11-28 14:07:36,1588000/3d9e0119e6e916c19dcd89eaa5a8fdb1-g.jpg,,
29683769,Защита овощей от болезней и вредителей. Справочник огородника,,,,"Ганиев М.М., Недорезков В.Д.",2005,,«Колос»,,,211,Russian,,,,5-10-003911-6,,,,,,,,,,,0,,,,,,0,1,11492361,pdf,f79088326b9a176a5f365959ab560fb7,,,"Ганиев М.М., Недорезков В.Д.;Защита овощей от болезней и вредителей. Справочник огородника;;;«Колос»;2005;5-10-003911-6;;Russian",0,2000-01-01 01:00:00,2016-11-28 14:07:36,1588000/f79088326b9a176a5f365959ab560fb7-g.jpg,,
29683770,Эфирная среда и гравитация,,,,Горбацевич Ф.Ф.,2013,,ЛИБРОКОМ,,,154,Russian,,,,978-5-397-03278-0,,,,,,,,,,,0,,,,,,0,0,12211954,pdf,b2a3660c378d1950c84895cfa9e2ae1e,,,Горбацевич Ф.Ф.;Эфирная среда и гравитация;;;ЛИБРОКОМ;2013;978-5-397-03278-0;;Russian,0,2000-01-01 01:00:00,2016-11-28 14:07:36,1588000/b2a3660c378d1950c84895cfa9e2ae1e-g.jpg,,
29683771,"Золотые наночастицы  синтез, свойства, биомедицинское применение",,,,"Дымкан Л.А., Богатырев В.А., Щеголев С.Ю., Хлебцов Н.Г.",2008,,Наука,,,320,Russian,,,,978-5-02-035892-8,,,,,,,,,,,0,,,,,,0,0,12485346,pdf,c787065030b4944ecc6a9da9d8079ada,,,"Дымкан Л.А., Богатырев В.А., Щеголев С.Ю., Хлебцов Н.Г.;Золотые наночастицы  синтез, свойства, биомедицинское применение;;;Наука;    2008;978-5-02-035892-8;;Russian",0,2000-01-01 01:00:00,2016-11-28 14:07:36,1588000/c787065030b4944ecc6a9da9d8079ada-g.jpg,,
29683772,Уравнения математической физики,,,,"Захаров Е.В., Дмитриева И.В., Орлик С.И.",2010,,Академия,,,318,Russian,,,,979-5-7695-5995-2,,,,,,,,,,,0,,,,,,0,0,112959199,pdf,1067414abeebc49f53c04689b96f4636,,,"Захаров Е.В., Дмитриева И.В., Орлик С.И.;Уравнения математической физики;;;Академия;2010;979-5-7695-5995-2;;Russian",0,2000-01-01 01:00:00,2016-11-28 14:07:36,1588000/1067414abeebc49f53c04689b96f4636-g.jpg,,
29683773,Краткий справочник по химии,,Карманный справочник,,Злотников Э.Г.,2012,,Питер,,,192,Russian,,,,978-5-459-00897-5,,,,,,,,,,,0,,,,,,0,1,12462204,pdf,3340066060c0b9a21d5914e0408fe5d3,,,Злотников Э.Г.;Краткий справочник по химии;Карманный справочник;;Питер;2012;978-5-459-00897-5;;Russian,0,2000-01-01 01:00:00,2016-11-28 14:07:36,1588000/3340066060c0b9a21d5914e0408fe5d3-g.jpg,,
29683774,Математика 5 класс,,,,"Зубарева И.И., Мордкович А.Г.",2009,,Мнемозина,,,383,Russian,,,,978-5-346-01246-7,,,,,,,,,,,0,,,,,,0,0,11333788,djvu,99f44fe0a80f12766b9c48f7d62f441a,,,"Зубарева И.И., Мордкович А.Г.;Математика 5 класс;;;Мнемозина;2009;978-5-346-01246-7;;Russian",0,2000-01-01 01:00:00,2016-11-28 14:07:36,1588000/99f44fe0a80f12766b9c48f7d62f441a-g.jpg,,
29683775,Сборник задач и упражнений по органической химии,,,,"Иванов В.Г., Гева О.Н., Гаверова Ю.Г.",2007,,Академия,,,319,Russian,,,,978-5-7695-3481-2,,,,,,,,,,,0,,,,,,0,0,11372952,pdf,dd574a74c798532b40ac92bc46bb7f80,,,"Иванов В.Г., Гева О.Н., Гаверова Ю.Г.;Сборник задач и упражнений по органической химии;;;Академия;2007;978-5-7695-3481-2;;Russian",0,2000-01-01 01:00:00,2016-11-28 14:07:36,1588000/dd574a74c798532b40ac92bc46bb7f80-g.jpg,,
29683776,Orthodoxie Im Dialog. Historische und aktuelle Perspektiven,,Arbeiten Zur Kirchengeschichte 130,,"Reinhard Flogaus, Jennifer Wasmuth",2015,,de Gruyter,,469,483,German,205,,0,"3110425688,9783110425680,9783110421415",,,,,,,,,,,0,,,,,,,1,6993305,pdf,d1e90b061c80191d3ca782dafdf47f91,,,Orthodoxie im Dialog_2015.pdf,0,2000-01-01 01:00:00,2016-11-28 14:10:02,http://ecx.images-amazon.com/images/I/41JmL4VmzwL.jpg,"Theologie, Religionswissenschaft, Vergleichende Religionswissenschaft, Kirchengeschichte, Christentum, Katholizismus, Protestantismus, Geschichte, Byzantinistik, Patristik, Ökumene, Missionswissenschaft, Konfessionskunde, Bibelwissenschaft","3110425688,9783110425680,9783110421415"
29683777,Treatise on Invertebrate Paleontology - Part S - Echinodermata 1,1,Treatise on Invertebrate Paleontology,,"Moore, Raymond C. & Teichert, Curt",0,,,,326,326,English,24,,0,,,,,,,,,,,,0,,,,,,,0,30688382,pdf,1a4e2e6f61cf9315cd70d3c41e3da2a4,,,Treatise on Invertebrate Paleontology - Part S - Echinodermata 1 volume 1 - Moore Ed. (1967).pdf,0,2000-01-01 01:00:00,2016-11-28 14:14:33,1588000/1a4e2e6f61cf9315cd70d3c41e3da2a4-g.jpg,,
29683778,The Fear of Islam. An Introduction to Islamophobia in the West,,,,Todd H. Green,2015,,Fortress Press,,362,378,English,205,,0,"1451465491,9781451465495,9781451469905",,,,,,,,,,,0,,,,,,,1,2293509,pdf,c05ee33dfdf98dfe34976ede0c8a65f0,,,Fear of Islam.pdf,0,2000-01-01 01:00:00,2016-11-28 14:16:46,http://ecx.images-amazon.com/images/I/51qhkvOZb8L.jpg,"Islam, Islamophobia, Islamophobie, Islamfeindlichkeit, Rassismus, Racism, Fear, Islamic Studies, Politics, Religion, Orientalism","1451465491,9781451465495,9781451469905"
29683779,Hacking Leopard: Tools and Techniques for Attacking the Newest Mac OS X,,Black Hat 2007: Presentation slides,,"Charles Miller; (\Charlie Miller\""); (cmiller@securityevaulators.com); (with Independent Security Evaluators)""",02Aug2007©2005,,© 2005 Independent Security Evaluators,,41,41,English,77,,0,,,,,,,,,,,,0,1,,1,1,0,,0,2232432,pdf,4e5dcbfd80f8edb0356b90452a7e1b22,,,bh-usa-07-miller.pdf,0,2000-01-01 01:00:00,2016-11-28 14:17:03,,,
29683780,Enigmes mathématiques à 3 vitesses,,Jeux et stratégie,,Michel Crriton,2009,,POLE,,93,93,Français,122,,0,9782848841021,,,,,,,,,,,600,,1,,,1,1,1,1016350,djvu,2f1cb9c396a3fd71bdfd12335a935d8c,,,criton=énigmes_mathématiques_à_3_vitesses.djvu,0,2000-01-01 01:00:00,2016-11-28 14:19:23,,,9782848841021
29683781,L’aiguille à remonter le temps et 48 autres jeux mathématiques faciles,,"jeux, tests et maths",,Michel Criton (ed.),2004,,POLE,,94,94,Français,122,,0,284884011-0,,,,,,,,,,,600,,1,,,1,1,1,1840791,djvu,8bcdfa7c2ea346fbfd118d1f9b28cd87,,,criton°=~48_autres_jeux_mathématiques~6e-5e.djvu,0,2000-01-01 01:00:00,2016-11-28 14:23:51,,,2848840110
29683782,50 énigmes mathématiques pour tous,,jeux tests maths,,Michel Criton (ed.),1997,,POLE,,96,96,Français,122,,0,2-909737-18-7,,,,,,,,,,,600,,1,,,1,1,1,1284881,djvu,ccb427fd4ec3b4c2debf0198e518fb0b,,,criton°=50_énigmes_mathématiques_pour_tous~4e-3e.djvu,0,2000-01-01 01:00:00,2016-11-28 14:27:53,,,2909737187
29683783,Konfessionelle Identität und ökumenische Prozesse Analysen zum interkonfessionellen Diskurs des Christentums,,Theologische Bibliothek Töpelmann 168,,Silke Dangel,2014,,de Gruyter,,374,384,German,205,,0,"3110343754,9783110343755,9783110365122",,,,,,,,,,,0,,,,,,,1,4740516,pdf,c615507dda07109ba351c319a6dfb5b7,,,Dangel - Konfessionelle Identität und ökumenische Prozesse.pdf,0,2000-01-01 01:00:00,2016-11-28 14:50:42,http://ecx.images-amazon.com/images/I/41w73YttYIL.jpg,"Theologie, Religionswissenschaft, Vergleichende Religionswissenschaft, Kirchengeschichte, Christentum, Katholizismus, Protestantismus, Geschichte, Byzantinistik, Patristik, Ökumene, Missionswissenschaft, Konfessionskunde, Bibelwissenschaft, Dogmatik, Rechtfertigungslehre, Luther","3110343754,9783110343755,9783110365122"
29683784,Биохимическая эволюция,,,,Флоркэн М.,1947,,", Государственное издательство иностранной литературы",,,177,Russian,,,,,,,,,,,,,,,0,,,,,,0,1,12276789,pdf,59e3f9d0776af9f9bf6c23a886dce3fd,,,"Флоркэн М.;Биохимическая эволюция;;;, Государственное издательство иностранной литературы;1947;;;Russian",0,2000-01-01 01:00:00,2016-11-28 15:01:07,1588000/59e3f9d0776af9f9bf6c23a886dce3fd-g.jpg,,
29683785,Популярные лекции по низшей и высшей математике,,,,Проф. Август Шустер,1906,,С-Петербург Вестник Знания,,,67,Russian,,,,,,,,,,,,,,,0,,,,,,0,0,12102548,djvu,467f69c09d8673a0e2efac2ad545b7bd,,,Проф. Август Шустер;Популярные лекции по низшей и высшей математике;;;С-Петербург Вестник Знания;1906;;;Russian,0,2000-01-01 01:00:00,2016-11-28 15:02:32,1588000/467f69c09d8673a0e2efac2ad545b7bd-g.jpg,,
29683786,Hacking Leopard: Tools and Techniques for Attacking the Newest Mac OS X,,Black Hat 2007: Presentation slides,,"Charles Miller; (\Charlie Miller\""); (cmiller@securityevaulators.com); (with Independent Security Evaluators)""",02Aug2007©2005,,© 2005 Independent Security Evaluators,,41,41,English,77,,0,,,,,,,,,,,,0,1,,1,1,0,,0,2232432,pdf,4e5dcbfd80f8edb0356b90452a7e1b22,,,bh-usa-07-miller.pdf,0,2000-01-01 01:00:00,2016-11-28 15:02:37,1588000/4e5dcbfd80f8edb0356b90452a7e1b22-g.jpg,,
29683787,Театрал,,,,Греч Н.И.,1853,,Типография Н. Греча,,,162,Russian,,,,-,,,,,,,,,,,0,,,,,,0,1,37959134,pdf,25c2fd4d768b164089e605624a96fb6a,,,Греч Н.И.;Театрал;;;Типография Н. Греча;1853;-;;Russian,0,2000-01-01 01:00:00,2016-11-28 15:07:36,1573000/25c2fd4d768b164089e605624a96fb6a-g.jpg,,
29683788,Иллюстрированный практический путеводитель по Одессе,,,,Москвич Г.Г.,1904,,Типография Л. Нитче (Одесса),,,193,Russian,,,,-,,,,,,,,,,,0,,,,,,0,1,114294202,pdf,6056c19c1332a4c10e4a7a718155860f,,,Москвич Г.Г.;Иллюстрированный практический путеводитель по Одессе;;;Типография Л. Нитче (Одесса);1904;-;;Russian,0,2000-01-01 01:00:00,2016-11-28 15:07:36,1577000/6056c19c1332a4c10e4a7a718155860f-g.jpg,,
29683789,«Отчизну сердцем защитили»  Стихи поэтов Тейковского района,,,,,2011,,"ОАО «Издательство «Иваново»,",,,64,Russian,,,,-,,,,,,,,,,,0,,,,,,0,1,2010197,pdf,ca229279281b8a331bc80b0e6cfa53f2,,,";«Отчизну сердцем защитили»  Стихи поэтов Тейковского района;;;ОАО «Издательство «Иваново»,;2011;-;;Russian",0,2000-01-01 01:00:00,2016-11-28 15:07:36,1585000/ca229279281b8a331bc80b0e6cfa53f2-g.jpg,,
29683790,Recettes Angéliques. Le bœuf: Le goût d’être ensemble,,,,(Collective),2012,,INTERBEV,,0,32,French,,,0,-,,,,,,,,,,,0,,,,,,0,1,3164060,pdf,be017384eb788f84803d6cf2728a3a68,,,;Recettes Angliques. Le boeuf Le got d’tre ensemble;;;INTERBEV;2012;-;;French,0,2000-01-01 01:00:00,2016-11-28 15:07:36,1585000/be017384eb788f84803d6cf2728a3a68-g.jpg,,
29683791,A World Of Animals Vol. 2,,Painting- Animals,,Ana Bernabe,2002,,Viking folk Art,,,60,English,,,,-,,,,,,,,,,,0,,,,,,0,0,50405079,pdf,857f613ba692b86d043d09c24061c24a,,,Ana Bernabe;A World Of Animals Vol. 2;Painting- Animals;;Viking folk Art;2002;-;;English,0,2000-01-01 01:00:00,2016-11-28 15:07:36,1585000/857f613ba692b86d043d09c24061c24a-g.jpg,,
29683792,A World Of Animals Vol. 3,,Painting- Animals,,Ana Bernabe,2003,,Viking folk Art,,,65,English,,,,-,,,,,,,,,,,0,,,,,,0,0,46544505,pdf,d2dbe9b1e95bf109a85cf033d923f5a2,,,Ana Bernabe;A World Of Animals Vol. 3;Painting- Animals;;Viking folk Art;2003;-;;English,0,2000-01-01 01:00:00,2016-11-28 15:07:36,1585000/d2dbe9b1e95bf109a85cf033d923f5a2-g.jpg,,
29683793,20 Easy DIY Holiday Craft,,,,Collective,2015,,FloraCraft,,0,58,English,,,0,-,,,,,,,,,,,0,,,,,,0,1,19194778,pdf,b5d1f6e32d9acffad14ecfb28dac3ac6,,,"Collective;20 Easy DIY Holiday Craft;;;FloraCraft, Prime Publishing LLC;2015;-;;English",0,2000-01-01 01:00:00,2016-11-28 15:07:36,1585000/b5d1f6e32d9acffad14ecfb28dac3ac6-g.jpg,,
29683794,Что такое математика,,,,"Курант Р., Роббинс Г.",2001,"3-e, испр. и доп.",МЦНМО,,,564,Russian,,,,5–900916–45–6,,,,,,,,,,,0,,,,,,0,1,12553565,pdf,98795a59d359759ca3ed03ce08de96ce,,,"Курант Р., Роббинс Г.;Что такое математика;;;  МЦНМО; 2001;5–900916–45–6;3-e, испр. и доп.;Russian",0,2000-01-01 01:00:00,2016-11-28 15:07:36,1588000/98795a59d359759ca3ed03ce08de96ce-g.jpg,,
29683795,Линейная алгебра,,,,Мальцев И.А.,2010,,Лань,,,380,Russian,,,,978-5-8114-1011-8,,,,,,,,,,,0,,,,,,0,0,11540812,pdf,d587e30134031e0a1bb9c09283c750aa,,,Мальцев И.А.;Линейная алгебра;;;Лань;2010;978-5-8114-1011-8;;Russian,0,2000-01-01 01:00:00,2016-11-28 15:07:36,1588000/d587e30134031e0a1bb9c09283c750aa-g.jpg,,
29683796,Путешествия Тафа,,Золотая библиотека фантастики,,Мартин Дж.,2000,,ООО “Фирма “Издательство ACT”,,,516,Russian,,,,5-17-001041-9,,,,,,,,,,,0,,,,,,0,1,11558236,djvu,ec7d18ed3d31848430fc79161e28f697,,,Мартин Дж.;Путешествия Тафа;Золотая библиотека фантастики;;ООО “Фирма “Издательство ACT”;2000;5-17-001041-9;;Russian,0,2000-01-01 01:00:00,2016-11-28 15:07:36,1588000/ec7d18ed3d31848430fc79161e28f697-g.jpg,,
29683797,Дифференциальные уравнения и уравнения с частными производными,,Учебник для вузов,,"Матросов В Л., Асланов P.M., Топунов М.В.",2011,,ВЛАДОС,,,378,Russian,,,,978-5-691-01655-4,,,,,,,,,,,0,,,,,,0,0,12623192,pdf,eedaec4cc357b822b9fcad63498bea2e,,,"Матросов В Л., Асланов P.M., Топунов М.В.;Дифференциальные уравнения и уравнения с частными производными;Учебник для вузов;;ВЛАДОС;2011;978-5-691-01655-4;;Russian",0,2000-01-01 01:00:00,2016-11-28 15:07:36,1588000/eedaec4cc357b822b9fcad63498bea2e-g.jpg,,
29683798,Поиск в темноте,,"Детектив, фантастика, приключения",,Михеев М. П.,1990,,Новосибирское книжное издательство,,,390,Russian,,,,5-7620-0392-2,,,,,,,,,,,0,,,,,,0,0,12205010,djvu,d474d84e0d51500919ed9e5be7e71a98,,,"Михеев М. П.;Поиск в темноте;Детектив, фантастика, приключения;;Новосибирское книжное издательство;1990;5-7620-0392-2;;Russian",0,2000-01-01 01:00:00,2016-11-28 15:07:36,1588000/d474d84e0d51500919ed9e5be7e71a98-g.jpg,,
29683799,"Иоанн III, собиратель земли русской",,Россия державная,,Нестор Кукольник,2010,,Мир книги,,,404,Russian,,,,978-5-486-03528-9,,,,,,,,,,,0,,,,,,0,1,12626427,pdf,809860fc76b2c641d2955002907ce008,,,"Нестор Кукольник;Иоанн III, собиратель земли русской;Россия державная;;Мир книги;2010;978-5-486-03528-9;;Russian",0,2000-01-01 01:00:00,2016-11-28 15:07:36,1588000/809860fc76b2c641d2955002907ce008-g.jpg,,
29683800,Восставший из ада. Пленники ада. Ад на Земле. Готика,Кн. 41,Бестселлеры Голливуда,,"Олард Диксон, Стивен Волк",1994,,Эрика,,,500,Russian,,,,5-85775-035-0,,,,,,,,,,,0,,,,,,0,1,12266270,djvu,6ad3bfe86200ccdd1e0f312cf4bb0201,,,"Олард Диксон, Стивен Волк;Восставший из ада. Пленники ада. Ад на Земле. Готика;Бестселлеры Голливуда;Кн. 41;Эрика;1994;5-85775-035-0;;Russian",0,2000-01-01 01:00:00,2016-11-28 15:07:36,1588000/6ad3bfe86200ccdd1e0f312cf4bb0201-g.jpg,,
29683801,Водоворот,,Сны разума,,Питер Уоттс,2015,,ACT,,,482,Russian,,,,978-5-17-087254-1,,,,,,,,,,,0,,,,,,0,1,12463712,djvu,94585c6cae4a5a38f0b60b34bdc53a32,,,Питер Уоттс;Водоворот;Сны разума;;ACT;2015;978-5-17-087254-1;;Russian,0,2000-01-01 01:00:00,2016-11-28 15:07:36,1588000/94585c6cae4a5a38f0b60b34bdc53a32-g.jpg,,
29683802,Гидромеханика,,,,"Попов Д.Н., Панаиотти С.С., Рябинин М.В.",2002,,МГТУ им. Н. Э. Баумана,,,385,Russian,,,,5-7038-1371-9,,,,,,,,,,,0,,,,,,0,0,11723837,pdf,1a5db2aaac652368e08c6f27b10c5bf6,,,"Попов Д.Н., Панаиотти С.С., Рябинин М.В.;Гидромеханика;;;  МГТУ им. Н. Э. Баумана;2002;5-7038-1371-9;;Russian",0,2000-01-01 01:00:00,2016-11-28 15:07:36,1588000/1a5db2aaac652368e08c6f27b10c5bf6-g.jpg,,
29683803,Звездный зверь,Вып.29,«Осирис»,,Роберт Хайнлайн,1993,,Центрполиграф,,,290,Russian,,,,5-7001-0105-Х,,,,,,,,,,,0,,,,,,0,1,11704780,djvu,a7957b167320aa53d48d757dd1b7fcd1,,,Роберт Хайнлайн;Звездный зверь;«Осирис»;Вып.29;Центрполиграф;1993;5-7001-0105-Х;;Russian,0,2000-01-01 01:00:00,2016-11-28 15:07:36,1588000/a7957b167320aa53d48d757dd1b7fcd1-g.jpg,,
29683804,Системы земледелия,,,,"Сафонов А.Ф., Гатаулин А.М., Платонов И.Г. и др.",2006,,КолосС,,,448,Russian,,,,5-9532-0347-0,,,,,,,,,,,0,,,,,,0,1,114194259,pdf,66435bb8cf0d8298a6d1ff1319ec8d5d,,,"Сафонов А.Ф., Гатаулин А.М., Платонов И.Г. и др.;Системы земледелия;;;КолосС;2006;5-9532-0347-0;;Russian",0,2000-01-01 01:00:00,2016-11-28 15:07:36,1588000/66435bb8cf0d8298a6d1ff1319ec8d5d-g.jpg,,
29683805,Основы геометрической оптики,,,,"Свешникова И.С., Запрягаева Л.А., Гузеева И.В., Филонов А.С.",2009,,Шико,,,215,Russian,,,,5-900758-42-7,,,,,,,,,,,0,,,,,,0,1,12367671,pdf,75c5fa72001f22833915c678973fac5d,,,"Свешникова И.С., Запрягаева Л.А., Гузеева И.В., Филонов А.С.;Основы геометрической оптики  ;;;Шико;2009;5-900758-42-7;;Russian",0,2000-01-01 01:00:00,2016-11-28 15:07:36,1588000/75c5fa72001f22833915c678973fac5d-g.jpg,,
29683806,Время перемен,,ЭЛИТА,,Силверберг Р.,1993,,АО «ЭГОС»,,,304,Russian,,,,5-85476-004-5,,,,,,,,,,,0,,,,,,0,1,12192862,djvu,e4056f56870163585c41ca1434880eb1,,,Силверберг Р.;Время перемен;ЭЛИТА;;АО «ЭГОС»;1993;5-85476-004-5;;Russian,0,2000-01-01 01:00:00,2016-11-28 15:07:36,1588000/e4056f56870163585c41ca1434880eb1-g.jpg,,
29683807,Сын человеческий,,ЭЛИТА,,Силверберг Р.,1993,,АО «ЭГОС»,,,304,Russian,,,,5-85476-017-7,,,,,,,,,,,0,,,,,,0,1,12274644,djvu,76a54c163b51375c68dccbf5edf79326,,,Силверберг Р.;Сын человеческий;ЭЛИТА;;АО «ЭГОС»;1993;5-85476-017-7;;Russian,0,2000-01-01 01:00:00,2016-11-28 15:07:36,1588000/76a54c163b51375c68dccbf5edf79326-g.jpg,,
29683808,Общая химия,,,,Стародуб В.И.,2007,,Фолио,,,381,Russian,,,,978-966-03-3892-0,,,,,,,,,,,0,,,,,,0,0,11800460,pdf,6326a1c5005ff9a8a5c4f85e86cb0227,,,Стародуб В.И.;Общая химия;;;Фолио;2007;978-966-03-3892-0;;Russian,0,2000-01-01 01:00:00,2016-11-28 15:07:36,1588000/6326a1c5005ff9a8a5c4f85e86cb0227-g.jpg,,
29683809,Второе признание. Вышел месяц из тумана. Смерть Демона,,Все звезды. Выпуск 10,,Стаут Р.,1992,,СП «Интерграф Сервис»,,,292,Russian,,,,5-85052-051-1,,,,,,,,,,,0,,,,,,0,1,11488181,djvu,18ce8b387e5bfa8c84c02e57e71a0374,,,Стаут Р.;Второе признание. Вышел месяц из тумана. Смерть Демона;Все звезды. Выпуск 10;;СП «Интерграф Сервис»;1992;5-85052-051-1;;Russian,0,2000-01-01 01:00:00,2016-11-28 15:07:36,1588000/18ce8b387e5bfa8c84c02e57e71a0374-g.jpg,,
29683810,Ловушка для матери. Смерть хлыща,,Все звезды. Выпуск 12,,Стаут Р.,1992,,СП «Интерграф Сервис»,,,292,Russian,,,,5-85052-046-5,,,,,,,,,,,0,,,,,,0,1,12025703,djvu,6ed7cce1b2012dcccc421a52cadeb3ee,,,Стаут Р.;Ловушка для матери. Смерть хлыща;Все звезды. Выпуск 12;;СП «Интерграф Сервис»;1992;5-85052-046-5;;Russian,0,2000-01-01 01:00:00,2016-11-28 15:07:36,1588000/6ed7cce1b2012dcccc421a52cadeb3ee-g.jpg,,
29683811,Слишком много поваров. Смертельный гамбит,,Все звезды. Выпуск 13,,Стаут Р.,1992,,СП «Интерграф Сервис»,,,292,Russian,,,,5-85052-047-3,,,,,,,,,,,0,,,,,,0,1,12509571,djvu,17681016407991037dae9511fda3c97d,,,Стаут Р.;Слишком много поваров. Смертельный гамбит;Все звезды. Выпуск 13;;СП «Интерграф Сервис»;1992;5-85052-047-3;;Russian,0,2000-01-01 01:00:00,2016-11-28 15:07:36,1588000/17681016407991037dae9511fda3c97d-g.jpg,,
29683812,Пока чародея не было дома. Чародей-еретик,,Золотая серия фэнтези,,Сташеф К.,2003,,ООО «Издательство АСТ»  ЗАО НПП «Ермак»,,,292,Russian,,,,"5-17-011073-1, 5-9577-0440-7",,,,,,,,,,,0,,,,,,0,1,11782518,djvu,cca1d18ed5cd6303f45785f5ec4d8c19,,,"Сташеф К.;Пока чародея не было дома. Чародей-еретик;Золотая серия фэнтези;;ООО «Издательство АСТ»  ЗАО НПП «Ермак»;2003;5-17-011073-1, 5-9577-0440-7;;Russian",0,2000-01-01 01:00:00,2016-11-28 15:07:36,1588000/cca1d18ed5cd6303f45785f5ec4d8c19-g.jpg,,
29683813,Руководство к лабораторным занятиям по органической химии,,,,Тюкавкина Н.А.(ред.),2002,,Дрофа,,,382,Russian,,,,5-7107-4724-6,,,,,,,,,,,0,,,,,,0,1,11894995,pdf,46db0795789f995e4fe086735359d342,,,Тюкавкина Н.А.(ред.);Руководство к лабораторным занятиям по органической химии;;;Дрофа;2002;5-7107-4724-6;;Russian,0,2000-01-01 01:00:00,2016-11-28 15:07:36,1588000/46db0795789f995e4fe086735359d342-g.jpg,,
29683814,Гарольд Храбрый,,Великие властители,,"Финкелыптейн, Б. Б.",2005,,Транзит книга,,,404,Russian,,,,5-17-026131-4,,,,,,,,,,,0,,,,,,0,1,12373001,pdf,1a8374eec1230860520799526f1edc6f,,,"Финкелыптейн, Б. Б.;Гарольд Храбрый;Великие властители;;Транзит книга;2005;5-17-026131-4;;Russian",0,2000-01-01 01:00:00,2016-11-28 15:07:36,1588000/1a8374eec1230860520799526f1edc6f-g.jpg,,
29683815,Собрание сочинений. Кометы Оорта,Том 10,Англо-американская фантастика XX века,,Фредерик Пол,1995,,«Сигма пресс»,,,418,Russian,,,,5-85949-042-9,,,,,,,,,,,0,,,,,,0,1,12504142,pdf,b963dd4ff502639048c5e5b658f072fa,,,Фредерик Пол;Собрание сочинений. Кометы Оорта;Англо-американская фантастика XX века;Том 10;«Сигма пресс»;1995;5-85949-042-9;;Russian,0,2000-01-01 01:00:00,2016-11-28 15:07:36,1588000/b963dd4ff502639048c5e5b658f072fa-g.jpg,,
29683816,День рождения кота Леопольда,,Наши любимые мультфильмы,,"Хайт А.И., Левенбук А.С.",2014,,Самовар,,,120,Russian,,,,978-5-9781-0632-9,,,,,,,,,,,0,,,,,,0,0,112351547,pdf,5970befcc5286f8694be220d6b277109,,,"Хайт А.И., Левенбук А.С.;День рождения кота Леопольда;Наши любимые мультфильмы;;Самовар;2014;978-5-9781-0632-9;;Russian",0,2000-01-01 01:00:00,2016-11-28 15:07:36,1588000/5970befcc5286f8694be220d6b277109-g.jpg,,
29683817,Кровь Звёзд. Мутанты,,,,"Хеннеберг Н., Каттнер Г.",1993,,ЭксКИЗ,,,388,Russian,,,,5-7815-1822-3,,,,,,,,,,,0,,,,,,0,1,12557810,pdf,14a793462d48c3a5cbd7a47e2bcbc536,,,"Хеннеберг Н., Каттнер Г.;Кровь Звёзд. Мутанты;;;ЭксКИЗ;1993;5-7815-1822-3;;Russian",0,2000-01-01 01:00:00,2016-11-28 15:07:36,1588000/14a793462d48c3a5cbd7a47e2bcbc536-g.jpg,,
29683818,Рекрут Великой армии,,,,Эркман-Шатриан,2012,,Вече,,,306,Russian,,,,978-5-9533-6300-6,,,,,,,,,,,0,,,,,,0,1,11515773,pdf,0d4c5f4360b6a36608d2fd8d34c7d241,,,Эркман-Шатриан;Рекрут Великой армии;;;Вече;2012;978-5-9533-6300-6;;Russian,0,2000-01-01 01:00:00,2016-11-28 15:07:36,1588000/0d4c5f4360b6a36608d2fd8d34c7d241-g.jpg,,
29683819,Teoria Estética de Adorno como uma Dialética Negativa do Gosto,,0,,Amarildo Malvezzi,0,,,,16,16,Portuguese,196,,0,,,,,,,,,,,,0,,,,,,,1,257966,pdf,95f946f8b1475aa5ab65bedf058274f0,,,Teoria Estética de Adorno como uma Dialética Negativa do Gosto - Amarildo Malvezzi.pdf,0,2000-01-01 01:00:00,2016-11-28 15:10:37,1588000/95f946f8b1475aa5ab65bedf058274f0-g.jpg,,
29683820,"Miroslav Vitous , Alphonse Johnson , Jaco Pastorius , Victor Bailey , Weather Report , Double Bass , Fusion Music",,,,"MARK STEVEN FRANDSEN, B.M., M.M.",2010,,Texas Tech University,Texas,169,169,English,61,,0,,,,,,,,,,,,300,0,0,0,1,0,1,1,699769,pdf,ade48e3821dd8797b9a5665a3d6cc7e6,,,miroslav.pdf,0,2000-01-01 01:00:00,2016-11-28 15:12:29,1588000/ade48e3821dd8797b9a5665a3d6cc7e6-g.jpg,,
29683821,Intellektuellen-Götter. Das religiöse Laboratorium der klassischen Moderne,,Schriften des Historischen Kollegs 66,,"Friedrich Wilhelm Graf, Elisabeth Müller-Luckner",2009,,"Oldenbourg, de Gruyter",,174,196,German,205,,0,"3486582577,9783486582574,9783110446364",,,,,,,,,,,0,,,,,,,1,2236699,pdf,a268b930fa3ba38966d2d10d06ef9c8a,,,Intellektuellen-Götter. Das religiöse Laboratorium der klassischen Moderne.pdf,0,2000-01-01 01:00:00,2016-11-28 15:13:29,http://ecx.images-amazon.com/images/I/41wTQpq-TRL.jpg,"Geschichte, Neuere Geschichte, Moderne, Christentum, Religion, Religionswissenschaft, Theologie, Sozialwissenschaft, Geistewissenschaft, Philosophie, Religiösität, Religionsgeschichte","3486582577,9783486582574,9783110446364"
29683822,Zeno’s Paradox: Unraveling the Ancient Mystery Behind the Science of Space and Time,,,,Joseph Mazur,2008,Reprint,Plume,,272,0,English,,,0,"0452289173,9780452289178",,,,,,,,,,,0,,,,,,1,,924647,epub,51e2048bbb305e95b7092a57917be7e9,,,Zeno__039;s Paradox - Joseph Mazur.epub,0,2000-01-01 01:00:00,2016-11-28 15:15:07,http://ecx.images-amazon.com/images/I/417mewYlrkL.jpg,History & Philosophy;Science & Math;Mathematical Physics;Physics;Science & Math;Relativity;Physics;Science & Math;Time;Physics;Science & Math,"0452289173,9780452289178"
29683823,Doreen Valiente Witch,,,,Philip Heselton,2016,,Llewellyn Publications,,384,0,English,,,0,"0738751774,9780738751771",,,,,,,,,,,0,,,,,,1,,3064331,epub,fc7624b090f83d4722b4329f41a85542,,,Doreen Valiente Witch.epub,0,2000-01-01 01:00:00,2016-11-28 15:17:19,http://ecx.images-amazon.com/images/I/417LpIZdxrL.jpg,"Ethnic & National;African-American & Black;Australian;Chinese;Hispanic & Latino;Irish;Japanese;Jewish;Native American;Scandinavian;Biographies & Memoirs;Paganism;Wicca, Witchcraft & Paganism;New Age & Spirituality;Religion & Spirituality;Wicca;Wicca, Witchcraft & Paganism;New Age & Spirituality;Religion & Spirituality;Witchcraft;Wicca, Witchcraft & Paganism;New Age & Spirituality;Religion & Spirituality","0738751774,9780738751771"
29683824,Longing for Home: Forced Displacement and Postures of Hospitality,,,,M. Jan Holton,2016,,Yale University Press,,240,0,English,,,0,"030020762X,9780300207620",,,,,,,,,,,0,,,,,,1,,1941965,epub,1b7cc8b5d5002c857175fb755854e17f,,,Longing for Home - M. Jan Holton.epub,0,2000-01-01 01:00:00,2016-11-28 15:19:13,http://ecx.images-amazon.com/images/I/31MXlznGa4L.jpg,"Counseling;Christian Living;Social Psychology & Interactions;Psychology & Counseling;Health, Fitness & Dieting;Religious Studies;Church & State;Comparative Religion;Ecumenism & Interfaith;Education;Ethics;Gender & Sexuality;History;Philosophy;Psychology;Psychology & Christianity;Religious Intolerance & Persecution;Science & Religion;Sociology;Theology;Religion & Spirituality;Social Psychology & Interactions;Psychology;Poverty;Social Sciences;Politics & Social Sciences;Emigration & Immigration;So","030020762X,9780300207620"
29683825,"Waking the Spirit: A Musician’s Journey Healing Body, Mind, and Soul",,,,"Andrew Schulman, Marvin A. McMillen",2016,,Picador,,304,0,English,,,0,"1250055776,9781250055774",,,,,,,,,,,0,,,,,,1,,1147278,epub,993277e2843c90cd716ad2fca3cda590,,,Waking the Spirit - Andrew Schulman.epub,0,2000-01-01 01:00:00,2016-11-28 15:22:01,http://ecx.images-amazon.com/images/I/51FLC7BlqtL.jpg,"Music;Biographies;Business;History & Criticism;Instruments;Musical Genres;Recording & Sound;Reference;Songbooks;Theory, Composition & Performance;Arts & Photography;Medical;Professionals & Academics;Biographies & Memoirs;Psychology & Counseling;Adolescent Psychology;Applied Psychology;Child Psychology;Counseling;Creativity & Genius;Developmental Psychology;Experimental Psychology;Forensic Psychology;History;Medicine & Psychology;Mental Illness;Neuropsychology;Occupational & Organizational;Pathol","1250055776,9781250055774"
29683826,The Listening Life: Embracing Attentiveness in a World of Distraction,,,,Adam S. McHugh,2015,,IVP Books,,224,0,English,,,0,"0830844120,9780830844128",,,,,,,,,,,0,,,,,,1,,832996,epub,7c62c2b07fb40438da0d216dbb6846a0,,,The Listening Life - Adam S. McHugh.epub,0,2000-01-01 01:00:00,2016-11-28 15:25:58,http://ecx.images-amazon.com/images/I/41wIiXdBM5L.jpg,"Interpersonal Relations;Relationships;Self-Help;Spiritual Growth;Christian Living;Self Help;Christian Living;Meditations;Worship & Devotion;Meditation;Alternative Medicine;Health, Fitness & Dieting;Religion & Spirituality;Agnosticism;Atheism;Buddhism;Hinduism;Islam;Judaism;Literature & Fiction;New Age & Spirituality;Occult & Paranormal;Other Eastern Religions & Sacred Texts;Other Religions, Practices & Sacred Texts;Religious Art;Religious Studies;Worship & Devotion","0830844120,9780830844128"
29683827,The Angel: The Egyptian Spy Who Saved Israel,,,,"Uri Bar-Joseph, David Hazony",2016,,Harper,,384,0,English,,,0,"0062420100,9780062420107",,,,,,,,,,,0,,,,,,1,,2369697,epub,f48dea0d803854e4a6f69a765e107092,,,The Angel - Uri Bar-Joseph.epub,0,2000-01-01 01:00:00,2016-11-28 15:28:16,http://ecx.images-amazon.com/images/I/51utLmrLKSL.jpg,Middle East;Historical;Biographies & Memoirs;Espionage;True Crime;Biographies & Memoirs;Egypt;Middle East;History;Israel & Palestine;Middle East;History,"0062420100,9780062420107"
29683828,"Almost the Perfect Murder: The Killing of Elaine O’Hara, the Extraordinary Garda Investigation and the Trial That Stunned the Nation",,,,Paul Williams,2015,,Penguin UK,,288,0,English,,,0,"1844883620,9781844883622",,,,,,,,,,,0,,,,,,1,,398667,epub,a3049fa96ec869373ba646489535aab3,,,a.epub,0,2000-01-01 01:00:00,2016-11-28 15:32:41,http://ecx.images-amazon.com/images/I/51i7kMTMAwL.jpg,Murder & Mayhem;True Crime;Biographies & Memoirs;Europe;Belgium;France;Germany;Great Britain;Greenland;Italy;Netherlands;Romania;Scandinavia;History,"1844883620,9781844883622"
29683829,Through Vegetal Being: Two Philosophical Perspectives,,Critical Life Studies,,"Luce Irigaray, Michael Marder",2016,,Columbia University Press,,248,0,English,,,0,"0231173865,9780231173865",,,,,,,,,,,0,,,,,,1,,3323100,epub,b58420d8fab7e5a208fa09212321c879,,,Through Vegetal Being - Luce Irigaray.epub,0,2000-01-01 01:00:00,2016-11-28 15:35:46,http://ecx.images-amazon.com/images/I/51b4WcGfK5L.jpg,Letters;Essays & Correspondence;Literature & Fiction;Cosmology;Astronomy & Space Science;Science & Math;Botany;Biological Sciences;Science & Math;Plants;Cacti & Succulents;Flowers;Mushrooms;Trees;Biological Sciences;Science & Math;Deconstruction;Movements;Philosophy;Politics & Social Sciences;Feminist Theory;Women’s Studies;Politics & Social Sciences,"0231173865,9780231173865"
29683830,"Forgotten Anzacs: The Campaign in Greece, 1941",,,,Peter Ewer,2016,,Scribe Publications Pty Ltd.,,448,0,English,,,0,"1925321290,9781925321296",,,,,,,,,,,0,,,,,,1,,1608578,epub,b3b594bc234ba16ff483b7e4463bdc35,,,1925321290.epub,0,2000-01-01 01:00:00,2016-11-28 15:39:24,http://ecx.images-amazon.com/images/I/51h6SZFkbTL.jpg,"Australia & New Zealand;Australia & Oceania;History;World War II;Military;History;Military;History;Humanities;New, Used & Rental Textbooks;Specialty Boutique","1925321290,9781925321296"
29683831,The Price of Prosperity: Why Rich Nations Fail and How to Renew Them,,,,Todd G. Buchholz,2016,,Harper,,384,0,English,,,0,"0062405705,9780062405708",,,,,,,,,,,0,,,,,,1,,708223,epub,d4bed2f0908450e5c371fc2e2663e3b7,,,The Price of Prosperity Why Rich Nations Fail and How to Renew Them.epub,0,2000-01-01 01:00:00,2016-11-28 15:42:36,http://ecx.images-amazon.com/images/I/51-JBVH55RL.jpg,Economic History;Economics;Business & Money;Education & Reference;CPA Test;GMAT Test;Statistics;Business & Money;Government & Business;Processes & Infrastructure;Business & Money;Civilization & Culture;World;History;Nationalism;Ideologies & Doctrines;Politics & Government;Politics & Social Sciences;European;International & World Politics;Politics & Government;Politics & Social Sciences;History & Theory;Political Science;Politics & Government;Politics & Social Sciences;United States;Executive Bra,"0062405705,9780062405708"
29683832,Small Animal Drug Handbook,,,,Rhea Morgan,2003,,Spiral-Bound,,,129,English.,,,,,,,,,,,,,,,0,,,,,,0,0,13029665,pdf,1bf59ff40adbd13fd3a610662ca4bf86,,,Rhea Morgan;Small Animal Drug Handbook;;;Spiral-Bound;2003;;;English.,0,2000-01-01 01:00:00,2016-11-28 15:45:49,1588000/1bf59ff40adbd13fd3a610662ca4bf86-g.jpg,,
29683833,BSAVA Manual of Canine and Feline Emergency and Critical Care,,,,"Lesley G. King, Richard Hammond",1999,,Paperback,,,376,English.,,,,,,,,,,,,,,,0,,,,,,0,0,110150504,pdf,05421bbd1b22392674171c56b2c1336f,,,"Lesley G. King, Richard Hammond;BSAVA Manual of Canine and Feline Emergency and Critical Care;;;Paperback;1999;;;English.",0,2000-01-01 01:00:00,2016-11-28 15:46:08,1588000/05421bbd1b22392674171c56b2c1336f-g.jpg,,
29683834,Ползуны по скалам,,Библиотека школьника,,Рид Томас Майн,1927,,Книгоизд.Г.Ф.Мириманова,,,66,Russian,,,,,,,,,,,,,,,0,,,,,,0,0,13899038,pdf,e0390f0135b727cee4018ccddc62f4a8,,,Рид Томас Майн;Ползуны по скалам;Библиотека школьника;;Книгоизд.Г.Ф.Мириманова;1927;;;Russian,0,2000-01-01 01:00:00,2016-11-28 15:50:15,1588000/e0390f0135b727cee4018ccddc62f4a8-g.jpg,,
29683835,The Angel: The Egyptian Spy Who Saved Israel,,,,"Uri Bar-Joseph, David Hazony",2016,,Harper,,384,0,English,,,0,"0062420100,9780062420107",,,,,,,,,,,0,,,,,,1,,2369697,epub,f48dea0d803854e4a6f69a765e107092,,,The Angel - Uri Bar-Joseph.epub,0,2000-01-01 01:00:00,2016-11-28 15:50:20,1588000/f48dea0d803854e4a6f69a765e107092-d.jpg,Middle East;Historical;Biographies & Memoirs;Espionage;True Crime;Biographies & Memoirs;Egypt;Middle East;History;Israel & Palestine;Middle East;History,"0062420100,9780062420107"
29683836,"Today We Die a Little!: The Inimitable Emil Zátopek, the Greatest Olympic Runner of All Time",,,,Richard Askwith,2016,First Us ed.,Nation Books,,496,0,English,,,0,"1568585497,9781568585499",,,,,,,,,,,0,,,,,,1,,11528555,epub,ca26a3fcd7cc9e830cb529aa33f62727,,,1568585497.epub,0,2000-01-01 01:00:00,2016-11-28 16:03:21,http://ecx.images-amazon.com/images/I/514MmxoTGQL.jpg,"Biographies & Memoirs;Arts & Literature;Ethnic & National;Historical;Leaders & Notable People;Memoirs;Professionals & Academics;Reference & Collections;Regional Canada;Regional U.S.;Specific Groups;Sports & Outdoors;Travelers & Explorers;True Crime;Biographies;Baseball;Basketball;Boxing, Wrestling & MMA;Football;Golf;Hockey;Soccer;Sports & Outdoors;Running & Jogging;Individual Sports;Sports & Outdoors","1568585497,9781568585499"
29683837,Psycho-Cybernetics: Updated and Expanded,,1,,Maxwell Maltz,0,,Perigee,,0,0,English,,,0,,,,,,,,,,,,0,,,,,,,,573793,epub,7475556fecda69521160e1be204cac1f,,,Psycho-Cybernetics_ Updated and Expanded - Maxwell Maltz.epub,0,2000-01-01 01:00:00,2016-11-28 16:04:58,,Success -- Psychological aspects,
29683838,Театрал,,,,Греч Н.И.,1853,,Типография Н. Греча,,,162,Russian,,,,-,,,,,,,,,,,0,,,,,,0,1,37959134,pdf,25c2fd4d768b164089e605624a96fb6a,,,Греч Н.И.;Театрал;;;Типография Н. Греча;1853;-;;Russian,0,2000-01-01 01:00:00,2016-11-28 16:07:36,1573000/25c2fd4d768b164089e605624a96fb6a-g.jpg,,
29683839,Иллюстрированный практический путеводитель по Одессе,,,,Москвич Г.Г.,1904,,Типография Л. Нитче (Одесса),,,193,Russian,,,,-,,,,,,,,,,,0,,,,,,0,1,114294202,pdf,6056c19c1332a4c10e4a7a718155860f,,,Москвич Г.Г.;Иллюстрированный практический путеводитель по Одессе;;;Типография Л. Нитче (Одесса);1904;-;;Russian,0,2000-01-01 01:00:00,2016-11-28 16:07:36,1577000/6056c19c1332a4c10e4a7a718155860f-g.jpg,,
29683840,«Отчизну сердцем защитили»  Стихи поэтов Тейковского района,,,,,2011,,"ОАО «Издательство «Иваново»,",,,64,Russian,,,,-,,,,,,,,,,,0,,,,,,0,1,2010197,pdf,ca229279281b8a331bc80b0e6cfa53f2,,,";«Отчизну сердцем защитили»  Стихи поэтов Тейковского района;;;ОАО «Издательство «Иваново»,;2011;-;;Russian",0,2000-01-01 01:00:00,2016-11-28 16:07:36,1585000/ca229279281b8a331bc80b0e6cfa53f2-g.jpg,,
29683841,Recettes Angéliques. Le bœuf: Le goût d’être ensemble,,,,(Collective),2012,,INTERBEV,,0,32,French,,,0,-,,,,,,,,,,,0,,,,,,0,1,3164060,pdf,be017384eb788f84803d6cf2728a3a68,,,;Recettes Angliques. Le boeuf Le got d’tre ensemble;;;INTERBEV;2012;-;;French,0,2000-01-01 01:00:00,2016-11-28 16:07:36,1585000/be017384eb788f84803d6cf2728a3a68-g.jpg,,
29683842,A World Of Animals Vol. 2,,Painting- Animals,,Ana Bernabe,2002,,Viking folk Art,,,60,English,,,,-,,,,,,,,,,,0,,,,,,0,0,50405079,pdf,857f613ba692b86d043d09c24061c24a,,,Ana Bernabe;A World Of Animals Vol. 2;Painting- Animals;;Viking folk Art;2002;-;;English,0,2000-01-01 01:00:00,2016-11-28 16:07:36,1585000/857f613ba692b86d043d09c24061c24a-g.jpg,,
29683843,A World Of Animals Vol. 3,,Painting- Animals,,Ana Bernabe,2003,,Viking folk Art,,,65,English,,,,-,,,,,,,,,,,0,,,,,,0,0,46544505,pdf,d2dbe9b1e95bf109a85cf033d923f5a2,,,Ana Bernabe;A World Of Animals Vol. 3;Painting- Animals;;Viking folk Art;2003;-;;English,0,2000-01-01 01:00:00,2016-11-28 16:07:36,1585000/d2dbe9b1e95bf109a85cf033d923f5a2-g.jpg,,
29683844,20 Easy DIY Holiday Craft,,,,Collective,2015,,FloraCraft,,0,58,English,,,0,-,,,,,,,,,,,0,,,,,,0,1,19194778,pdf,b5d1f6e32d9acffad14ecfb28dac3ac6,,,"Collective;20 Easy DIY Holiday Craft;;;FloraCraft, Prime Publishing LLC;2015;-;;English",0,2000-01-01 01:00:00,2016-11-28 16:07:36,1585000/b5d1f6e32d9acffad14ecfb28dac3ac6-g.jpg,,
29683845,Географический атлас Республики Мордовия,,,,Ямашкин А.А.(ред.),2012,,Изд-во Мордов. ун-та,,,205,Russian,,,,978-5-7103-2581-0,,,,,,,,,,,0,,,,,,0,0,108402832,djvu,b96efd30088f341da508c7363dba4035,,,Ямашкин А.А.(ред.);Географический атлас Республики Мордовия;;;Изд-во Мордов. ун-та;2012;978-5-7103-2581-0;;Russian,0,2000-01-01 01:00:00,2016-11-28 16:07:36,1588000/b96efd30088f341da508c7363dba4035-g.jpg,,
29683846,Astrophysics,,,,Ibrahim Kucuk,2012,,InTeO,,,405,English,,,,9535104735,,,,,,,,,,,0,,,,,,0,1,14322251,pdf,3a6745c9122bac55dbf0c817483f6c7f,,,Ibrahim Kucuk;Astrophysics;;;InTeO;2012;9535104735;;English,0,2000-01-01 01:00:00,2016-11-28 16:07:36,1588000/3a6745c9122bac55dbf0c817483f6c7f-g.jpg,,
29683847,Дендрология,,,,Абаимов В.Ф.,2009,,Академия,,,365,Russian,,,,978-5-7695-4967-0,,,,,,,,,,,0,,,,,,0,1,13252269,pdf,759bd6f0dc3cb308c80b0927bb05932e,,,Абаимов В.Ф.;Дендрология;;;Академия;2009;978-5-7695-4967-0;;Russian,0,2000-01-01 01:00:00,2016-11-28 16:07:36,1588000/759bd6f0dc3cb308c80b0927bb05932e-g.jpg,,
29683848,Зеркальное отражение,,Science Fiction,,Айзек Азимов,1992,,«Северо-Запад»,,,520,Russian,,,,5-8352-0088-9,,,,,,,,,,,0,,,,,,0,1,13062938,pdf,430fd26af844c8dacd02ccaeba4c87f9,,,Айзек Азимов;Зеркальное отражение;Science Fiction;;«Северо-Запад»;1992;5-8352-0088-9;;Russian,0,2000-01-01 01:00:00,2016-11-28 16:07:36,1588000/430fd26af844c8dacd02ccaeba4c87f9-g.jpg,,
29683849,Чужой. Бегущий по лезвию бритвы. Вспомнить все.,Кн. 1,Бестселлеры Голливуда,,"Алан Дин Фостер, Филипп К. Дик",1993,,GviDo,,,438,Russian,,,,9984-501-01-9,,,,,,,,,,,0,,,,,,0,1,13901069,djvu,7abfc1b7ee6fff01956d25bc86f639ea,,,"Алан Дин Фостер, Филипп К. Дик;Чужой. Бегущий по лезвию бритвы. Вспомнить все.;Бестселлеры Голливуда;Кн. 1;GviDo;1993;9984-501-01-9;;Russian",0,2000-01-01 01:00:00,2016-11-28 16:07:36,1588000/7abfc1b7ee6fff01956d25bc86f639ea-g.jpg,,
29683850,Геометрия. 7-9 классы,,,,Атанасян Л.С.,2012,,Просвещение,,,196,Russian,,,,978-5-09-026716-8,,,,,,,,,,,0,,,,,,0,1,13018542,djvu,ef2e94c9ff3b61fc69495881784529bf,,,Атанасян Л.С.;Геометрия. 7-9 классы;;;  Просвещение;2012;978-5-09-026716-8;;Russian,0,2000-01-01 01:00:00,2016-11-28 16:07:36,1588000/ef2e94c9ff3b61fc69495881784529bf-g.jpg,,
29683851,Охрана почв  Словарь-справочник,,,,Болдышев В.С.,1989,,Университетское,,,160,Russian,,,,5-7855-0182-1,,,,,,,,,,,0,,,,,,0,0,13408798,pdf,14bd199c3e5b040c8cbf120e4a8f0695,,,Болдышев В.С.;Охрана почв  Словарь-справочник;;;Университетское;1989;5-7855-0182-1;;Russian,0,2000-01-01 01:00:00,2016-11-28 16:07:36,1588000/14bd199c3e5b040c8cbf120e4a8f0695-g.jpg,,
29683852,Больше чем смерть,,Капитаны фантастики,,Брайан Олдисс,1997,,Азбука-Терра,,,493,Russian,,,,5-7684-0255-1,,,,,,,,,,,0,,,,,,0,1,13994015,djvu,7419b28cf2405bf1f0d40aeb55c3a89c,,,Брайан Олдисс;Больше чем смерть;Капитаны фантастики;;Азбука-Терра;1997;5-7684-0255-1;;Russian,0,2000-01-01 01:00:00,2016-11-28 16:07:36,1588000/7419b28cf2405bf1f0d40aeb55c3a89c-g.jpg,,
29683853,Основы теории чисел,,,,Виноградов И.М.,2006,,Лань,,,179,Russian,,,,5-8114-0535-9,,,,,,,,,,,0,,,,,,0,1,13386151,pdf,3dccc3ddbca5b1df67e13478ef9a16a6,,,Виноградов И.М.;Основы теории чисел;;;Лань;2006;5-8114-0535-9;;Russian,0,2000-01-01 01:00:00,2016-11-28 16:07:36,1588000/3dccc3ddbca5b1df67e13478ef9a16a6-g.jpg,,
29683854,Физика. Диагностические работы в формате ЕГЭ 2013,,,,Вишнякова Е. А.,2013,,МЦНМО,,,172,Russian,,,,978-5-4439-0518-1,,,,,,,,,,,0,,,,,,0,1,14174486,pdf,6b5aa723a982153e36823ec576cdaa38,,,Вишнякова Е. А.;Физика. Диагностические работы в формате ЕГЭ 2013;;;МЦНМО; 2013;978-5-4439-0518-1;;Russian,0,2000-01-01 01:00:00,2016-11-28 16:07:36,1588000/6b5aa723a982153e36823ec576cdaa38-g.jpg,,
29683855,Теневая Линия. Ловцы звезд. Звездный рубеж,,Золотая библиотека фантастики,,Глен Кук,2002,,ООО «Издательство АСТ»,,,334,Russian,,,,5-17-014691-4,,,,,,,,,,,0,,,,,,0,1,13562009,djvu,f97ad1a4b4e1b79b973466143c7ac6fe,,,Глен Кук;Теневая Линия. Ловцы звезд. Звездный рубеж;Золотая библиотека фантастики;;ООО «Издательство АСТ»;2002;5-17-014691-4;;Russian,0,2000-01-01 01:00:00,2016-11-28 16:07:36,1588000/f97ad1a4b4e1b79b973466143c7ac6fe-g.jpg,,
29683856,Кинезиология точностных действий человека,,,,Голомазов С.В.,2003,,СпортАкадемПресс,,,100,Russian,,,,5-8134-0132-6,,,,,,,,,,,0,,,,,,0,1,13273358,pdf,c03bf819954f77ae6eed911527463f99,,,Голомазов С.В.;Кинезиология точностных действий человека;;;СпортАкадемПресс;2003;5-8134-0132-6;;Russian,0,2000-01-01 01:00:00,2016-11-28 16:07:36,1588000/c03bf819954f77ae6eed911527463f99-g.jpg,,
29683857,Эрнст Теодор Амадей Гофман - Новеллы,,,,Гофман Э. Т. А.,1990,,Лениздат,,,612,Russian,,,,5-289-00664-8,,,,,,,,,,,0,,,,,,0,1,14286198,djvu,b8f4b0be240a7608c4f02c0e640e609d,,,Гофман Э. Т. А.;Эрнст Теодор Амадей Гофман - Новеллы;;;Лениздат;1990;5-289-00664-8;;Russian,0,2000-01-01 01:00:00,2016-11-28 16:07:36,1588000/b8f4b0be240a7608c4f02c0e640e609d-g.jpg,,
29683858,Затерянные во времени,,Классика мировой фантастики,,Джон Уиндэм,2002,,ООО «Издательство АСТ»,,,738,Russian,,,,5-17-014083-5,,,,,,,,,,,0,,,,,,0,1,13655337,djvu,272ead6db54315febfb60ce186f2e349,,,Джон Уиндэм;Затерянные во времени;Классика мировой фантастики;;ООО «Издательство АСТ»;2002;5-17-014083-5;;Russian,0,2000-01-01 01:00:00,2016-11-28 16:07:36,1588000/272ead6db54315febfb60ce186f2e349-g.jpg,,
29683859,Основы агрономии,,,,"Евтефеев Ю.В., Казанцев Г.М.",2013,,ФОРУМ,,,370,Russian,,,,978-5-91134-192-3,,,,,,,,,,,0,,,,,,0,1,13658765,pdf,945b7be036de17b7a9f5c17c87562119,,,"Евтефеев Ю.В., Казанцев Г.М.;Основы агрономии;;;ФОРУМ;2013;978-5-91134-192-3;;Russian",0,2000-01-01 01:00:00,2016-11-28 16:07:36,1588000/945b7be036de17b7a9f5c17c87562119-g.jpg,,
29683860,Князь Света,,"Fantasy, №6",,Зилазни Роджер,1992,,«Северо-Запад»,,,211,Russian,,,,5-8352-0041-2,,,,,,,,,,,0,,,,,,0,1,13907467,pdf,a9d6316ae67dcb9dfeb71c54281a117b,,,"Зилазни Роджер;Князь Света;Fantasy, №6;;«Северо-Запад»;1992;5-8352-0041-2;;Russian",0,2000-01-01 01:00:00,2016-11-28 16:07:36,1588000/a9d6316ae67dcb9dfeb71c54281a117b-g.jpg,,
29683861,Практикум по органической химии,,,,"Иванов В.Г., Гева О.Н., Гаверова Ю.Г.",2002,,Академия,,,288,Russian,,,,5-7695-0586-9,,,,,,,,,,,0,,,,,,0,0,13937562,pdf,f45f787d93479f842605d6b35b1d161a,,,"Иванов В.Г., Гева О.Н., Гаверова Ю.Г.;Практикум по органической химии;;;Академия;2002;5-7695-0586-9;;Russian",0,2000-01-01 01:00:00,2016-11-28 16:07:36,1588000/f45f787d93479f842605d6b35b1d161a-g.jpg,,
29683862,Дети разума. Тень Эндера,,Золотая библиотека фантастики,,Кард О.,2002,,ООО «Издательство АСТ»,,,772,Russian,,,,5-17-012602-6,,,,,,,,,,,0,,,,,,0,1,13622810,djvu,11e0f07df9fc160617365297bdb8998c,,,Кард О.;Дети разума. Тень Эндера;Золотая библиотека фантастики;;ООО «Издательство АСТ»;2002;5-17-012602-6;;Russian,0,2000-01-01 01:00:00,2016-11-28 16:07:36,1588000/11e0f07df9fc160617365297bdb8998c-g.jpg,,
29683863,Девочка с Земли,,Школьная библиотека,,Кир Булычёв,2014,,Самовар,,,224,Russian,,,,978-5-9781-0913-9,,,,,,,,,,,0,,,,,,0,0,111446361,pdf,8ac1573a7d3fc50c60e9153005720ddc,,,Кир Булычёв;Девочка с Земли;Школьная библиотека;;Самовар;2014;978-5-9781-0913-9;;Russian,0,2000-01-01 01:00:00,2016-11-28 16:07:36,1588000/8ac1573a7d3fc50c60e9153005720ddc-g.jpg,,
29683864,Свидание с Рамой,,Шедевры мировой фантастики,,Кларк А.,1992,,“Дайджест”,,,436,Russian,,,,5-82840002-9,,,,,,,,,,,0,,,,,,0,1,13883737,pdf,338341686d523007bb547a6baed64c89,,,Кларк А.;Свидание с Рамой;Шедевры мировой фантастики;; “Дайджест”;1992;5-82840002-9;;Russian,0,2000-01-01 01:00:00,2016-11-28 16:07:36,1588000/338341686d523007bb547a6baed64c89-g.jpg,,
29683865,Общая и неорганическая химия,,,,Коржуков Н.Г.,2004,,МИСИС.  ИНФРА- М.,,,257,Russian,,,,5-87623-120-7,,,,,,,,,,,0,,,,,,0,0,13093326,pdf,e5945804dacd6b20ba40faa0ff969d6d,,,Коржуков Н.Г.;Общая и неорганическая химия;;;  МИСИС.  ИНФРА- М.;2004;5-87623-120-7;;Russian,0,2000-01-01 01:00:00,2016-11-28 16:07:36,1588000/e5945804dacd6b20ba40faa0ff969d6d-g.jpg,,
29683866,Дольше календаря,,,,Кублановский Ю.М.,2005,,Время,,,726,Russian,,,,5-94117-153-6,,,,,,,,,,,0,,,,,,0,1,13597467,djvu,4b1bd5260189fa5c7f4d964d5d670130,,,Кублановский Ю.М.;Дольше календаря;;;Время;2005;5-94117-153-6;;Russian,0,2000-01-01 01:00:00,2016-11-28 16:07:36,1588000/4b1bd5260189fa5c7f4d964d5d670130-g.jpg,,
29683867,Огонь в его ладонях. Без пощады,,Золотая серия фэнтези,,Кук Г.,2003,,ООО «Издательство АСТ»,,,726,Russian,,,,5-17-016536-6,,,,,,,,,,,0,,,,,,0,1,13802031,djvu,f056a078a2ace50ae671be78bce632d4,,,Кук Г.;Огонь в его ладонях. Без пощады;Золотая серия фэнтези;;ООО «Издательство АСТ»;2003;5-17-016536-6;;Russian,0,2000-01-01 01:00:00,2016-11-28 16:07:36,1588000/f056a078a2ace50ae671be78bce632d4-g.jpg,,
29683868,Нездешние вечера,,,,М. А. Кузмин,1989,,Молодая гвардия,,,70,Russian,,,,5-235-01131-7,,,,,,,,,,,0,,,,,,0,1,13747024,pdf,9deb29b5ac37426906822109929e4659,,,М. А. Кузмин;Нездешние вечера;;;Молодая гвардия;1989;5-235-01131-7;;Russian,0,2000-01-01 01:00:00,2016-11-28 16:07:36,1588000/9deb29b5ac37426906822109929e4659-g.jpg,,
29683869,Произведение в алом,,Гримуар,,Майринк Густав,2004,,"Энигма, Независимая газета",,,498,Russian,,,,5-94698-040-8,,,,,,,,,,,0,,,,,,0,1,14128973,djvu,51d605b5ddee33a1faa771cd1354de26,,,"Майринк Густав;Произведение в алом;Гримуар;;Энигма, Независимая газета;2004;5-94698-040-8;;Russian",0,2000-01-01 01:00:00,2016-11-28 16:07:36,1588000/51d605b5ddee33a1faa771cd1354de26-g.jpg,,
29683870,Бегство из сумерек,,«Осирис»,,Муркок М.,1996,,Центрполиграф,,,481,Russian,,,,5-218-00070-1,,,,,,,,,,,0,,,,,,0,1,14027260,pdf,f6dccd4fe614aed48783de2df27dc05f,,,Муркок М.;Бегство из сумерек;«Осирис»;;Центрполиграф;1996;5-218-00070-1;;Russian,0,2000-01-01 01:00:00,2016-11-28 16:07:36,1588000/f6dccd4fe614aed48783de2df27dc05f-g.jpg,,
29683871,Леопард с вершины Килиманджаро,,Классика отечественной фантастики,,Ольга Ларионова,2001,,"ООО «Издательство АСТ», Тerra Fantastica",,,769,Russian,,,,"5-17-011162-2, 5-7921-0455-7",,,,,,,,,,,0,,,,,,0,1,13911163,pdf,b395028fc580fe5911824e074920184e,,,"Ольга Ларионова;Леопард с вершины Килиманджаро;Классика отечественной фантастики;;ООО «Издательство АСТ», Тerra Fantastica;2001;5-17-011162-2, 5-7921-0455-7;;Russian",0,2000-01-01 01:00:00,2016-11-28 16:07:36,1588000/b395028fc580fe5911824e074920184e-g.jpg,,
29683872,Физика гравитации и структура атомного ядра. Просто о сложном,,,,Паленко Н.А.,2012,,Питер,,,176,Russian,,,,978-5-459-00544-8,,,,,,,,,,,0,,,,,,0,1,13020151,pdf,b960f92cdf8006362aa18198ed4d4ead,,,Паленко Н.А.;Физика гравитации и структура атомного ядра. Просто о сложном;;;Питер;2012;978-5-459-00544-8;;Russian,0,2000-01-01 01:00:00,2016-11-28 16:07:36,1588000/b960f92cdf8006362aa18198ed4d4ead-g.jpg,,
29683873,Анатомия и физиология сельскохозяйственных животных,,Учебники и учебные пособия для,,"Писменская В.Н., Ленченко Е.М., Голицына Л.А.",2006,,КолосС,,,141,Russian,,,,5-9532-0211-3,,,,,,,,,,,0,,,,,,0,0,14226377,pdf,a2441cf5ac64bb20153639c81a570ceb,,,"Писменская В.Н., Ленченко Е.М., Голицына Л.А.;Анатомия и физиология сельскохозяйственных животных;Учебники и учебные пособия для;;КолосС;2006;5-9532-0211-3;;Russian",0,2000-01-01 01:00:00,2016-11-28 16:07:36,1588000/a2441cf5ac64bb20153639c81a570ceb-g.jpg,,
29683874,Двойник. Дверь в лето.,Книга 5,Миры Роберта Хайнлайна,,Роберт Хайнлайн,1993,,Полярис,,,440,Russian,,,,5-88132-019-0,,,,,,,,,,,0,,,,,,0,1,13045379,djvu,c3f8e5de8511ce976089a59e62832e2a,,,Роберт Хайнлайн;Двойник. Дверь в лето.;Миры Роберта Хайнлайна;Книга 5;Полярис;1993;5-88132-019-0;;Russian,0,2000-01-01 01:00:00,2016-11-28 16:07:36,1588000/c3f8e5de8511ce976089a59e62832e2a-g.jpg,,
29683875,Пасынки Вселенной. Свободное владение Фарнхэма,Книга 4,Миры Роберта Хайнлайна,,Роберт Хайнлайн,1993,,Полярис,,,440,Russian,,,,5-88132-017-4,,,,,,,,,,,0,,,,,,0,1,12887825,djvu,c64e420b96ce0df1d5561e9b0d2e1a9a,,,Роберт Хайнлайн;Пасынки Вселенной. Свободное владение Фарнхэма;Миры Роберта Хайнлайна;Книга 4;Полярис;1993;5-88132-017-4;;Russian,0,2000-01-01 01:00:00,2016-11-28 16:07:36,1588000/c64e420b96ce0df1d5561e9b0d2e1a9a-g.jpg,,
29683876,Химия. Основные понятия и законы химии. Химические реакции. 8-9 класс,,,,Савельев А.,2003,,Дрофа,,,103,Russian,,,,5-7107-6502-3,,,,,,,,,,,0,,,,,,0,0,12777730,pdf,f70f5f51809b79e7d29bd88b61da17e4,,,Савельев А.;Химия. Основные понятия и законы химии. Химические реакции. 8-9 класс;;;Дрофа;2003;5-7107-6502-3;;Russian,0,2000-01-01 01:00:00,2016-11-28 16:07:36,1588000/f70f5f51809b79e7d29bd88b61da17e4-g.jpg,,
29683877,"Forgotten Anzacs: The Campaign in Greece, 1941",,,,Peter Ewer,2016,,Scribe Publications Pty Ltd.,,448,0,English,,,0,"1925321290,9781925321296",,,,,,,,,,,0,,,,,,1,,1608578,epub,b3b594bc234ba16ff483b7e4463bdc35,,,1925321290.epub,0,2000-01-01 01:00:00,2016-11-28 16:18:40,1588000/b3b594bc234ba16ff483b7e4463bdc35-d.jpg,"Australia & New Zealand;Australia & Oceania;History;World War II;Military;History;Military;History;Humanities;New, Used & Rental Textbooks;Specialty Boutique","1925321290,9781925321296"
29683878,"Today We Die a Little!: The Inimitable Emil Zátopek, the Greatest Olympic Runner of All Time",,,,Richard Askwith,2016,First Us ed.,Nation Books,,496,0,English,,,0,"1568585497,9781568585499",,,,,,,,,,,0,,,,,,1,,11528555,epub,ca26a3fcd7cc9e830cb529aa33f62727,,,1568585497.epub,0,2000-01-01 01:00:00,2016-11-28 16:18:41,1588000/ca26a3fcd7cc9e830cb529aa33f62727-d.jpg,"Biographies & Memoirs;Arts & Literature;Ethnic & National;Historical;Leaders & Notable People;Memoirs;Professionals & Academics;Reference & Collections;Regional Canada;Regional U.S.;Specific Groups;Sports & Outdoors;Travelers & Explorers;True Crime;Biographies;Baseball;Basketball;Boxing, Wrestling & MMA;Football;Golf;Hockey;Soccer;Sports & Outdoors;Running & Jogging;Individual Sports;Sports & Outdoors","1568585497,9781568585499"
29683879,Psycho-Cybernetics: Updated and Expanded,,1,,Maxwell Maltz,0,,Perigee,,0,0,English,,,0,,,,,,,,,,,,0,,,,,,,,573793,epub,7475556fecda69521160e1be204cac1f,,,Psycho-Cybernetics_ Updated and Expanded - Maxwell Maltz.epub,0,2000-01-01 01:00:00,2016-11-28 16:18:56,1588000/7475556fecda69521160e1be204cac1f-g.jpg,Success -- Psychological aspects,
29683880,Ethik als Steigerungsform von Theologie? Systematische Rekonstruktion und Kritik eines Strukturprozesses im neuzeitlichen Protestantismus,,Theologische Bibliothek Töpelmann 144,,Stefan Atze,2008,,de Gruyter,,670,684,German,205,,0,"3110203901,9783110203905,9783110211245",,,,,,,,,,,0,,,,,,,1,5935608,pdf,e96fb6b9779a8cee6ff64dd88fd2f07a,,,Ethik als Steigerungsform von Theologie_2008.pdf,0,2000-01-01 01:00:00,2016-11-28 16:24:18,http://ecx.images-amazon.com/images/I/31j8kEI8mmL.jpg,"Troeltsch, Christentum, Theologie, Religionsphilosophie, Religionswissenschaft, Ethik, Philosophie, Religion, Kirche, Bibel, Jesus, Protestantismus, Geschichte","3110203901,9783110203905,9783110211245"
29683881,Всадник и лошадь. Начальная подготовка. Том 1,,,,перевод с немецкого Коган И.Л.,2007,,АртЛаборатория,,,123,Russian,,,,,,,,,,,,,,,0,,,,,,0,1,13702396,pdf,802061d67772c4b5be39fa7ee7b7a43e,,,перевод с немецкого Коган И.Л.;Всадник и лошадь. Начальная подготовка. Том 1;;;АртЛаборатория;2007;;;Russian,0,2000-01-01 01:00:00,2016-11-28 16:26:47,1588000/802061d67772c4b5be39fa7ee7b7a43e-g.jpg,,
29683882,Леопард с вершины Килиманджаро,,Классика отечественной фантастики,,Ольга Ларионова,2001,,"ООО «Издательство АСТ», Тerra Fantastica",,,769,Russian,,,,"5-17-011162-2, 5-7921-0455-7",,,,,,,,,,,0,,,,,,0,1,13911163,pdf,b395028fc580fe5911824e074920184e,,,"Ольга Ларионова;Леопард с вершины Килиманджаро;Классика отечественной фантастики;;ООО «Издательство АСТ», Тerra Fantastica;2001;5-17-011162-2, 5-7921-0455-7;;Russian",0,2000-01-01 01:00:00,2016-11-28 16:28:24,1588000/b395028fc580fe5911824e074920184e-g.jpg,,"5170111622,5792104557"
29683883,Весенние биологические экскурсии в окрестностях Иркутска.,,,,"Л.В. Бардунов, Л.И. Малышев",1960,,Иркутск  Иркутское книжное издательство,,,53,Russian,,,,,,,,,,,,,,,0,,,,,,0,0,14165784,pdf,372505e27bc1ae48420aab27bbf40d59,,,"Л.В. Бардунов, Л.И. Малышев;Весенние биологические экскурсии в окрестностях Иркутска.;;;Иркутск  Иркутское книжное издательство;1960;;;Russian",0,2000-01-01 01:00:00,2016-11-28 16:29:31,1588000/372505e27bc1ae48420aab27bbf40d59-g.jpg,,
29683884,Vilnius: city of strangers,,,,Briedis Laimonas,2009,,Baltos Lankos,Vilnius,295,288,English,64,,0,9789955231967,,,,,,,,,,,400,,,,,,0,1,16906325,pdf,0385b091cc8a0eb4153d95d0a38ef094,,,"Briedis, Vilnius. City of strangers, 2008.pdf",0,2000-01-01 01:00:00,2016-11-28 16:54:03,,,9789955231967
29683885,"Art in Vilnius, 1900-1915",,,,Laučkaitė Laima,2008,,Baltos Lankos,Vilnius,199,194,English,57,,0,9789955231837,,,,,,,,,,,400,,,,,,0,1,36176775,pdf,2046aad4d57170f9622b9613e6f5078d,,,"Laučkaite, Art in Vilnius 1900-1915, 2008.pdf",0,2000-01-01 01:00:00,2016-11-28 16:57:43,,,9789955231837
29683886,"Lithuanian nationalism and the Vilnius question, 1883-1940",,"Studien zur Ostmitteleuropaforschung, 32",,"Mačiulis Dangiras, Staliūnas Darius",2015,,Verlag Herder-Institut,Marburg,"V, 236",239,English,64,,0,9783879694013,,,,,,,,,,,400,,,,,,0,1,57304515,pdf,aee00cb9b45b402caf9327bad4fae3e6,,,"Maciulis + Staliunas, Lithuanian nationalism and Vilnius question 1883-1940, 2015.pdf",0,2000-01-01 01:00:00,2016-11-28 17:04:21,,,9783879694013
29683887,Театрал,,,,Греч Н.И.,1853,,Типография Н. Греча,,,162,Russian,,,,-,,,,,,,,,,,0,,,,,,0,1,37959134,pdf,25c2fd4d768b164089e605624a96fb6a,,,Греч Н.И.;Театрал;;;Типография Н. Греча;1853;-;;Russian,0,2000-01-01 01:00:00,2016-11-28 17:07:36,1573000/25c2fd4d768b164089e605624a96fb6a-g.jpg,,
29683888,Иллюстрированный практический путеводитель по Одессе,,,,Москвич Г.Г.,1904,,Типография Л. Нитче (Одесса),,,193,Russian,,,,-,,,,,,,,,,,0,,,,,,0,1,114294202,pdf,6056c19c1332a4c10e4a7a718155860f,,,Москвич Г.Г.;Иллюстрированный практический путеводитель по Одессе;;;Типография Л. Нитче (Одесса);1904;-;;Russian,0,2000-01-01 01:00:00,2016-11-28 17:07:36,1577000/6056c19c1332a4c10e4a7a718155860f-g.jpg,,
29683889,«Отчизну сердцем защитили»  Стихи поэтов Тейковского района,,,,,2011,,"ОАО «Издательство «Иваново»,",,,64,Russian,,,,-,,,,,,,,,,,0,,,,,,0,1,2010197,pdf,ca229279281b8a331bc80b0e6cfa53f2,,,";«Отчизну сердцем защитили»  Стихи поэтов Тейковского района;;;ОАО «Издательство «Иваново»,;2011;-;;Russian",0,2000-01-01 01:00:00,2016-11-28 17:07:36,1585000/ca229279281b8a331bc80b0e6cfa53f2-g.jpg,,
29683890,Recettes Angéliques. Le bœuf: Le goût d’être ensemble,,,,(Collective),2012,,INTERBEV,,0,32,French,,,0,-,,,,,,,,,,,0,,,,,,0,1,3164060,pdf,be017384eb788f84803d6cf2728a3a68,,,;Recettes Angliques. Le boeuf Le got d’tre ensemble;;;INTERBEV;2012;-;;French,0,2000-01-01 01:00:00,2016-11-28 17:07:36,1585000/be017384eb788f84803d6cf2728a3a68-g.jpg,,
29683891,A World Of Animals Vol. 2,,Painting- Animals,,Ana Bernabe,2002,,Viking folk Art,,,60,English,,,,-,,,,,,,,,,,0,,,,,,0,0,50405079,pdf,857f613ba692b86d043d09c24061c24a,,,Ana Bernabe;A World Of Animals Vol. 2;Painting- Animals;;Viking folk Art;2002;-;;English,0,2000-01-01 01:00:00,2016-11-28 17:07:36,1585000/857f613ba692b86d043d09c24061c24a-g.jpg,,
29683892,A World Of Animals Vol. 3,,Painting- Animals,,Ana Bernabe,2003,,Viking folk Art,,,65,English,,,,-,,,,,,,,,,,0,,,,,,0,0,46544505,pdf,d2dbe9b1e95bf109a85cf033d923f5a2,,,Ana Bernabe;A World Of Animals Vol. 3;Painting- Animals;;Viking folk Art;2003;-;;English,0,2000-01-01 01:00:00,2016-11-28 17:07:36,1585000/d2dbe9b1e95bf109a85cf033d923f5a2-g.jpg,,
29683893,20 Easy DIY Holiday Craft,,,,Collective,2015,,FloraCraft,,0,58,English,,,0,-,,,,,,,,,,,0,,,,,,0,1,19194778,pdf,b5d1f6e32d9acffad14ecfb28dac3ac6,,,"Collective;20 Easy DIY Holiday Craft;;;FloraCraft, Prime Publishing LLC;2015;-;;English",0,2000-01-01 01:00:00,2016-11-28 17:07:36,1585000/b5d1f6e32d9acffad14ecfb28dac3ac6-g.jpg,,
29683894,Negative Implikationen der Reformation? Gesellschaftliche Transformationsprozesse 1470–1620,,Quellen und Forschungen zu Thüringen im Zeitalter der Reformation 4,,"Werner Greiling, Armin Kohnle, Uwe Schirmer",2015,,Böhlau,,464,412,German,205,,0,"3412501530,9783412501532,9783412502249",,,,,,,,,,,0,,,,,,,1,12023730,pdf,423f91ad97d1c91e385f279ee4cdc55f,,,Greiling - Negative Implikationen der Reformation.pdf,0,2000-01-01 01:00:00,2016-11-28 17:14:45,http://ecx.images-amazon.com/images/I/51L9M5PmBoL.jpg,"Kirche, Christentum, Reformation, Protestantismus, Martin Luther, Antijudaismus, Antisemitismus, Juden, Judentum, Islam, Evangelische Kirche, Katholische Kirche, Katholizismus, Bibel, Theologie, Religionswissenschaft, Religion, Geschichte","3412501530,9783412501532,9783412502249"
29683895,Style & Statistics: The Art of Retail Analytics,,Wiley and SAS Business Series,,Brittany Bullard,2016,1,Wiley,,208,0,English,,,0,"1119270316,9781119270317",,,,,,,,,,,0,,,,,,,,724845,epub,ed978ad7d03a0f1ea65c7c6c850e08d3,,,1119270316.epub,0,2000-01-01 01:00:00,2016-11-28 17:25:39,http://ecx.images-amazon.com/images/I/51wKWYuo5gL.jpg,"Retailing;Industries;Business & Money;Business & Finance;Accounting;Banking;Business Communication;Business Development;Business Ethics;Business Law;Economics;Entrepreneurship;Finance;Human Resources;International Business;Investments & Securities;Management;Marketing;Real Estate;Sales;New, Used & Rental Textbooks;Specialty Boutique","1119270316,9781119270317"
29683896,Lightroom Pics: Perfekte Bilder mit Adobe® Lightroom,,,,Andreas Pflaum,2016,,Franzis Verlag,,321,321,German,,,0,9783645604512,,,,,,,,,,,600,1,1,,,0,1,1,22588382,pdf,4e925561b3867ab7bbdd4836e32ae413,,,Lightroom Pics_ Perfekte Bilder - Andreas Pflaum.pdf,0,2000-01-01 01:00:00,2016-11-28 17:48:13,http://i.imgur.com/pRDpkpP.jpg,,9783645604512
29683897,Театрал,,,,Греч Н.И.,1853,,Типография Н. Греча,,,162,Russian,,,,-,,,,,,,,,,,0,,,,,,0,1,37959134,pdf,25c2fd4d768b164089e605624a96fb6a,,,Греч Н.И.;Театрал;;;Типография Н. Греча;1853;-;;Russian,0,2000-01-01 01:00:00,2016-11-28 18:07:36,1573000/25c2fd4d768b164089e605624a96fb6a-g.jpg,,
29683898,Иллюстрированный практический путеводитель по Одессе,,,,Москвич Г.Г.,1904,,Типография Л. Нитче (Одесса),,,193,Russian,,,,-,,,,,,,,,,,0,,,,,,0,1,114294202,pdf,6056c19c1332a4c10e4a7a718155860f,,,Москвич Г.Г.;Иллюстрированный практический путеводитель по Одессе;;;Типография Л. Нитче (Одесса);1904;-;;Russian,0,2000-01-01 01:00:00,2016-11-28 18:07:36,1577000/6056c19c1332a4c10e4a7a718155860f-g.jpg,,
29683899,«Отчизну сердцем защитили»  Стихи поэтов Тейковского района,,,,,2011,,"ОАО «Издательство «Иваново»,",,,64,Russian,,,,-,,,,,,,,,,,0,,,,,,0,1,2010197,pdf,ca229279281b8a331bc80b0e6cfa53f2,,,";«Отчизну сердцем защитили»  Стихи поэтов Тейковского района;;;ОАО «Издательство «Иваново»,;2011;-;;Russian",0,2000-01-01 01:00:00,2016-11-28 18:07:36,1585000/ca229279281b8a331bc80b0e6cfa53f2-g.jpg,,
29683900,Recettes Angéliques. Le bœuf: Le goût d’être ensemble,,,,(Collective),2012,,INTERBEV,,0,32,French,,,0,-,,,,,,,,,,,0,,,,,,0,1,3164060,pdf,be017384eb788f84803d6cf2728a3a68,,,;Recettes Angliques. Le boeuf Le got d’tre ensemble;;;INTERBEV;2012;-;;French,0,2000-01-01 01:00:00,2016-11-28 18:07:36,1585000/be017384eb788f84803d6cf2728a3a68-g.jpg,,
29683901,A World Of Animals Vol. 2,,Painting- Animals,,Ana Bernabe,2002,,Viking folk Art,,,60,English,,,,-,,,,,,,,,,,0,,,,,,0,0,50405079,pdf,857f613ba692b86d043d09c24061c24a,,,Ana Bernabe;A World Of Animals Vol. 2;Painting- Animals;;Viking folk Art;2002;-;;English,0,2000-01-01 01:00:00,2016-11-28 18:07:36,1585000/857f613ba692b86d043d09c24061c24a-g.jpg,,
29683902,A World Of Animals Vol. 3,,Painting- Animals,,Ana Bernabe,2003,,Viking folk Art,,,65,English,,,,-,,,,,,,,,,,0,,,,,,0,0,46544505,pdf,d2dbe9b1e95bf109a85cf033d923f5a2,,,Ana Bernabe;A World Of Animals Vol. 3;Painting- Animals;;Viking folk Art;2003;-;;English,0,2000-01-01 01:00:00,2016-11-28 18:07:36,1585000/d2dbe9b1e95bf109a85cf033d923f5a2-g.jpg,,
29683903,20 Easy DIY Holiday Craft,,,,Collective,2015,,FloraCraft,,0,58,English,,,0,-,,,,,,,,,,,0,,,,,,0,1,19194778,pdf,b5d1f6e32d9acffad14ecfb28dac3ac6,,,"Collective;20 Easy DIY Holiday Craft;;;FloraCraft, Prime Publishing LLC;2015;-;;English",0,2000-01-01 01:00:00,2016-11-28 18:07:36,1585000/b5d1f6e32d9acffad14ecfb28dac3ac6-g.jpg,,
29683904,Маски времени,,ЭЛИТА,,Силверберг Р.,1993,,АО «ЭГОС»,,,291,Russian,,,,5-85476-016-9,,,,,,,,,,,0,,,,,,0,1,12830305,djvu,c65d901fe9c232a0fe9babaf8dd65806,,,Силверберг Р.;Маски времени;ЭЛИТА;;АО «ЭГОС»;1993;5-85476-016-9;;Russian,0,2000-01-01 01:00:00,2016-11-28 18:07:36,1588000/c65d901fe9c232a0fe9babaf8dd65806-g.jpg,,
29683905,Стальная мечта,Вып. 13,«Осирис»,,Спинрад Норман,1996,,Центрполиграф,,,564,Russian,,,,5-218-00052-3,,,,,,,,,,,0,,,,,,0,1,13007572,djvu,8510d000a33aa32a26c579a2fbe39970,,,Спинрад Норман;Стальная мечта;«Осирис»;Вып. 13;Центрполиграф;1996;5-218-00052-3;;Russian,0,2000-01-01 01:00:00,2016-11-28 18:07:36,1588000/8510d000a33aa32a26c579a2fbe39970-g.jpg,,
29683906,Снова убивать. С прискорбием извещаем. Пистолет с крыльями,,Все звезды. Выпуск 14,,Стаут Р.,1992,,СП «Интерграф Сервис»,,,564,Russian,,,,5-85052-049-Х,,,,,,,,,,,0,,,,,,0,1,13268667,djvu,730dfe46feeac51568afa1af86e023b4,,,Стаут Р.;Снова убивать. С прискорбием извещаем. Пистолет с крыльями;Все звезды. Выпуск 14;;СП «Интерграф Сервис»;1992;5-85052-049-Х;;Russian,0,2000-01-01 01:00:00,2016-11-28 18:07:36,1588000/730dfe46feeac51568afa1af86e023b4-g.jpg,,
29683907,История Лизи,,Король на все времена,,Стивен Кинг,2014,,ACT,,,564,Russian,,,,978-5-17-081608-8,,,,,,,,,,,0,,,,,,0,1,14239359,djvu,e20322e03c3f0d80fa6812f1e190f52f,,,Стивен Кинг;История Лизи;Король на все времена;;ACT;2014;978-5-17-081608-8;;Russian,0,2000-01-01 01:00:00,2016-11-28 18:07:36,1588000/e20322e03c3f0d80fa6812f1e190f52f-g.jpg,,
29683908,История Лизи,,Король на все времена,,Стивен Кинг,2014,,ACT,,,642,Russian,,,,978-5-17-081608-8,,,,,,,,,,,0,,,,,,0,1,13212413,pdf,675151599aa9c84205ca3bee70ea690d,,,Стивен Кинг;История Лизи;Король на все времена;;ACT;2014;978-5-17-081608-8;;Russian,0,2000-01-01 01:00:00,2016-11-28 18:07:36,1588000/675151599aa9c84205ca3bee70ea690d-g.jpg,,
29683909,Гайдамаки,,,,Тарас Григорович Шевченко,1988,,Дніпро,,,289,Ukrainian,,,,5-308-00010-0,,,,,,,,,,,0,,,,,,0,1,13777314,djvu,cd01118d3161880db6f6113dcd353aef,,,Тарас Григорович Шевченко;Гайдамаки;;;Дніпро;1988;5-308-00010-0;;Ukrainian,0,2000-01-01 01:00:00,2016-11-28 18:07:36,1588000/cd01118d3161880db6f6113dcd353aef-g.jpg,,
29683910,Введение в квантовую оптику,,,,Тарасов Л.В.,2008,,УРСС,,,289,Russian,,,,978-5-382-00481-5,,,,,,,,,,,0,,,,,,0,0,12780855,djvu,5f2e8368e73778c2595d8bfef9b389a4,,,Тарасов Л.В.;Введение в квантовую оптику  ;;;УРСС;2008;978-5-382-00481-5;;Russian,0,2000-01-01 01:00:00,2016-11-28 18:07:36,1588000/5f2e8368e73778c2595d8bfef9b389a4-g.jpg,,
29683911,Левая рука тьмы,Вып. 8,«Осирис»,,Урсула Ле Гуин,1993,,Центрполиграф,,,520,Russian,,,,5-7001-0034-7,,,,,,,,,,,0,,,,,,0,1,12763231,djvu,430c412c00d91d4d016a7d4b17b6a4d9,,,Урсула Ле Гуин;Левая рука тьмы;«Осирис»;Вып. 8;Центрполиграф;1993;5-7001-0034-7;;Russian,0,2000-01-01 01:00:00,2016-11-28 18:07:36,1588000/430c412c00d91d4d016a7d4b17b6a4d9-g.jpg,,
29683912,Собрание сочинений. Врата,Том 6,Англо-американская фантастика XX века,,Фредерик Пол,1993,,"«Амбер, Лтд.»",,,546,Russian,,,,5-88358-021-1,,,,,,,,,,,0,,,,,,0,1,14013838,djvu,0a6ae6e4192f8e6b97a38b368bd74082,,,"Фредерик Пол;Собрание сочинений. Врата;Англо-американская фантастика XX века;Том 6;«Амбер, Лтд.»;1993;5-88358-021-1;;Russian",0,2000-01-01 01:00:00,2016-11-28 18:07:36,1588000/0a6ae6e4192f8e6b97a38b368bd74082-g.jpg,,
29683913,Собрание сочинений. Путь на Врата. Нашествие Квантовых Котов,Том 8,Англо-американская фантастика XX века,,Фредерик Пол,1995,,"«Амбер, Лтд», «Сигма-пресс»",,,546,Russian,,,,5-8S358-058-0,,,,,,,,,,,0,,,,,,0,1,14184795,djvu,804d1db909c053e41c57b76110c9ad93,,,"Фредерик Пол;Собрание сочинений. Путь на Врата. Нашествие Квантовых Котов;Англо-американская фантастика XX века;Том 8;«Амбер, Лтд», «Сигма-пресс»;1995;5-8S358-058-0;;Russian",0,2000-01-01 01:00:00,2016-11-28 18:07:36,1588000/804d1db909c053e41c57b76110c9ad93-g.jpg,,
29683914,ГИА-2014  География  9-й кл.  Тренировочные варианты экзаменационных работ для проведения государственной итоговой аттестации в новой форме,,,,"Э.М. Амбарцумова, С.Е. Дюкова",2014,,АСТ  Астрель,,,174,Russian,,,,"978-5-1 7-079866-7, 978-5-271-46617-5",,,,,,,,,,,0,,,,,,0,1,13559178,pdf,458e90315c3e84b66304d5c69ba6180d,,,"Э.М. Амбарцумова, С.Е. Дюкова;ГИА-2014  География  9-й кл.  Тренировочные варианты экзаменационных работ для проведения государственной итоговой аттестации в новой форме;;;АСТ  Астрель;2014;978-5-1 7-079866-7, 978-5-271-46617-5;;Russian",0,2000-01-01 01:00:00,2016-11-28 18:07:36,1588000/458e90315c3e84b66304d5c69ba6180d-g.jpg,,
29683915,Феникс и Зеркало,,Fantasy,,Эйв Дэвидсон,1993,,Северо-Запад,,,488,Russian,,,,5-8352-0189-3,,,,,,,,,,,0,,,,,,0,0,14236868,djvu,c86a5b7e6ea5c4f8b8fcbe852cb924e1,,,Эйв Дэвидсон;Феникс и Зеркало;Fantasy;;Северо-Запад;1993;5-8352-0189-3;;Russian,0,2000-01-01 01:00:00,2016-11-28 18:07:36,1588000/c86a5b7e6ea5c4f8b8fcbe852cb924e1-g.jpg,,
29683916,Blink: A decisГЈo num piscar de olhos,,,,"Malcolm Gladwell [Gladwell, Malcolm]",2005,,Rocco,Rio de Janeiro/RJ,451,0,Portuguese,,,0,853251961X,,,,,,,,,,,0,,,,,,,,270747,epub,bf8050492828dfd924261f0cabdc4b14,,,Blink_ A decisao num piscar de  - Malcolm Gladwell.epub,0,2000-01-01 01:00:00,2016-11-28 18:08:30,https://d19qz1cqidnnhq.cloudfront.net/imagens/capas/_74568218b867c749caa8ffda22b660f2a6557495.jpg,1. Processo decisório. 2. Intuição.,853251961X
29683917,Blink: A decisГЈo num piscar de olhos,,,,"Malcolm Gladwell [Gladwell, Malcolm]",2005,,Rocco,Rio de Janeiro/RJ,451,0,Portuguese,,,0,853251961X,,,,,,,,,,,0,,,,,,,,270747,epub,bf8050492828dfd924261f0cabdc4b14,,,Blink_ A decisao num piscar de  - Malcolm Gladwell.epub,0,2000-01-01 01:00:00,2016-11-28 18:09:16,1588000/bf8050492828dfd924261f0cabdc4b14-d.jpg,1. Processo decisório. 2. Intuição.,853251961X
29683918,Blink: A decisão num piscar de olhos,,,,Malcolm Gladwell,2005,,Rocco,Rio de Janeiro/RJ,451,0,Portuguese,,,0,853251961X,,,,,,,,,,,0,,,,,,,,270747,epub,bf8050492828dfd924261f0cabdc4b14,,,Blink_ A decisao num piscar de  - Malcolm Gladwell.epub,0,2000-01-01 01:00:00,2016-11-28 18:10:41,1588000/bf8050492828dfd924261f0cabdc4b14-d.jpg,1. Processo decisório. 2. Intuição.,853251961X
29683919,Blink: A decisão num piscar de olhos,,,,Malcolm Gladwell,2005,,Rocco,Rio de Janeiro/RJ,451,0,Portuguese,186,,0,853251961X,,,,,,,,,,,0,,,,,,,,270747,epub,bf8050492828dfd924261f0cabdc4b14,,,Blink_ A decisao num piscar de  - Malcolm Gladwell.epub,0,2000-01-01 01:00:00,2016-11-28 18:12:52,1588000/bf8050492828dfd924261f0cabdc4b14-d.jpg,1. Processo decisório. 2. Intuição.,853251961X
29683920,Davi e Golias: A arte de enfrentar gigantes,,,,Malcolm Gladwell,2014,1ª,Editora Sextante,Rio de Janeiro/RJ,490,0,Portuguese,186,,0,9788543100333,,,,,,,,,,Tradução de: David and Goliath,0,,,,,,,,430613,epub,097b17a754115d7080412f995f551765,,,Davi e Golias_ A arte de enfren - Malcolm Gladwell.epub,0,2000-01-01 01:00:00,2016-11-28 18:16:17,http://statics.livrariacultura.net.br/products/capas_lg/168/42200168.jpg,1. Sabedoria. 2. Autodomínio. 3. Autoconsciência. 4. Sucesso.,9788543100333
29683921,Kreis und Kugel,,,,Wilhelm Blaschke,1916,,Verlag von Veit & Comp.,,188,188,German,121,,0,,,,,,,,,,,,0,,,,,,,1,58065728,pdf,ea0390f40cd4c723bcee1a113be10d7a,,,31151006533743.pdf,0,2000-01-01 01:00:00,2016-11-28 18:21:02,,,
29683922,O ponto da virada,,,,Malcolm Gladwell,2013,1ª,Editora Sextante,Rio de Janeiro/RJ,517,0,Portuguese,186,,0,9788575428900,,,,,,,,,,Título original: The Tipping Point,0,,,,,,,,885072,epub,8a61d95a7856b8d627a3230463f2d652,,,O ponto da virada - Malcolm Gladwell.epub,0,2000-01-01 01:00:00,2016-11-28 18:31:38,http://statics.livrariacultura.net.br/products/capas_lg/961/17949961.jpg,1. Pessoas de sucesso. 2. Sucesso.,9788575428900
29683923,Театрал,,,,Греч Н.И.,1853,,Типография Н. Греча,,,162,Russian,,,,-,,,,,,,,,,,0,,,,,,0,1,37959134,pdf,25c2fd4d768b164089e605624a96fb6a,,,Греч Н.И.;Театрал;;;Типография Н. Греча;1853;-;;Russian,0,2000-01-01 01:00:00,2016-11-28 19:07:36,1573000/25c2fd4d768b164089e605624a96fb6a-g.jpg,,
29683924,Иллюстрированный практический путеводитель по Одессе,,,,Москвич Г.Г.,1904,,Типография Л. Нитче (Одесса),,,193,Russian,,,,-,,,,,,,,,,,0,,,,,,0,1,114294202,pdf,6056c19c1332a4c10e4a7a718155860f,,,Москвич Г.Г.;Иллюстрированный практический путеводитель по Одессе;;;Типография Л. Нитче (Одесса);1904;-;;Russian,0,2000-01-01 01:00:00,2016-11-28 19:07:36,1577000/6056c19c1332a4c10e4a7a718155860f-g.jpg,,
29683925,«Отчизну сердцем защитили»  Стихи поэтов Тейковского района,,,,,2011,,"ОАО «Издательство «Иваново»,",,,64,Russian,,,,-,,,,,,,,,,,0,,,,,,0,1,2010197,pdf,ca229279281b8a331bc80b0e6cfa53f2,,,";«Отчизну сердцем защитили»  Стихи поэтов Тейковского района;;;ОАО «Издательство «Иваново»,;2011;-;;Russian",0,2000-01-01 01:00:00,2016-11-28 19:07:36,1585000/ca229279281b8a331bc80b0e6cfa53f2-g.jpg,,
29683926,Recettes Angéliques. Le bœuf: Le goût d’être ensemble,,,,(Collective),2012,,INTERBEV,,0,32,French,,,0,-,,,,,,,,,,,0,,,,,,0,1,3164060,pdf,be017384eb788f84803d6cf2728a3a68,,,;Recettes Angliques. Le boeuf Le got d’tre ensemble;;;INTERBEV;2012;-;;French,0,2000-01-01 01:00:00,2016-11-28 19:07:36,1585000/be017384eb788f84803d6cf2728a3a68-g.jpg,,
29683927,A World Of Animals Vol. 2,,Painting- Animals,,Ana Bernabe,2002,,Viking folk Art,,,60,English,,,,-,,,,,,,,,,,0,,,,,,0,0,50405079,pdf,857f613ba692b86d043d09c24061c24a,,,Ana Bernabe;A World Of Animals Vol. 2;Painting- Animals;;Viking folk Art;2002;-;;English,0,2000-01-01 01:00:00,2016-11-28 19:07:36,1585000/857f613ba692b86d043d09c24061c24a-g.jpg,,
29683928,A World Of Animals Vol. 3,,Painting- Animals,,Ana Bernabe,2003,,Viking folk Art,,,65,English,,,,-,,,,,,,,,,,0,,,,,,0,0,46544505,pdf,d2dbe9b1e95bf109a85cf033d923f5a2,,,Ana Bernabe;A World Of Animals Vol. 3;Painting- Animals;;Viking folk Art;2003;-;;English,0,2000-01-01 01:00:00,2016-11-28 19:07:36,1585000/d2dbe9b1e95bf109a85cf033d923f5a2-g.jpg,,
29683929,20 Easy DIY Holiday Craft,,,,Collective,2015,,FloraCraft,,0,58,English,,,0,-,,,,,,,,,,,0,,,,,,0,1,19194778,pdf,b5d1f6e32d9acffad14ecfb28dac3ac6,,,"Collective;20 Easy DIY Holiday Craft;;;FloraCraft, Prime Publishing LLC;2015;-;;English",0,2000-01-01 01:00:00,2016-11-28 19:07:36,1585000/b5d1f6e32d9acffad14ecfb28dac3ac6-g.jpg,,
29683930,Estadísticas del agua en México,,,,SEMARNAT-GOBIERNO FEDERAL,2008,,,,233,233,ESPAÑOL,39,,0,,,,,,,,,,,,0,,,,,,,1,10518099,pdf,2e22d5cd663a05be861fbf9d014ae75c,,,estadisticas del agua en mexico.pdf,0,2000-01-01 01:00:00,2016-11-28 19:13:28,,,
29683931,MANUAL DE PERFORACIÓN MANUAL DE POZOS Y EQUIPAMIENTO CON BOMBAS MANUALES,,,,Abel Bellido,2004,,Centro Panamericano de Ingeniería Sanitaria y Ciencias del Ambiente,Lima,37,37,ESPAÑOL,39,,0,,,,,,,,,,,,0,,,,,,,1,608049,pdf,cbd4a193af46d31dde860eae2445e20c,,,MANUAL DE PERFORACIÓN MANUAL DE POZOS Y EQUIPAMIENTO CON BOMBAS MANUALES.pdf,0,2000-01-01 01:00:00,2016-11-28 19:17:47,,,
29683932,Principios y Aplicaciones de la Interpretacion de Registros,,,,Schlumberger,0,,,,209,209,ESPAÑOL,38,,0,,,,,,,,,,,,0,,,,,,,1,93116620,pdf,204a1e1723f161107b73a3153ded43af,,,Schlumberger_-_Principios_y_Aplicaciones_de_la_Interpretacion_de_Registros.pdf,0,2000-01-01 01:00:00,2016-11-28 19:27:18,,,
29683933,Islam and Democracy in Indonesia: Tolerance without Liberalism,,"Cambridge Studies in Social Theory, Religion and Politics",,Jeremy Menchik,2016,,Cambridge University Press,,224,214,English,,,0,"1107119146,9781107119147",,,,,,,,,,,0,,,,,,,0,17184395,pdf,ab63f752c2730fc0d8ef0a89f3d12290,,,Menchik.pdf,0,2000-01-01 01:00:00,2016-11-28 19:28:55,http://ecx.images-amazon.com/images/I/51Tx8CNFHeL.jpg,Islam;Hadith;History;Law;Mecca;Muhammed;Quran;Rituals & Practice;Shi’ism;Sufism;Sunnism;Theology;Women in Islam;Religion & Spirituality;Comparative Religion;Religious Studies;Religion & Spirituality;Politics & Government;Elections & Political Process;Ideologies & Doctrines;International & World Politics;Political Science;Public Affairs & Policy;Specific Topics;United States;Politics & Social Sciences,"1107119146,9781107119147"
29683934,Just politics : human rights and the foreign policy of great powers,,Cornell studies in security affairs.,,C. William Walldorf,0,,Cornell University Press,,229,241,English,193,,0,,,,,,,,,,,,0,,,,,,,1,2353965,pdf,367cbfbb69fadf047327bb60328a58a8,,,"Just Politics, Human Rights and the Foreign Policy of Great Powers - C. William Walldorf .pdf",0,2000-01-01 01:00:00,2016-11-28 19:46:03,http://coverart.oclc.org/ImageWebSvc/oclc/+-+967973172_140.jpg,Human rights;International relations;Alliances;United States -- Foreign relations -- 1945-1989;Great Britain -- Foreign relations -- 1837-1901;POLITICAL SCIENCE -- Human Rights;POLITICAL SCIENCE -- Political Freedom & Security -- Civil Rights;POLITICAL SCIENCE -- Political Freedom & Security -- Human Rights;Diplomatic relations;Great Britain;United States,
29683935,Geología de Minas,,,,HUGH EXTON McKINSTRY,1970,,Ediciones OMEGA,,660,660,ESPAÑOL,40,,0,,,,,,,,,,,,0,,,,,,,1,200541047,pdf,86b4e391d0980a6fb14702b58487596a,,,Tyler - Geología de Minas.pdf,0,2000-01-01 01:00:00,2016-11-28 19:46:50,,,
29683936,Just politics : human rights and the foreign policy of great powers,,Cornell studies in security affairs.,,C. William Walldorf,0,,Cornell University Press,,229,241,English,193,,0,,,,,,,,,,,,0,,,,,,,1,2353965,pdf,367cbfbb69fadf047327bb60328a58a8,,,"Just Politics, Human Rights and the Foreign Policy of Great Powers - C. William Walldorf .pdf",0,2000-01-01 01:00:00,2016-11-28 19:47:28,1588000/367cbfbb69fadf047327bb60328a58a8-d.jpg,Human rights;International relations;Alliances;United States -- Foreign relations -- 1945-1989;Great Britain -- Foreign relations -- 1837-1901;POLITICAL SCIENCE -- Human Rights;POLITICAL SCIENCE -- Political Freedom & Security -- Civil Rights;POLITICAL SCIENCE -- Political Freedom & Security -- Human Rights;Diplomatic relations;Great Britain;United States,
29683937,Nanocatalysis in Ionic Liquids,,,,Martin H. G. Prechtl,2017,,Wiley-VCH,,311,311,English,224,,0,9783527339105,,,,,,,,,,,0,,,0,,,,1,12668577,pdf,15efafc702d3e6e448edf742b6d30d70,,,"Nanocatalysis in Ionic Liquids - Martin H.G. Prechtl (Wiley-VCH, 2017).pdf",0,2000-01-01 01:00:00,2016-11-28 19:52:32,,,9783527339105
29683938,Treatise on Invertebrate Paleontology - Part W Miscellanea,,Treatise on Invertebrate Paleontology,,"Moore, Raymond C. & Teichert, Curt",0,,,,285,285,English,24,,0,,,,,,,,,,,,0,,,,,,,0,33528882,pdf,df81de3ebaa59f1d67df552a13b3d418,,,Treatise on Invertebrate Paleontology - Part W Miscellanea.pdf,0,2000-01-01 01:00:00,2016-11-28 19:53:22,,,
29683939,Treatise on Invertebrate Paleontology - Part W Miscellanea,,Treatise on Invertebrate Paleontology,,"Moore, Raymond C. & Teichert, Curt",0,,,,285,285,English,24,,0,,,,,,,,,,,,0,,,,,,,0,33528882,pdf,df81de3ebaa59f1d67df552a13b3d418,,,Treatise on Invertebrate Paleontology - Part W Miscellanea.pdf,0,2000-01-01 01:00:00,2016-11-28 19:59:47,1588000/df81de3ebaa59f1d67df552a13b3d418-g.jpg,,
29683940,Excavaciones subterráneas en roca,,,,E. Hoek,1980,,McGraw Hill,,634,634,español,40,,0,0-900-488-55-7,,,,,,,,,,,0,,,,,,,0,167989109,pdf,5de9e331550e9dfea309317541eeb3ea,,,EXCAVACIONES SUBTERRÁNEAS EN ROCA.pdf,0,2000-01-01 01:00:00,2016-11-28 20:06:02,,,0900488557
29683941,Театрал,,,,Греч Н.И.,1853,,Типография Н. Греча,,,162,Russian,,,,-,,,,,,,,,,,0,,,,,,0,1,37959134,pdf,25c2fd4d768b164089e605624a96fb6a,,,Греч Н.И.;Театрал;;;Типография Н. Греча;1853;-;;Russian,0,2000-01-01 01:00:00,2016-11-28 20:07:38,1573000/25c2fd4d768b164089e605624a96fb6a-g.jpg,,
29683942,Иллюстрированный практический путеводитель по Одессе,,,,Москвич Г.Г.,1904,,Типография Л. Нитче (Одесса),,,193,Russian,,,,-,,,,,,,,,,,0,,,,,,0,1,114294202,pdf,6056c19c1332a4c10e4a7a718155860f,,,Москвич Г.Г.;Иллюстрированный практический путеводитель по Одессе;;;Типография Л. Нитче (Одесса);1904;-;;Russian,0,2000-01-01 01:00:00,2016-11-28 20:07:38,1577000/6056c19c1332a4c10e4a7a718155860f-g.jpg,,
29683943,«Отчизну сердцем защитили»  Стихи поэтов Тейковского района,,,,,2011,,"ОАО «Издательство «Иваново»,",,,64,Russian,,,,-,,,,,,,,,,,0,,,,,,0,1,2010197,pdf,ca229279281b8a331bc80b0e6cfa53f2,,,";«Отчизну сердцем защитили»  Стихи поэтов Тейковского района;;;ОАО «Издательство «Иваново»,;2011;-;;Russian",0,2000-01-01 01:00:00,2016-11-28 20:07:38,1585000/ca229279281b8a331bc80b0e6cfa53f2-g.jpg,,
29683944,Recettes Angéliques. Le bœuf: Le goût d’être ensemble,,,,(Collective),2012,,INTERBEV,,0,32,French,,,0,-,,,,,,,,,,,0,,,,,,0,1,3164060,pdf,be017384eb788f84803d6cf2728a3a68,,,;Recettes Angliques. Le boeuf Le got d’tre ensemble;;;INTERBEV;2012;-;;French,0,2000-01-01 01:00:00,2016-11-28 20:07:38,1585000/be017384eb788f84803d6cf2728a3a68-g.jpg,,
29683945,A World Of Animals Vol. 2,,Painting- Animals,,Ana Bernabe,2002,,Viking folk Art,,,60,English,,,,-,,,,,,,,,,,0,,,,,,0,0,50405079,pdf,857f613ba692b86d043d09c24061c24a,,,Ana Bernabe;A World Of Animals Vol. 2;Painting- Animals;;Viking folk Art;2002;-;;English,0,2000-01-01 01:00:00,2016-11-28 20:07:38,1585000/857f613ba692b86d043d09c24061c24a-g.jpg,,
29683946,A World Of Animals Vol. 3,,Painting- Animals,,Ana Bernabe,2003,,Viking folk Art,,,65,English,,,,-,,,,,,,,,,,0,,,,,,0,0,46544505,pdf,d2dbe9b1e95bf109a85cf033d923f5a2,,,Ana Bernabe;A World Of Animals Vol. 3;Painting- Animals;;Viking folk Art;2003;-;;English,0,2000-01-01 01:00:00,2016-11-28 20:07:38,1585000/d2dbe9b1e95bf109a85cf033d923f5a2-g.jpg,,
29683947,20 Easy DIY Holiday Craft,,,,Collective,2015,,FloraCraft,,0,58,English,,,0,-,,,,,,,,,,,0,,,,,,0,1,19194778,pdf,b5d1f6e32d9acffad14ecfb28dac3ac6,,,"Collective;20 Easy DIY Holiday Craft;;;FloraCraft, Prime Publishing LLC;2015;-;;English",0,2000-01-01 01:00:00,2016-11-28 20:07:38,1585000/b5d1f6e32d9acffad14ecfb28dac3ac6-g.jpg,,
29683948,double bass string bass electric upright bass EUB eigenmodes,,,,askenfelt a,1984,,kth,,28,28,english,,,0,,,,,,,,,,,,300,1,,0,1,0,1,1,2128829,pdf,71668bdab46c81c30611fe5cdbea0414,,,bass.pdf,0,2000-01-01 01:00:00,2016-11-28 20:15:41,,,
29683949,Treatise on Invertebrate Paleontology - Part N - Mollusca 6 Bivavia,3,Treatise on Invertebrate Paleontology,,"Moore, Raymond C. & Teichert, Curt",1969,,The University of Kansas,,276,276,English,24,,0,,,,,,,,,,,,0,,,,,,,0,36321741,pdf,ab3bc3d5d3d62a3e0e06b14670bdd663,,,Treatise on Invertebrate Paleontology - Part N - Mollusca 6 Bivalvia volume 3 - Moore Ed (1969).pdf,0,2000-01-01 01:00:00,2016-11-28 20:30:29,,,
29683950,Руководство по психиатрии,Том 1,,,"Тиганов А.С. (ред.), Снежневский А.В., Орловская Д.Д. и др.",1999,,Медицина,,705,705,Russian,232,infanata,143,5-225-02676-1,,,,,,,,,,,0,,,,,,,1,7694961,pdf,5B727EF4AC59A6733B084BC16502AE9C,,,\N:\\natahaus\\2008\\2008-03\\2008-03-11\\А.С. Тиганов, А.В. Снежневский," Д.Д. Орловская и др.; Под ред. А.С. Тиганова - Руководство по психиатрии 1999.pdf\""""",0,2000-01-01 01:00:00,2016-11-28 20:46:23,50000/5b727ef4ac59a6733b084bc16502ae9c.jpg
29683951,Руководство по психиатрии,том 2,,,Снежневский А.В. (ред.),1983,,Медицина,,544,544,Russian,232,infanata,169-172,,,,,,,,,,,+OCR,300,,,,,,,1,11459290,djvu,3a4542816193e45de3c0e07bb7d8a867,,,N:\\libgen djvu ocr\\108000\\f3e9864e2063397a872e5d67e74ca99a-ocr.djvu,0,2000-01-01 01:00:00,2016-11-28 20:46:56,108000/f3e9864e2063397a872e5d67e74ca99a.jpg,,
29683952,Руководство по психиатрии,том 1,,,Снежневский А.В. (ред.),1983,,Медицина,,481,481,Russian,232,infanata,169-172,,,,,,,,,,,+OCR,300,,,,,,,1,9645933,djvu,beefcc047c830a0821ffade60bb1c327,,,N:\\libgen djvu ocr\\108000\\65416a9b99accf8e40e9bdda2c6c99cf-ocr.djvu,0,2000-01-01 01:00:00,2016-11-28 20:47:09,108000/65416a9b99accf8e40e9bdda2c6c99cf.jpg,,
29683953,Руководство по психиатрии,2,,,"Тиганов А. С., Снежневский А. В., Орловская Д. Д.",1999,,,,788,783,Russian,232,Mexmat,2010,5-225-04394-1,,,,,,,,,,,0,,,,,,,1,8353850,pdf,E3683D2FC75CCD2A24BE91B189BA2566,,,20100915_E3683D2F 5-225-04394-1.pdf_,0,2000-01-01 01:00:00,2016-11-28 20:47:20,355000/e3683d2fc75ccd2a24be91b189ba2566-d.png,,5225043941
29683954,Руководство по психиатрии,Том 1,,,"Тиганов А.С. (ред.), Снежневский А.В., Орловская Д.Д. и др.",1999,,Медицина,,783,783,Russian,232,infanata,151,5-225-02676-1,,,,,,,,,,,0,,,,,,,1,8487239,pdf,C751BEC05417079BAE9C278FA9256170,,,\N:\\natahaus\\2008\\2008-04\\2008-04-07\\А.С. Тиганов, А.В. Снежневский," Д.Д. Орловская и др.; Под ред. А.С. Тиганова -  Руководство по психиатрии В 2-х т. Т.2 1999.pdf\""""",0,2000-01-01 01:00:00,2016-11-28 20:47:34,51000/c751bec05417079bae9c278fa9256170.jpg
29683955,Руководство по психиатрии в 2х томах,Том 1.,,,Под ред. Г. В. Морозова,1988,,Медицина,,640,640,Russian,232,mirknig.com,2008,,,,,,,,,,,1181141929+OCR,0,,,,,,,1,11117582,djvu,516f0dbd317d95e98a41190b48ff69ee,,,N:\\libgen djvu ocr\\302000\\8697a582bf738fbf0311aee7b9e305d9-ocr.djvu,0,2000-01-01 01:00:00,2016-11-28 20:52:34,302000/8697a582bf738fbf0311aee7b9e305d9-d.jpg,,
29683956,Руководство по психиатрии в 2 томах.,том 1,,,Снежевский А.В. (ред.) ,1983,,,,480,482,Russian,232,Mexmat,2010,,,,,,,,,,,+OCR,0,,,,,,,1,9651039,djvu,de7a955399c130a90ad43d3f0d612f7a,,,N:\\libgen djvu ocr\\355000\\95737150bfdc9c9c7515f3f129280d4f-ocr.djvu,0,2000-01-01 01:00:00,2016-11-28 20:52:53,355000/95737150bfdc9c9c7515f3f129280d4f-d.png,,
29683957,Руководство по психиатрии,Том 2,,,Снежневский А.В. (ред.),1983,,Медпрактика,,544,544,Russian,232,mirknig.com,2009,,,,,,,,,,,1181246901+OCR,0,,,,,,,1,28397717,djvu,52eee9c1bd29a2697d1d11d02b63994d,,,N:\\libgen djvu ocr\\335000\\229c80d695de66e27a868f4f8f8bfaa8-ocr.djvu,0,2000-01-01 01:00:00,2016-11-28 20:53:19,335000/229c80d695de66e27a868f4f8f8bfaa8-d.jpg,,
29683958,Руководство по психиатрии (репринт 1920),,,,Блёйлер Э.,1993,,независимой психиатрической ассоциации,,573,573,Russian,232,natahaus,2009-07,,,,,,,,,,,1146115098*хор+OCR,0,,,,,,,1,19269937,djvu,904993dbad5c0dd437e2e1b2ac9447d2,,,N:\\libgen djvu ocr\\163000\\ebf6e506d058081cd9f9725d43596b63-ocr.djvu,0,2000-01-01 01:00:00,2016-11-28 20:54:26,163000/ebf6e506d058081cd9f9725d43596b63.jpg,,
29683959,Руководство по психиатрии в 2х томах,Том 2.,,,Под ред. Г. В. Морозова,1988,,Медицина,,642,642,Russian,232,mirknig.com,2008,,,,,,,,,,,1181142202+OCR,0,,,,,,,1,8929177,djvu,8954f6d48ed98289d417667615302a29,,,N:\\libgen djvu ocr\\303000\\ce6326287a0a89eb1ffe45fd251c46d6-ocr.djvu,0,2000-01-01 01:00:00,2016-11-28 20:55:20,303000/ce6326287a0a89eb1ffe45fd251c46d6-d.jpg,,
29683960,Руководство по психиатрии в 2х томах,Том 2.,,,Под ред. Г. В. Морозова,1988,,Медицина,Москва,642,642,Russian,232,mirknig.com,2008,,,,,,,,,,,1181142202+OCR,300,,,,,,,1,8929177,djvu,8954f6d48ed98289d417667615302a29,,,N:/libgen djvu ocr/303000/ce6326287a0a89eb1ffe45fd251c46d6-ocr.djvu,0,2000-01-01 01:00:00,2016-11-28 20:55:42,303000/ce6326287a0a89eb1ffe45fd251c46d6-d.jpg,,
29683961,Руководство по психиатрии в двух томах.,том II,,,Спежневский А.В. ,1983,,,,544,545,Russian,232,Mexmat,2010,"978-0-8078-3058-1,0-8078-3058-5,978-0-8078-5772-4,0-8078-5772-6",,,,,,,,,,+OCR,0,,,,,,,1,11464396,djvu,1348004d0325f811f0701797d887908c,,,N:\\libgen djvu ocr\\354000\\4cc1275109fbb962fa396bcd6161e0f0-ocr.djvu,0,2000-01-01 01:00:00,2016-11-28 20:55:52,354000/4cc1275109fbb962fa396bcd6161e0f0-d.gif,,"9780807830581,0807830585,9780807857724,0807857726"
29683962,Green Biocomposites: Manufacturing and Properties,,Green Energy and Technology,,"Mohammad Jawaid, Salit Mohd Sapuan, Othman Y. Alothman",2017,,Springer International Publishing AG,,415,415,English,219,,0,978-3-319-46609-5; 978-3-319-46610-1,1865-3529,,,,,2016952887,10.1007/978-3-319-46610-1,,,,0,1,,0,,,1,1,11383342,pdf,50133950f2576d02dedeaf0b340e3caa,,,(Green Energy and Technology) Green Biocomposites - Manufacturing and Properties.pdf,0,2000-01-01 01:00:00,2016-11-28 20:56:01,,,9783319466095;9783319466101
29683963,Руководство по психиатрии. В 2 томах. Т.1,,,,"Тиганов А.С. (ред.), Снежневский А.В., Орловская Д.Д.",1999,,,,712,705,Russian,232,Mexmat,2010,5-225-02676-1,,,,,,,,,,,0,,,,,,,1,7596143,pdf,5C3F462EB6C95B75F5D4E9D43F56F627,,,20100904_5C3F462E 5-225-02676-1.pdf_,0,2000-01-01 01:00:00,2016-11-28 20:56:14,354000/5c3f462eb6c95b75f5d4e9d43f56f627-d.jpg,,5225026761
29683964,Руководство по психотерапии,,,,Рожнов В. Е. (ред.),1985,"3-е изд., доп. и перераб.",Медицина,,361,361,Russian,232,natahaus,2009-10,,,,,,,,,,,1146118412*при+OCR,0,,,,,,,1,18258696,djvu,3523ce41b3aec64dd06f787085fb84e2,,,N:\\libgen djvu ocr\\162000\\d85edbef4572be95ccd464a455e7545e-ocr.djvu,0,2000-01-01 01:00:00,2016-11-28 20:57:09,162000/d85edbef4572be95ccd464a455e7545e.jpg,,
29683965,Руководство по пульмонологии,,,,"Под ред. Н. В. Путова,Г. Б. Федосеева.",1984,,Медицина,,456,456,Russian,232,mirknig.com,2008,216-226-317-3,,,,,,,,,,1181142199+OCR,0,,,,,,,1,6060418,djvu,a0ad2751804ccce9af68a35b9f7edfdf,,,N:\\libgen djvu ocr\\303000\\d86b96bf433824d47e694f60618f959f-ocr.djvu,0,2000-01-01 01:00:00,2016-11-28 20:57:22,303000/d86b96bf433824d47e694f60618f959f-d.jpg,,2162263173
29683966,Руководство по Разгону процессоров AMD,,,,Разгон процессоров AMD руководство,2009,,Апгрейд,,53,53,Russian,232,,0,,,,,,,,,,,,0,,,,,,,1,2567697,pdf,361F6446401B947A50E2A1D4C6FEDAAE,,,,0,2000-01-01 01:00:00,2016-11-28 20:57:46,294000/361f6446401b947a50e2a1d4c6fedaae-d.jpg,,
29683967,"British Freemasonry, 1717–1813, Volume 4: Debates",,"British Freemasonry, 1717–1813 + 4",,Róbert Péter (Ed.),2016,,Routledge,New York,430,463,English,64,,0,978-1-315-63983-3,,B01M646N3D,,,,,,,,,0,0,0,0,1,1,1,1,7849438,pdf,18f2b241f6fdcf36a60a5e605b74c446,,,"British Freemasonry, 1717–1813 Volume 4.pdf",0,2000-01-01 01:00:00,2016-11-28 20:57:53,https://d188rgcu4zozwl.cloudfront.net/content/B01M646N3D/resources/1551684475,,9781315639833
29683968,Театрал,,,,Греч Н.И.,1853,,Типография Н. Греча,,,162,Russian,,,,-,,,,,,,,,,,0,,,,,,0,1,37959134,pdf,25c2fd4d768b164089e605624a96fb6a,,,Греч Н.И.;Театрал;;;Типография Н. Греча;1853;-;;Russian,0,2000-01-01 01:00:00,2016-11-28 21:07:36,1573000/25c2fd4d768b164089e605624a96fb6a-g.jpg,,
29683969,Иллюстрированный практический путеводитель по Одессе,,,,Москвич Г.Г.,1904,,Типография Л. Нитче (Одесса),,,193,Russian,,,,-,,,,,,,,,,,0,,,,,,0,1,114294202,pdf,6056c19c1332a4c10e4a7a718155860f,,,Москвич Г.Г.;Иллюстрированный практический путеводитель по Одессе;;;Типография Л. Нитче (Одесса);1904;-;;Russian,0,2000-01-01 01:00:00,2016-11-28 21:07:36,1577000/6056c19c1332a4c10e4a7a718155860f-g.jpg,,
29683970,«Отчизну сердцем защитили»  Стихи поэтов Тейковского района,,,,,2011,,"ОАО «Издательство «Иваново»,",,,64,Russian,,,,-,,,,,,,,,,,0,,,,,,0,1,2010197,pdf,ca229279281b8a331bc80b0e6cfa53f2,,,";«Отчизну сердцем защитили»  Стихи поэтов Тейковского района;;;ОАО «Издательство «Иваново»,;2011;-;;Russian",0,2000-01-01 01:00:00,2016-11-28 21:07:36,1585000/ca229279281b8a331bc80b0e6cfa53f2-g.jpg,,
29683971,Recettes Angéliques. Le bœuf: Le goût d’être ensemble,,,,(Collective),2012,,INTERBEV,,0,32,French,,,0,-,,,,,,,,,,,0,,,,,,0,1,3164060,pdf,be017384eb788f84803d6cf2728a3a68,,,;Recettes Angliques. Le boeuf Le got d’tre ensemble;;;INTERBEV;2012;-;;French,0,2000-01-01 01:00:00,2016-11-28 21:07:36,1585000/be017384eb788f84803d6cf2728a3a68-g.jpg,,
29683972,A World Of Animals Vol. 2,,Painting- Animals,,Ana Bernabe,2002,,Viking folk Art,,,60,English,,,,-,,,,,,,,,,,0,,,,,,0,0,50405079,pdf,857f613ba692b86d043d09c24061c24a,,,Ana Bernabe;A World Of Animals Vol. 2;Painting- Animals;;Viking folk Art;2002;-;;English,0,2000-01-01 01:00:00,2016-11-28 21:07:36,1585000/857f613ba692b86d043d09c24061c24a-g.jpg,,
29683973,A World Of Animals Vol. 3,,Painting- Animals,,Ana Bernabe,2003,,Viking folk Art,,,65,English,,,,-,,,,,,,,,,,0,,,,,,0,0,46544505,pdf,d2dbe9b1e95bf109a85cf033d923f5a2,,,Ana Bernabe;A World Of Animals Vol. 3;Painting- Animals;;Viking folk Art;2003;-;;English,0,2000-01-01 01:00:00,2016-11-28 21:07:36,1585000/d2dbe9b1e95bf109a85cf033d923f5a2-g.jpg,,
29683974,20 Easy DIY Holiday Craft,,,,Collective,2015,,FloraCraft,,0,58,English,,,0,-,,,,,,,,,,,0,,,,,,0,1,19194778,pdf,b5d1f6e32d9acffad14ecfb28dac3ac6,,,"Collective;20 Easy DIY Holiday Craft;;;FloraCraft, Prime Publishing LLC;2015;-;;English",0,2000-01-01 01:00:00,2016-11-28 21:07:36,1585000/b5d1f6e32d9acffad14ecfb28dac3ac6-g.jpg,,
29683975,Treatise on Invertebrate Paleontology - Part U - Echinodermata 3,1,Treatise on Invertebrate Paleontology,,"Moore, Raymond C. & Teichert, Curt",1966,,,,396,396,English,24,,0,,,,,,,,,,,,0,,,,,,,0,42181135,pdf,3c9d9ff457467e8b260e7f734410e620,,,Treatise on Invertebrate Paleontology - Part U - Echinodermata 3 V1 - Moore Ed. (1966).pdf,0,2000-01-01 01:00:00,2016-11-28 21:18:35,,,
29683976,Treatise on Invertebrate Paleontology - Part W - Suplement 1 - Trace Fossil,1,Treatise on Invertebrate Paleontology,,"Moore, Raymond C. & Teichert, Curt",0,,,,291,291,English,24,,0,,,,,,,,,,,,0,,,,,,,0,32457195,pdf,2b1342f217faef6bc35a506dba05b787,,,Treatise on Invertebrate Paleontology - Part W - Suplement 1 - Trace Fossil - Teichert Ed (1975).pdf,0,2000-01-01 01:00:00,2016-11-28 21:19:20,1588000/2b1342f217faef6bc35a506dba05b787-g.jpg,,
29683977,Treatise on Invertebrate Paleontology - Part H - Brachiopoda,2,Treatise on Invertebrate Paleontology,,"Moore, Raymond C. & Teichert, Curt",1966,,,,408,408,English,24,,0,,,,,,,,,,,,0,,,,,,,0,46910795,pdf,793f0a2d91d3166dbc6d26bc8a477bd6,,,Treatise on Invertebrate Paleontology - Part H - Brachiopoda v2 - Moore Ed (1966).pdf,0,2000-01-01 01:00:00,2016-11-28 21:37:39,,,
29683978,El Nostro Parlar,,,,Darcy Loss Luzzatto,1993,1st,Sagra Luzzatto,Porto Alegre,135,135,Talian (Brazilian Venetian)/Portuguese,102,,0,8524104147,,,,,,,,,,,300,0,1,0,1,1,0,0,9587805,pdf,3f512b29bcfc3310b6da237aeca6db20,,,D L Luzzatto - El Nostro Parlar [135 pps][1a Ed][1993].pdf,0,2000-01-01 01:00:00,2016-11-28 21:46:31,,Veneto; Talian; Venetian,8524104147
29683979,Ghe’avemo Fato Arquante...,,,,Darcy Loss Luzzatto,1985,1st,Sagra Luzzatto,Porto Alegre,174,174,Talian (Brazilian Venetian)/Portuguese,102,,0,8585038152,,,,,,,,,,,300,0,1,0,1,1,0,0,7544040,pdf,f38c7fe5e73759518b482231e236f6ac,,,D L Luzzatto - Ghe__039;avemo Fato Arquante... [175 pps][1a Ed][1985].pdf,0,2000-01-01 01:00:00,2016-11-28 21:51:21,,,8585038152
29683980,’L Mio Paese ’l e Cosi,,,,Darcy Loss Luzzatto,1987,1st,Sagra Luzzatto,Porto Alegre,152,152,Talian (Brazilian Venetian)/Portuguese,102,,0,8585038594,,,,,,,,,,,300,0,1,0,1,1,0,0,5492136,djvu,c70a32e88281e12cc8e877e087389733,,,D L Luzzatto - __039;L Mio Paese __039;l e Cosi[150 pps][1a Ed][1987].djvu,0,2000-01-01 01:00:00,2016-11-28 21:57:19,,Veneto; Talian; Venetian,8585038594
29683981,Ostregueta Semo Drio Deventar Veci,,,,Darcy Loss Luzzatto,1989,1st,Sagra Luzzatto,Porto Alegre,171,171,Talian (Brazilian Venetian)/Portuguese,102,,0,8585038896,,,,,,,,,,,300,0,1,0,1,1,0,0,8377927,djvu,165384613f38ed016c07ed2a7193f771,,,D L Luzzatto - Ostregueta Semo Drio Deventar Veci [170 pps][1a Ed][1989].djvu,0,2000-01-01 01:00:00,2016-11-28 22:01:38,,Veneto; Talian; Venetian,8585038896
29683982,I Nostri Proverbi Vol 1,1,,,Roni DallIgna; Asir Beltrami,1989,1st,Posenato Arte e CUltura,Porto Alegre,132,132,Talian (Brazilian Venetian)/Portuguese,102,,0,,,,,,,,,,,,300,0,1,0,0,1,0,0,7858918,djvu,be49ba49c33670cb4f959b420d153e35,,,R Dall__039;Igna A Beltram - I Nostri Proverbi Vol 1 [130 pps][1a Ed][1989].djvu,0,2000-01-01 01:00:00,2016-11-28 22:06:44,,Veneto; Talian; Venetian,
29683983,Театрал,,,,Греч Н.И.,1853,,Типография Н. Греча,,,162,Russian,,,,-,,,,,,,,,,,0,,,,,,0,1,37959134,pdf,25c2fd4d768b164089e605624a96fb6a,,,Греч Н.И.;Театрал;;;Типография Н. Греча;1853;-;;Russian,0,2000-01-01 01:00:00,2016-11-28 22:07:36,1573000/25c2fd4d768b164089e605624a96fb6a-g.jpg,,
29683984,Иллюстрированный практический путеводитель по Одессе,,,,Москвич Г.Г.,1904,,Типография Л. Нитче (Одесса),,,193,Russian,,,,-,,,,,,,,,,,0,,,,,,0,1,114294202,pdf,6056c19c1332a4c10e4a7a718155860f,,,Москвич Г.Г.;Иллюстрированный практический путеводитель по Одессе;;;Типография Л. Нитче (Одесса);1904;-;;Russian,0,2000-01-01 01:00:00,2016-11-28 22:07:36,1577000/6056c19c1332a4c10e4a7a718155860f-g.jpg,,
29683985,«Отчизну сердцем защитили»  Стихи поэтов Тейковского района,,,,,2011,,"ОАО «Издательство «Иваново»,",,,64,Russian,,,,-,,,,,,,,,,,0,,,,,,0,1,2010197,pdf,ca229279281b8a331bc80b0e6cfa53f2,,,";«Отчизну сердцем защитили»  Стихи поэтов Тейковского района;;;ОАО «Издательство «Иваново»,;2011;-;;Russian",0,2000-01-01 01:00:00,2016-11-28 22:07:36,1585000/ca229279281b8a331bc80b0e6cfa53f2-g.jpg,,
29683986,Recettes Angéliques. Le bœuf: Le goût d’être ensemble,,,,(Collective),2012,,INTERBEV,,0,32,French,,,0,-,,,,,,,,,,,0,,,,,,0,1,3164060,pdf,be017384eb788f84803d6cf2728a3a68,,,;Recettes Angliques. Le boeuf Le got d’tre ensemble;;;INTERBEV;2012;-;;French,0,2000-01-01 01:00:00,2016-11-28 22:07:36,1585000/be017384eb788f84803d6cf2728a3a68-g.jpg,,
29683987,A World Of Animals Vol. 2,,Painting- Animals,,Ana Bernabe,2002,,Viking folk Art,,,60,English,,,,-,,,,,,,,,,,0,,,,,,0,0,50405079,pdf,857f613ba692b86d043d09c24061c24a,,,Ana Bernabe;A World Of Animals Vol. 2;Painting- Animals;;Viking folk Art;2002;-;;English,0,2000-01-01 01:00:00,2016-11-28 22:07:36,1585000/857f613ba692b86d043d09c24061c24a-g.jpg,,
29683988,A World Of Animals Vol. 3,,Painting- Animals,,Ana Bernabe,2003,,Viking folk Art,,,65,English,,,,-,,,,,,,,,,,0,,,,,,0,0,46544505,pdf,d2dbe9b1e95bf109a85cf033d923f5a2,,,Ana Bernabe;A World Of Animals Vol. 3;Painting- Animals;;Viking folk Art;2003;-;;English,0,2000-01-01 01:00:00,2016-11-28 22:07:36,1585000/d2dbe9b1e95bf109a85cf033d923f5a2-g.jpg,,
29683989,20 Easy DIY Holiday Craft,,,,Collective,2015,,FloraCraft,,0,58,English,,,0,-,,,,,,,,,,,0,,,,,,0,1,19194778,pdf,b5d1f6e32d9acffad14ecfb28dac3ac6,,,"Collective;20 Easy DIY Holiday Craft;;;FloraCraft, Prime Publishing LLC;2015;-;;English",0,2000-01-01 01:00:00,2016-11-28 22:07:36,1585000/b5d1f6e32d9acffad14ecfb28dac3ac6-g.jpg,,
29683990,I Nostri Proverbi Vol 1,1,,,Roni DallIgna; Asir Beltrami,1989,1st,Posenato Arte e CUltura,Porto Alegre,132,132,Talian (Brazilian Venetian)/Portuguese,102,,0,,,,,,,,,,,,300,0,1,0,0,1,0,0,7858918,djvu,be49ba49c33670cb4f959b420d153e35,,,R Dall__039;Igna A Beltram - I Nostri Proverbi Vol 1 [130 pps][1a Ed][1989].djvu,0,2000-01-01 01:00:00,2016-11-28 22:08:19,1589000/be49ba49c33670cb4f959b420d153e35-g.jpg,Veneto; Talian; Venetian,
29683991,Tuned out: why young people don’t follow the news,,,,"Mindich, David T. Z.",2005,,Oxford University Press,,172,186,English,190,,0,,,,,,,,,,,,0,,,,,,,1,3304337,pdf,b3d47658eb1a736809901db16fba818d,,,005895.pdf,0,2000-01-01 01:00:00,2016-11-28 22:18:10,http://coverart.oclc.org/ImageWebSvc/oclc/+-+49728620_140.jpg,Press -- Influence;Newspaper reading;Broadcast journalism;Television and reading -- United States;Mass media and youth;Youth -- Books and reading;Presse -- Influence;Journaux -- Lecture;Presse audiovisuelle;Télévision et lecture -- États-Unis;Médias et jeunesse;Jeunesse -- Livres et lecture;SOCIAL SCIENCE -- Media Studies;Television and reading;United States;Massamedia;Jongeren;Nieuws;Mediagebruik;Presse;Journalisme audiovisuel;Nouvelles (Journalisme);Journal télévisé;Influence;Jeu,
29683992,From Economic Imperialism to Freakonomics: The Shifting Boundaries between Economics and other Social Sciences,,=,,"Ben Fine, Dimitris Milonakis",2009,1st Edition,Routledge,,216,0,English,,,0,"0415423236, 978-0415423236",,,,,,,,,,,0,,,,,,,0,14462583,pdf,d67f465b0dda701c9217faf7a4d2caed,,,From Economic Imperialism to Freakonomics.pdf,0,2000-01-01 01:00:00,2016-11-28 22:18:44,,,"0415423236,9780415423236"
29683993,Macro- to Microscale Heat Transfer: The Lagging Behaviour,,0,,D. Y. Tzou,0,second,John Wiley & Sons,,573,573,English,242,,0,,,,,,,,,,,,0,,,,,,,1,11331793,pdf,80b7bcc86d4f12ca2019fa3cdbdfad2e,,,[Tzou_D. Y]_Macro-_to_Microscale_Heat_Transfer__The Lagging Behavior_2nd_Edition__John_Wiley__amp;_Sons(2014).pdf,0,2000-01-01 01:00:00,2016-11-28 22:41:03,,"Heat Conduction, Lagging Behaviour, Microscale",
29683994,Treatise on Invertebrate Paleontology - Part N - Mollusca 6 Bivalvia,2,Treatise on Invertebrate Paleontology,,"Moore, Raymond C. & Teichert, Curt",1969,,,,464,464,English,24,,0,,,,,,,,,,,,0,,,,,,,1,49347338,pdf,d6c6ca236cd97789a1ceb34b5a6e9ad3,,,Treatise on Invertebrate Paleontology - Part N - Mollusca 6 Bivalvia volume 2 - Moore Ed (1969).pdf,0,2000-01-01 01:00:00,2016-11-28 22:54:37,,,
29683995,Treatise on Invertebrate Paleontology - Part T - Echinodermata 2,1,Treatise on Invertebrate Paleontology,,"Moore, Raymond C. & Teichert, Curt",0,,,,438,438,English,24,,0,,,,,,,,,,,,0,,,,,,,0,50615859,pdf,1e7a29ff9326b7f96d6386f19651b34a,,,Treatise on Invertebrate Paleontology - Part T - Echinodermata 2 volume 1 -Moore 1978.pdf,0,2000-01-01 01:00:00,2016-11-28 22:55:08,,,
29683996,Treatise on Invertebrate Paleontology - Part N - Mollusca 6 Bivalvia,1,Treatise on Invertebrate Paleontology,,"Moore, Raymond C. & Teichert, Curt",1969,,,,528,528,English,24,,0,,,,,,,,,,,,0,,,,,,,1,55756708,pdf,f273b6569e0b42db51d9e85f2faa2686,,,Treatise on Invertebrate Paleontology - Part N - Mollusca 6 Bivalvia volume 1 (1969).pdf,0,2000-01-01 01:00:00,2016-11-28 22:55:23,,,
29683997,Театрал,,,,Греч Н.И.,1853,,Типография Н. Греча,,,162,Russian,,,,-,,,,,,,,,,,0,,,,,,0,1,37959134,pdf,25c2fd4d768b164089e605624a96fb6a,,,Греч Н.И.;Театрал;;;Типография Н. Греча;1853;-;;Russian,0,2000-01-01 01:00:00,2016-11-28 23:07:36,1573000/25c2fd4d768b164089e605624a96fb6a-g.jpg,,
29683998,Иллюстрированный практический путеводитель по Одессе,,,,Москвич Г.Г.,1904,,Типография Л. Нитче (Одесса),,,193,Russian,,,,-,,,,,,,,,,,0,,,,,,0,1,114294202,pdf,6056c19c1332a4c10e4a7a718155860f,,,Москвич Г.Г.;Иллюстрированный практический путеводитель по Одессе;;;Типография Л. Нитче (Одесса);1904;-;;Russian,0,2000-01-01 01:00:00,2016-11-28 23:07:36,1577000/6056c19c1332a4c10e4a7a718155860f-g.jpg,,
29683999,«Отчизну сердцем защитили»  Стихи поэтов Тейковского района,,,,,2011,,"ОАО «Издательство «Иваново»,",,,64,Russian,,,,-,,,,,,,,,,,0,,,,,,0,1,2010197,pdf,ca229279281b8a331bc80b0e6cfa53f2,,,";«Отчизну сердцем защитили»  Стихи поэтов Тейковского района;;;ОАО «Издательство «Иваново»,;2011;-;;Russian",0,2000-01-01 01:00:00,2016-11-28 23:07:36,1585000/ca229279281b8a331bc80b0e6cfa53f2-g.jpg,,
29684000,Recettes Angéliques. Le bœuf: Le goût d’être ensemble,,,,(Collective),2012,,INTERBEV,,0,32,French,,,0,-,,,,,,,,,,,0,,,,,,0,1,3164060,pdf,be017384eb788f84803d6cf2728a3a68,,,;Recettes Angliques. Le boeuf Le got d’tre ensemble;;;INTERBEV;2012;-;;French,0,2000-01-01 01:00:00,2016-11-28 23:07:36,1585000/be017384eb788f84803d6cf2728a3a68-g.jpg,,
29684001,A World Of Animals Vol. 2,,Painting- Animals,,Ana Bernabe,2002,,Viking folk Art,,,60,English,,,,-,,,,,,,,,,,0,,,,,,0,0,50405079,pdf,857f613ba692b86d043d09c24061c24a,,,Ana Bernabe;A World Of Animals Vol. 2;Painting- Animals;;Viking folk Art;2002;-;;English,0,2000-01-01 01:00:00,2016-11-28 23:07:36,1585000/857f613ba692b86d043d09c24061c24a-g.jpg,,
29684002,A World Of Animals Vol. 3,,Painting- Animals,,Ana Bernabe,2003,,Viking folk Art,,,65,English,,,,-,,,,,,,,,,,0,,,,,,0,0,46544505,pdf,d2dbe9b1e95bf109a85cf033d923f5a2,,,Ana Bernabe;A World Of Animals Vol. 3;Painting- Animals;;Viking folk Art;2003;-;;English,0,2000-01-01 01:00:00,2016-11-28 23:07:36,1585000/d2dbe9b1e95bf109a85cf033d923f5a2-g.jpg,,
29684003,20 Easy DIY Holiday Craft,,,,Collective,2015,,FloraCraft,,0,58,English,,,0,-,,,,,,,,,,,0,,,,,,0,1,19194778,pdf,b5d1f6e32d9acffad14ecfb28dac3ac6,,,"Collective;20 Easy DIY Holiday Craft;;;FloraCraft, Prime Publishing LLC;2015;-;;English",0,2000-01-01 01:00:00,2016-11-28 23:07:36,1585000/b5d1f6e32d9acffad14ecfb28dac3ac6-g.jpg,,
29684004,Treatise on Invertebrate Paleontology - Part U - Echinodermata 3,2,Treatise on Invertebrate Paleontology,,"Moore, Raymond C. & Teichert, Curt",1969,,,,331,331,English,24,,0,,,,,,,,,,,,0,,,,,,,0,62071431,pdf,759cbc95ea73e2e6ac84788d56f0030e,,,Treatise on Invertebrate Paleontology - Part U - Volume 2 - Echinodermata 3.pdf,0,2000-01-01 01:00:00,2016-11-28 23:24:13,,,
29684005,Театрал,,,,Греч Н.И.,1853,,Типография Н. Греча,,,162,Russian,,,,-,,,,,,,,,,,0,,,,,,0,1,37959134,pdf,25c2fd4d768b164089e605624a96fb6a,,,Греч Н.И.;Театрал;;;Типография Н. Греча;1853;-;;Russian,0,2000-01-01 01:00:00,2016-11-29 00:07:36,1573000/25c2fd4d768b164089e605624a96fb6a-g.jpg,,
29684006,Иллюстрированный практический путеводитель по Одессе,,,,Москвич Г.Г.,1904,,Типография Л. Нитче (Одесса),,,193,Russian,,,,-,,,,,,,,,,,0,,,,,,0,1,114294202,pdf,6056c19c1332a4c10e4a7a718155860f,,,Москвич Г.Г.;Иллюстрированный практический путеводитель по Одессе;;;Типография Л. Нитче (Одесса);1904;-;;Russian,0,2000-01-01 01:00:00,2016-11-29 00:07:36,1577000/6056c19c1332a4c10e4a7a718155860f-g.jpg,,
29684007,«Отчизну сердцем защитили»  Стихи поэтов Тейковского района,,,,,2011,,"ОАО «Издательство «Иваново»,",,,64,Russian,,,,-,,,,,,,,,,,0,,,,,,0,1,2010197,pdf,ca229279281b8a331bc80b0e6cfa53f2,,,";«Отчизну сердцем защитили»  Стихи поэтов Тейковского района;;;ОАО «Издательство «Иваново»,;2011;-;;Russian",0,2000-01-01 01:00:00,2016-11-29 00:07:36,1585000/ca229279281b8a331bc80b0e6cfa53f2-g.jpg,,
29684008,Recettes Angéliques. Le bœuf: Le goût d’être ensemble,,,,(Collective),2012,,INTERBEV,,0,32,French,,,0,-,,,,,,,,,,,0,,,,,,0,1,3164060,pdf,be017384eb788f84803d6cf2728a3a68,,,;Recettes Angliques. Le boeuf Le got d’tre ensemble;;;INTERBEV;2012;-;;French,0,2000-01-01 01:00:00,2016-11-29 00:07:36,1585000/be017384eb788f84803d6cf2728a3a68-g.jpg,,
29684009,A World Of Animals Vol. 2,,Painting- Animals,,Ana Bernabe,2002,,Viking folk Art,,,60,English,,,,-,,,,,,,,,,,0,,,,,,0,0,50405079,pdf,857f613ba692b86d043d09c24061c24a,,,Ana Bernabe;A World Of Animals Vol. 2;Painting- Animals;;Viking folk Art;2002;-;;English,0,2000-01-01 01:00:00,2016-11-29 00:07:36,1585000/857f613ba692b86d043d09c24061c24a-g.jpg,,
29684010,A World Of Animals Vol. 3,,Painting- Animals,,Ana Bernabe,2003,,Viking folk Art,,,65,English,,,,-,,,,,,,,,,,0,,,,,,0,0,46544505,pdf,d2dbe9b1e95bf109a85cf033d923f5a2,,,Ana Bernabe;A World Of Animals Vol. 3;Painting- Animals;;Viking folk Art;2003;-;;English,0,2000-01-01 01:00:00,2016-11-29 00:07:36,1585000/d2dbe9b1e95bf109a85cf033d923f5a2-g.jpg,,
29684011,20 Easy DIY Holiday Craft,,,,Collective,2015,,FloraCraft,,0,58,English,,,0,-,,,,,,,,,,,0,,,,,,0,1,19194778,pdf,b5d1f6e32d9acffad14ecfb28dac3ac6,,,"Collective;20 Easy DIY Holiday Craft;;;FloraCraft, Prime Publishing LLC;2015;-;;English",0,2000-01-01 01:00:00,2016-11-29 00:07:36,1585000/b5d1f6e32d9acffad14ecfb28dac3ac6-g.jpg,,
29684012,Principios y Aplicaciones de la Interpretacion de Registros,,,,Schlumberger,0,,,,209,209,ESPAÑOL,38,,0,,,,,,,,,,,,0,,,,,,,1,93116620,pdf,204a1e1723f161107b73a3153ded43af,,,Schlumberger_-_Principios_y_Aplicaciones_de_la_Interpretacion_de_Registros.pdf,0,2000-01-01 01:00:00,2016-11-29 00:34:33,1588000/204a1e1723f161107b73a3153ded43af-g.jpg,,
29684013,Treatise on Invertebrate Paleontology - Part O - Trilobitomorpha,,Treatise on Invertebrate Paleontology,,"Moore, Raymond C. & Teichert, Curt",1959,,The University of Kansas,,580,580,English,24,,0,,,,,,,,,,,,0,,,,,,,0,62723011,pdf,b309e0185477adaecf4287d4847a7fea,,,Treatise on Invertebrate Paleontology - Part O - Trilobitomorpha - Moore Ed (1959).pdf,0,2000-01-01 01:00:00,2016-11-29 00:37:51,,,
29684014,Treatise on Invertebrate Paleontology - Part H - Brachiopoda,1,Treatise on Invertebrate Paleontology,,"Moore, Raymond C. & Teichert, Curt",1965,,The University of Kansas,,554,554,English,24,,0,,,,,,,,,,,,0,,,,,,,0,67155572,pdf,df139bc992aaf089a8d14658a3e47444,,,Treatise on Invertebrate Paleontology - Part H - Brachiopoda V1 - Moore Ed (1965).pdf,0,2000-01-01 01:00:00,2016-11-29 00:38:26,,,
29684015,"Recursion Theory and Complexity: Proceedings of the Kazan ’97 Workshop, Kazan, Russia, July 14 19, 1997",,de Gruyter Series in Logic and Its Applications,,"M. M. Arslanov, Marat M. Arslanov",1999,Reprint 2014 ed.,De Gruyter,,250,244,English,,,0,"3110165872,9783110165876",,,,,,,,,,,0,,,,,,,0,5569938,pdf,7ccae3d4844ad69b715bfddb4f4e85ff,,,Recursion Theory and Complexity Proceedings of the Kazan __039;97 Workshop.pdf,0,2000-01-01 01:00:00,2016-11-29 00:57:45,http://ecx.images-amazon.com/images/I/31Eqn9AjTKL.jpg,"Computer Science;AI & Machine Learning;Bioinformatics;Computer Simulation;Cybernetics;Human-Computer Interaction;Information Theory;Robotics;Systems Analysis & Design;Computers & Technology;Logic;Pure Mathematics;Mathematics;Science & Math;Reference;Mathematics;Science & Math;Computer Science;Algorithms;Artificial Intelligence;Database Storage & Design;Graphics & Visualization;Networking;Object-Oriented Software Design;Operating Systems;Programming Languages;Software Design & Engineering;New, Us","3110165872,9783110165876"
29684016,Astrophysics,,,,Ibrahim Kucuk,2012,,InTeO,,,405,English,,,,9535104735,,,,,,,,,,,0,,,,,,0,1,14322251,pdf,3a6745c9122bac55dbf0c817483f6c7f,,,Ibrahim Kucuk;Astrophysics;;;InTeO;2012;9535104735;;English,0,2000-01-01 01:00:00,2016-11-29 01:01:25,1588000/3a6745c9122bac55dbf0c817483f6c7f-g.jpg,,9535104735
29684017,"Philosophy of Mathematics: Set Theory, Measuring Theories, and Nominalism",,"Logos.Studies in Logic, Philosophy of Language",,"Gerhard Preyer, Georg Peter",2009,,Ontos Verlag,,184,178,English,,,0,"3868380094,9783868380095",,,,,,,,,,,0,,,,,,,1,710946,pdf,7c81c70051a1db13291bb5fc2355cce0,,,"Philosophy of Mathematics - Set Theory, Measuring Theories, and Nominalism.pdf",0,2000-01-01 01:00:00,2016-11-29 01:03:28,http://ecx.images-amazon.com/images/I/41llm3JQiJL.jpg,"History & Philosophy;Science & Math;Logic & Language;Philosophy;Politics & Social Sciences;Methodology;Philosophy;Politics & Social Sciences;Logic;Philosophy;Humanities;New, Used & Rental Textbooks;Specialty Boutique;Science & Mathematics;Agriculture;Astronomy & Astrophysics;Biology & Life Sciences;Chemistry;Earth Sciences;Environmental Studies;Mathematics;Mechanics;Physics;New, Used & Rental Textbooks;Specialty Boutique","3868380094,9783868380095"
29684018,Театрал,,,,Греч Н.И.,1853,,Типография Н. Греча,,,162,Russian,,,,-,,,,,,,,,,,0,,,,,,0,1,37959134,pdf,25c2fd4d768b164089e605624a96fb6a,,,Греч Н.И.;Театрал;;;Типография Н. Греча;1853;-;;Russian,0,2000-01-01 01:00:00,2016-11-29 01:07:36,1573000/25c2fd4d768b164089e605624a96fb6a-g.jpg,,
29684019,Иллюстрированный практический путеводитель по Одессе,,,,Москвич Г.Г.,1904,,Типография Л. Нитче (Одесса),,,193,Russian,,,,-,,,,,,,,,,,0,,,,,,0,1,114294202,pdf,6056c19c1332a4c10e4a7a718155860f,,,Москвич Г.Г.;Иллюстрированный практический путеводитель по Одессе;;;Типография Л. Нитче (Одесса);1904;-;;Russian,0,2000-01-01 01:00:00,2016-11-29 01:07:36,1577000/6056c19c1332a4c10e4a7a718155860f-g.jpg,,
29684020,«Отчизну сердцем защитили»  Стихи поэтов Тейковского района,,,,,2011,,"ОАО «Издательство «Иваново»,",,,64,Russian,,,,-,,,,,,,,,,,0,,,,,,0,1,2010197,pdf,ca229279281b8a331bc80b0e6cfa53f2,,,";«Отчизну сердцем защитили»  Стихи поэтов Тейковского района;;;ОАО «Издательство «Иваново»,;2011;-;;Russian",0,2000-01-01 01:00:00,2016-11-29 01:07:36,1585000/ca229279281b8a331bc80b0e6cfa53f2-g.jpg,,
29684021,Recettes Angéliques. Le bœuf: Le goût d’être ensemble,,,,(Collective),2012,,INTERBEV,,0,32,French,,,0,-,,,,,,,,,,,0,,,,,,0,1,3164060,pdf,be017384eb788f84803d6cf2728a3a68,,,;Recettes Angliques. Le boeuf Le got d’tre ensemble;;;INTERBEV;2012;-;;French,0,2000-01-01 01:00:00,2016-11-29 01:07:36,1585000/be017384eb788f84803d6cf2728a3a68-g.jpg,,
29684022,A World Of Animals Vol. 2,,Painting- Animals,,Ana Bernabe,2002,,Viking folk Art,,,60,English,,,,-,,,,,,,,,,,0,,,,,,0,0,50405079,pdf,857f613ba692b86d043d09c24061c24a,,,Ana Bernabe;A World Of Animals Vol. 2;Painting- Animals;;Viking folk Art;2002;-;;English,0,2000-01-01 01:00:00,2016-11-29 01:07:36,1585000/857f613ba692b86d043d09c24061c24a-g.jpg,,
29684023,A World Of Animals Vol. 3,,Painting- Animals,,Ana Bernabe,2003,,Viking folk Art,,,65,English,,,,-,,,,,,,,,,,0,,,,,,0,0,46544505,pdf,d2dbe9b1e95bf109a85cf033d923f5a2,,,Ana Bernabe;A World Of Animals Vol. 3;Painting- Animals;;Viking folk Art;2003;-;;English,0,2000-01-01 01:00:00,2016-11-29 01:07:36,1585000/d2dbe9b1e95bf109a85cf033d923f5a2-g.jpg,,
29684024,20 Easy DIY Holiday Craft,,,,Collective,2015,,FloraCraft,,0,58,English,,,0,-,,,,,,,,,,,0,,,,,,0,1,19194778,pdf,b5d1f6e32d9acffad14ecfb28dac3ac6,,,"Collective;20 Easy DIY Holiday Craft;;;FloraCraft, Prime Publishing LLC;2015;-;;English",0,2000-01-01 01:00:00,2016-11-29 01:07:36,1585000/b5d1f6e32d9acffad14ecfb28dac3ac6-g.jpg,,
29684025,A Beautiful Mind,,-,,Sylvia Nasar,1998,,Simon & Schuster,New York,447,0,English,68,,0,0684819066,,,,,,,,,,,0,,,,,,,1,53854733,pdf,dc83515c3f7882b389e76c518df1ac05,,,1998 Nasar - A Beautiful Mind.pdf,0,2000-01-01 01:00:00,2016-11-29 01:08:27,,,0684819066
29684026,Green and Lean Management,,Management and Industrial Engineering,,"Carolina Machado, J. Paulo Davim",2017,,Springer International Publishing Switzerland,,233,233,English,6,,0,978-3-319-44907-4; 978-3-319-44909-8,2365-0532,,,,,2016949593,10.1007/978-3-319-44909-8,1BZADQAAQBAJ,,,0,1,1,0,,,1,1,3336279,pdf,89f80ff89ff681acbbe224082815f622,,,(Management and Industrial Engineering) Green and Lean Management.pdf,0,2000-01-01 01:00:00,2016-11-29 01:10:04,,,9783319449074;9783319449098
29684027,Lenin’s Political Thought: Theory and Practice in the Democratic and Socialist Revolutions,,,,Neil Harding,2009,,Haymarket Books,,740,0,English,,,0,"1931859892,9781931859899",,,,,,,,,,,600,,1,,,1,1,1,9022114,djvu,9e42bbad4be64f690b498f97209ab439,,,Harding.Lenin__039;s Political Thought  2 Vols. (1983) [fixed].djvu,0,2000-01-01 01:00:00,2016-11-29 01:18:24,http://ecx.images-amazon.com/images/I/41odbP8yj-L.jpg,,"1931859892,9781931859899"
29684028,Studii româneşti,,Biblioteca Ioan Petru Culianu,,Ioan Petru Culianu,0,,Polirom,,0,402,Romanian,,,0,,,,,,,,,,,,0,,,,,,,1,7231707,pdf,8e89cfd6159844d56a07ba38db07fe72,,,"Ioan Petru Culianu - Studii romanesti, vol. 1.pdf",0,2000-01-01 01:00:00,2016-11-29 01:35:09,1588000/8e89cfd6159844d56a07ba38db07fe72-g.jpg,"Eminescu, Mihai -- 1850-1889 -- Critică şi interpretare;Eliade, Mircea -- 1907-1986 -- Critică şi interpretare;Literatură română -- Istorie şi critică",
29684029,Studii românești,,Biblioteca Ioan Petru Culianu,,Ioan Petru Culianu,0,,Polirom,,0,402,Romanian,,,0,,,,,,,,,,,,0,,,,,,,1,7231707,pdf,8e89cfd6159844d56a07ba38db07fe72,,,"Ioan Petru Culianu - Studii romanesti, vol. 1.pdf",0,2000-01-01 01:00:00,2016-11-29 01:36:33,1588000/8e89cfd6159844d56a07ba38db07fe72-g.jpg,"Eminescu, Mihai -- 1850-1889 -- Critică şi interpretare;Eliade, Mircea -- 1907-1986 -- Critică şi interpretare;Literatură română -- Istorie şi critică",
29684030,Iocari serio : stiinta si arta in gindirea Renasterii,,Biblioteca Ioan Petru Culianu,,Ioan Petru Culianu,0,,Polirom,,224,218,Romanian,195,,0,,,,,,,,,,,,0,,,,,,,1,3942176,pdf,f660ed5ddc6e94a58e0e66ac649fc964,,,Ioan Petru Culianu - Iocari Serio.pdf,0,2000-01-01 01:00:00,2016-11-29 01:40:09,1588000/f660ed5ddc6e94a58e0e66ac649fc964-g.jpg,Civilizaţie -- Renastere,
29684031,Lenin’s Political Thought: Theory and Practice in the Democratic and Socialist Revolutions,,,,Neil Harding,2009,,Haymarket Books,,740,0,English,,,0,"1931859892,9781931859899",,,,,,,,,,,600,1,1,,,1,0,1,13657940,pdf,01b2e1e0d92759add33fe49ff1cec081,,,Harding.Lenin__039;s Political Thought  2 Vols. (1983) [fixed].pdf,0,2000-01-01 01:00:00,2016-11-29 01:50:16,http://ecx.images-amazon.com/images/I/41odbP8yj-L.jpg,,"1931859892,9781931859899"
29684032,His Loving Guide,,,,Sue Lyndon,0,,,,0,0,English,,,0,,,,,,,,,,,,0,,,,,,,,227913,epub,7013a226a888d80d1cb33097e6c159b5,,,his_loving_guidance_lyndon_sue.epub,0,2000-01-01 01:00:00,2016-11-29 01:57:10,,,
29684033,Театрал,,,,Греч Н.И.,1853,,Типография Н. Греча,,,162,Russian,,,,-,,,,,,,,,,,0,,,,,,0,1,37959134,pdf,25c2fd4d768b164089e605624a96fb6a,,,Греч Н.И.;Театрал;;;Типография Н. Греча;1853;-;;Russian,0,2000-01-01 01:00:00,2016-11-29 02:07:36,1573000/25c2fd4d768b164089e605624a96fb6a-g.jpg,,
29684034,Иллюстрированный практический путеводитель по Одессе,,,,Москвич Г.Г.,1904,,Типография Л. Нитче (Одесса),,,193,Russian,,,,-,,,,,,,,,,,0,,,,,,0,1,114294202,pdf,6056c19c1332a4c10e4a7a718155860f,,,Москвич Г.Г.;Иллюстрированный практический путеводитель по Одессе;;;Типография Л. Нитче (Одесса);1904;-;;Russian,0,2000-01-01 01:00:00,2016-11-29 02:07:36,1577000/6056c19c1332a4c10e4a7a718155860f-g.jpg,,
29684035,«Отчизну сердцем защитили»  Стихи поэтов Тейковского района,,,,,2011,,"ОАО «Издательство «Иваново»,",,,64,Russian,,,,-,,,,,,,,,,,0,,,,,,0,1,2010197,pdf,ca229279281b8a331bc80b0e6cfa53f2,,,";«Отчизну сердцем защитили»  Стихи поэтов Тейковского района;;;ОАО «Издательство «Иваново»,;2011;-;;Russian",0,2000-01-01 01:00:00,2016-11-29 02:07:36,1585000/ca229279281b8a331bc80b0e6cfa53f2-g.jpg,,
29684036,Recettes Angéliques. Le bœuf: Le goût d’être ensemble,,,,(Collective),2012,,INTERBEV,,0,32,French,,,0,-,,,,,,,,,,,0,,,,,,0,1,3164060,pdf,be017384eb788f84803d6cf2728a3a68,,,;Recettes Angliques. Le boeuf Le got d’tre ensemble;;;INTERBEV;2012;-;;French,0,2000-01-01 01:00:00,2016-11-29 02:07:36,1585000/be017384eb788f84803d6cf2728a3a68-g.jpg,,
29684037,A World Of Animals Vol. 2,,Painting- Animals,,Ana Bernabe,2002,,Viking folk Art,,,60,English,,,,-,,,,,,,,,,,0,,,,,,0,0,50405079,pdf,857f613ba692b86d043d09c24061c24a,,,Ana Bernabe;A World Of Animals Vol. 2;Painting- Animals;;Viking folk Art;2002;-;;English,0,2000-01-01 01:00:00,2016-11-29 02:07:36,1585000/857f613ba692b86d043d09c24061c24a-g.jpg,,
29684038,A World Of Animals Vol. 3,,Painting- Animals,,Ana Bernabe,2003,,Viking folk Art,,,65,English,,,,-,,,,,,,,,,,0,,,,,,0,0,46544505,pdf,d2dbe9b1e95bf109a85cf033d923f5a2,,,Ana Bernabe;A World Of Animals Vol. 3;Painting- Animals;;Viking folk Art;2003;-;;English,0,2000-01-01 01:00:00,2016-11-29 02:07:36,1585000/d2dbe9b1e95bf109a85cf033d923f5a2-g.jpg,,
29684039,20 Easy DIY Holiday Craft,,,,Collective,2015,,FloraCraft,,0,58,English,,,0,-,,,,,,,,,,,0,,,,,,0,1,19194778,pdf,b5d1f6e32d9acffad14ecfb28dac3ac6,,,"Collective;20 Easy DIY Holiday Craft;;;FloraCraft, Prime Publishing LLC;2015;-;;English",0,2000-01-01 01:00:00,2016-11-29 02:07:36,1585000/b5d1f6e32d9acffad14ecfb28dac3ac6-g.jpg,,
29684040,Гидромеханизация,,,,Юфин А. П.,1965,,Стройиздат,Москва,496,494,Russian,210,,0,,,,624.132.3 : 622.271.6(075.8),,,,,,,,600,0,1,0,1,,1,0,27764110,djvu,ca02bbe37cab7fc241c257ce2352466e,,,Юфин_А.П._Гидромеханизация(1965).djvu,0,2000-01-01 01:00:00,2016-11-29 02:09:54,,,
29684041,In Perfect Harmony,,,,Laura DeLuca,0,,,,0,0,English,,,0,,,,,,,,,,,,0,,,,,,,,320905,epub,83736f4a9804175caa4ec3215413ed90,,,in_perfect_harmony_jersey_girls_book_2__deluca_lau.epub,0,2000-01-01 01:00:00,2016-11-29 02:10:17,,,
29684042,Гидромеханизация. Справочный материал,,,,"Ялтанец И. М., Егоров В. К.",1999,,Издательство МГГУ,Москва,338,344,Russian,210,,0,,,,624.132.345 : 625,,,,,,,,600,0,1,0,1,,1,0,10326778,djvu,f8435988bfd2d782988726fdc41edad2,,,Ялтанец_И.М._Егоров_В.К._Гидромеханизация(1999).djvu,0,2000-01-01 01:00:00,2016-11-29 02:13:24,,,
29684043,Гидроакустическая трилатерация,,,,"Галошин А. И., Глумов И. Ф.",1995,,Недра,Москва,174,177,Russian,210,,0,5-247-03563-1,,,528.22.(26):681.883.218,,,,,,,,600,0,1,0,1,,1,0,4690598,djvu,26212adc8443fcb090976a12d549e317,,,Галошин_Глумов_Гидроакустическая_трилатерация_1995.djvu,0,2000-01-01 01:00:00,2016-11-29 02:17:43,,,5247035631
29684044,In Perfect Harmony,,,,Laura DeLuca,0,,,,0,0,English,,,0,,,,,,,,,,,,0,,,,,,,,320905,epub,83736f4a9804175caa4ec3215413ed90,,,in_perfect_harmony_jersey_girls_book_2__deluca_lau.epub,0,2000-01-01 01:00:00,2016-11-29 02:21:28,1589000/83736f4a9804175caa4ec3215413ed90-g.jpg,,
29684045,Startup Growth Engines: Case Studies of How Today’s Most Successful Startups Unlock Extraordinary Growth,,1,,Sean Ellis & Morgan Brown,2014,1,,,0,0,English,4,,0,77961SEM00001,,B00LA95B68,,,,,,,,,0,,,,,,,,482415,epub,89490eb5b95271f3a1e6e5e9cc90a729,,,Startup Growth Engines- Case Studies of How Today’s Most Successful Startups Unlock Extraordinary Growth_659322.epub,0,2000-01-01 01:00:00,2016-11-29 02:27:02,https://images-na.ssl-images-amazon.com/images/I/31YC4DAoWyL._SY346_.jpg,,77961SEM00001
29684046,Concilii Actiones VI-VII,,Acta conciliorum oecumenicorum,,"Lamberz, Erich",2016,,,,0,576,Latin,,,0,,,,,,,,,,,,0,,,,,,,1,7215948,pdf,bea6dd70398b53c9db79bb7db802a48b,,,"secvnda ACO III, 3 Acta conciliorum oecumenicorum.pdf",0,2000-01-01 01:00:00,2016-11-29 02:36:10,,,
29684047,The Encyclopedia of Spices and Herbs,,,,Padma Lakshmi,0,,,,0,0,English,49,,0,,,,,,,,,,,,0,,,,,,,,24199283,epub,4f29699fc0eba19415a617d47ee81207,,,the_encyclopedia_of_spices_and_herbs_padma_lakshmi.epub,0,2000-01-01 01:00:00,2016-11-29 03:02:46,,,
29684048,Театрал,,,,Греч Н.И.,1853,,Типография Н. Греча,,,162,Russian,,,,-,,,,,,,,,,,0,,,,,,0,1,37959134,pdf,25c2fd4d768b164089e605624a96fb6a,,,Греч Н.И.;Театрал;;;Типография Н. Греча;1853;-;;Russian,0,2000-01-01 01:00:00,2016-11-29 03:07:36,1573000/25c2fd4d768b164089e605624a96fb6a-g.jpg,,
29684049,Иллюстрированный практический путеводитель по Одессе,,,,Москвич Г.Г.,1904,,Типография Л. Нитче (Одесса),,,193,Russian,,,,-,,,,,,,,,,,0,,,,,,0,1,114294202,pdf,6056c19c1332a4c10e4a7a718155860f,,,Москвич Г.Г.;Иллюстрированный практический путеводитель по Одессе;;;Типография Л. Нитче (Одесса);1904;-;;Russian,0,2000-01-01 01:00:00,2016-11-29 03:07:36,1577000/6056c19c1332a4c10e4a7a718155860f-g.jpg,,
29684050,«Отчизну сердцем защитили»  Стихи поэтов Тейковского района,,,,,2011,,"ОАО «Издательство «Иваново»,",,,64,Russian,,,,-,,,,,,,,,,,0,,,,,,0,1,2010197,pdf,ca229279281b8a331bc80b0e6cfa53f2,,,";«Отчизну сердцем защитили»  Стихи поэтов Тейковского района;;;ОАО «Издательство «Иваново»,;2011;-;;Russian",0,2000-01-01 01:00:00,2016-11-29 03:07:36,1585000/ca229279281b8a331bc80b0e6cfa53f2-g.jpg,,
29684051,Recettes Angéliques. Le bœuf: Le goût d’être ensemble,,,,(Collective),2012,,INTERBEV,,0,32,French,,,0,-,,,,,,,,,,,0,,,,,,0,1,3164060,pdf,be017384eb788f84803d6cf2728a3a68,,,;Recettes Angliques. Le boeuf Le got d’tre ensemble;;;INTERBEV;2012;-;;French,0,2000-01-01 01:00:00,2016-11-29 03:07:36,1585000/be017384eb788f84803d6cf2728a3a68-g.jpg,,
29684052,A World Of Animals Vol. 2,,Painting- Animals,,Ana Bernabe,2002,,Viking folk Art,,,60,English,,,,-,,,,,,,,,,,0,,,,,,0,0,50405079,pdf,857f613ba692b86d043d09c24061c24a,,,Ana Bernabe;A World Of Animals Vol. 2;Painting- Animals;;Viking folk Art;2002;-;;English,0,2000-01-01 01:00:00,2016-11-29 03:07:36,1585000/857f613ba692b86d043d09c24061c24a-g.jpg,,
29684053,A World Of Animals Vol. 3,,Painting- Animals,,Ana Bernabe,2003,,Viking folk Art,,,65,English,,,,-,,,,,,,,,,,0,,,,,,0,0,46544505,pdf,d2dbe9b1e95bf109a85cf033d923f5a2,,,Ana Bernabe;A World Of Animals Vol. 3;Painting- Animals;;Viking folk Art;2003;-;;English,0,2000-01-01 01:00:00,2016-11-29 03:07:36,1585000/d2dbe9b1e95bf109a85cf033d923f5a2-g.jpg,,
29684054,20 Easy DIY Holiday Craft,,,,Collective,2015,,FloraCraft,,0,58,English,,,0,-,,,,,,,,,,,0,,,,,,0,1,19194778,pdf,b5d1f6e32d9acffad14ecfb28dac3ac6,,,"Collective;20 Easy DIY Holiday Craft;;;FloraCraft, Prime Publishing LLC;2015;-;;English",0,2000-01-01 01:00:00,2016-11-29 03:07:36,1585000/b5d1f6e32d9acffad14ecfb28dac3ac6-g.jpg,,
29684055,Tuned out: why young people don’t follow the news,,,,"Mindich, David T. Z.",2005,,Oxford University Press,,172,186,English,190,,0,,,,,,,,,,,,0,,,,,,,1,3304337,pdf,b3d47658eb1a736809901db16fba818d,,,005895.pdf,0,2000-01-01 01:00:00,2016-11-29 03:18:05,1589000/b3d47658eb1a736809901db16fba818d-d.jpg,Press -- Influence;Newspaper reading;Broadcast journalism;Television and reading -- United States;Mass media and youth;Youth -- Books and reading;Presse -- Influence;Journaux -- Lecture;Presse audiovisuelle;Télévision et lecture -- États-Unis;Médias et jeunesse;Jeunesse -- Livres et lecture;SOCIAL SCIENCE -- Media Studies;Television and reading;United States;Massamedia;Jongeren;Nieuws;Mediagebruik;Presse;Journalisme audiovisuel;Nouvelles (Journalisme);Journal télévisé;Influence;Jeu,
29684056,Tuned out: why young people don’t follow the news,,,,David T. Z. Mindich,2005,,Oxford University Press,,172,186,English,190,,0,,,,,,,,,,,,0,,,,,,,1,3304337,pdf,b3d47658eb1a736809901db16fba818d,,,005895.pdf,0,2000-01-01 01:00:00,2016-11-29 03:19:44,1589000/b3d47658eb1a736809901db16fba818d-d.jpg,Press -- Influence;Newspaper reading;Broadcast journalism;Television and reading -- United States;Mass media and youth;Youth -- Books and reading;Presse -- Influence;Journaux -- Lecture;Presse audiovisuelle;Télévision et lecture -- États-Unis;Médias et jeunesse;Jeunesse -- Livres et lecture;SOCIAL SCIENCE -- Media Studies;Television and reading;United States;Massamedia;Jongeren;Nieuws;Mediagebruik;Presse;Journalisme audiovisuel;Nouvelles (Journalisme);Journal télévisé;Influence;Jeu,
29684057,From Economic Imperialism to Freakonomics: The Shifting Boundaries between Economics and other Social Sciences,,=,,"Ben Fine, Dimitris Milonakis",2009,1st Edition,Routledge,,216,0,English,,,0,"0415423236, 978-0415423236",,,,,,,,,,,0,,,,,,,0,14462583,pdf,d67f465b0dda701c9217faf7a4d2caed,,,From Economic Imperialism to Freakonomics.pdf,0,2000-01-01 01:00:00,2016-11-29 03:20:30,1589000/d67f465b0dda701c9217faf7a4d2caed-g.jpg,,"0415423236,9780415423236"
29684058,Startup Growth Engines: Case Studies of How Today’s Most Successful Startups Unlock Extraordinary Growth,,1,,Sean Ellis & Morgan Brown,2014,1,,,0,0,English,4,,0,77961SEM00001,,B00LA95B68,,,,,,,,,0,,,,,,,,482415,epub,89490eb5b95271f3a1e6e5e9cc90a729,,,Startup Growth Engines- Case Studies of How Today’s Most Successful Startups Unlock Extraordinary Growth_659322.epub,0,2000-01-01 01:00:00,2016-11-29 03:22:03,1589000/89490eb5b95271f3a1e6e5e9cc90a729-d.jpg,,77961SEM00001
29684059,A Beautiful Mind,,-,,Sylvia Nasar,1998,,Simon & Schuster,New York,447,0,English,68,,0,0684819066,,,,,,,,,,,0,,,,,,,1,53854733,pdf,dc83515c3f7882b389e76c518df1ac05,,,1998 Nasar - A Beautiful Mind.pdf,0,2000-01-01 01:00:00,2016-11-29 03:22:52,1589000/dc83515c3f7882b389e76c518df1ac05-g.jpg,,0684819066
29684060,I Nostri Proverbi Vol 1,1,,,Roni Dall’Igna; Asir Beltrami,1989,1st,Posenato Arte e Cultura,Porto Alegre,132,132,Talian (Brazilian Venetian)/Portuguese,102,,0,,,,,,,,,,,,300,0,1,0,0,1,0,0,7858918,djvu,be49ba49c33670cb4f959b420d153e35,,,R Dall__039;Igna A Beltram - I Nostri Proverbi Vol 1 [130 pps][1a Ed][1989].djvu,0,2000-01-01 01:00:00,2016-11-29 03:23:12,1589000/be49ba49c33670cb4f959b420d153e35-g.jpg,Veneto; Talian; Venetian,
29684061,Ostregueta Semo Drio Deventar Veci,,,,Darcy Loss Luzzatto,1989,1st,Sagra Luzzatto,Porto Alegre,171,171,Talian (Brazilian Venetian)/Portuguese,102,,0,8585038896,,,,,,,,,,,300,0,1,0,1,1,0,0,8377927,djvu,165384613f38ed016c07ed2a7193f771,,,D L Luzzatto - Ostregueta Semo Drio Deventar Veci [170 pps][1a Ed][1989].djvu,0,2000-01-01 01:00:00,2016-11-29 03:23:19,1589000/165384613f38ed016c07ed2a7193f771-g.jpg,Veneto; Talian; Venetian,8585038896
29684062,The Encyclopedia of Spices and Herbs,,,,Padma Lakshmi,0,,,,0,0,English,49,,0,,,,,,,,,,,,0,,,,,,,,24199283,epub,4f29699fc0eba19415a617d47ee81207,,,the_encyclopedia_of_spices_and_herbs_padma_lakshmi.epub,0,2000-01-01 01:00:00,2016-11-29 03:24:25,1589000/4f29699fc0eba19415a617d47ee81207-g.jpg,,
29684063,Green and Lean Management,,Management and Industrial Engineering,,"Carolina Machado, J. Paulo Davim",2017,,Springer International Publishing Switzerland,,233,233,English,6,,0,978-3-319-44907-4; 978-3-319-44909-8,2365-0532,,,,,2016949593,10.1007/978-3-319-44909-8,1BZADQAAQBAJ,,,0,1,1,0,,,1,1,3336279,pdf,89f80ff89ff681acbbe224082815f622,,,(Management and Industrial Engineering) Green and Lean Management.pdf,0,2000-01-01 01:00:00,2016-11-29 03:25:02,1589000/89f80ff89ff681acbbe224082815f622-g.jpg,,9783319449074;9783319449098
29684064,Green and Lean Management,,Management and Industrial Engineering,,"Carolina Machado, J. Paulo Davim",2017,,Springer,,233,233,English,6,,0,978-3-319-44907-4; 978-3-319-44909-8,2365-0532,,,,,2016949593,10.1007/978-3-319-44909-8,1BZADQAAQBAJ,,,0,1,1,0,,,1,1,3336279,pdf,89f80ff89ff681acbbe224082815f622,,,(Management and Industrial Engineering) Green and Lean Management.pdf,0,2000-01-01 01:00:00,2016-11-29 03:25:14,1589000/89f80ff89ff681acbbe224082815f622-g.jpg,,9783319449074;9783319449098
29684065,Macro- to Microscale Heat Transfer: The Lagging Behaviour,,0,,D. Y. Tzou,0,second,John Wiley & Sons,,573,573,English,242,,0,,,,,,,,,,,,0,,,,,,,1,11331793,pdf,80b7bcc86d4f12ca2019fa3cdbdfad2e,,,[Tzou_D. Y]_Macro-_to_Microscale_Heat_Transfer__The Lagging Behavior_2nd_Edition__John_Wiley__amp;_Sons(2014).pdf,0,2000-01-01 01:00:00,2016-11-29 03:26:42,1589000/80b7bcc86d4f12ca2019fa3cdbdfad2e-g.jpg,"Heat Conduction, Lagging Behaviour, Microscale",
29684066,Macro- to Microscale Heat Transfer: The Lagging Behaviour,,,,D. Y. Tzou,2014,2nd,John Wiley & Sons,,573,573,English,242,,0,978-1-118-81822-0,,,,,,,,,,,0,,,,,,,1,11331793,pdf,80b7bcc86d4f12ca2019fa3cdbdfad2e,,,[Tzou_D. Y]_Macro-_to_Microscale_Heat_Transfer__The Lagging Behavior_2nd_Edition__John_Wiley__amp;_Sons(2014).pdf,0,2000-01-01 01:00:00,2016-11-29 03:27:12,1589000/80b7bcc86d4f12ca2019fa3cdbdfad2e-g.2016-11-29 07-27-12.jpg,"Heat Conduction, Lagging Behaviour, Microscale",9781118818220
29684067,Macro- to Microscale Heat Transfer: The Lagging Behaviour,,,,D. Y. Tzou,2014,2nd,John Wiley & Sons,,573,573,English,242,,0,978-1-118-81822-0,,,,,,,,,,,0,,,,,,,1,11331793,pdf,80b7bcc86d4f12ca2019fa3cdbdfad2e,,,[Tzou_D. Y]_Macro-_to_Microscale_Heat_Transfer__The Lagging Behavior_2nd_Edition__John_Wiley__amp;_Sons(2014).pdf,0,2000-01-01 01:00:00,2016-11-29 03:27:14,http://media.wiley.com/product_data/coverImage300/29/11188182/1118818229.jpg,"Heat Conduction, Lagging Behaviour, Microscale",9781118818220
29684068,’L Mio Paese ’l e Cosi,,,,Darcy Loss Luzzatto,1987,1st,Sagra Luzzatto,Porto Alegre,152,152,Talian (Brazilian Venetian)/Portuguese,102,,0,8585038594,,,,,,,,,,,300,0,1,0,1,1,0,0,5492136,djvu,c70a32e88281e12cc8e877e087389733,,,D L Luzzatto - __039;L Mio Paese __039;l e Cosi[150 pps][1a Ed][1987].djvu,0,2000-01-01 01:00:00,2016-11-29 03:28:02,1589000/c70a32e88281e12cc8e877e087389733-g.jpg,Veneto; Talian; Venetian,8585038594
29684069,Ghe’avemo Fato Arquante...,,,,Darcy Loss Luzzatto,1985,1st,Sagra Luzzatto,Porto Alegre,174,174,Talian (Brazilian Venetian)/Portuguese,102,,0,8585038152,,,,,,,,,,,300,0,1,0,1,1,0,0,7544040,pdf,f38c7fe5e73759518b482231e236f6ac,,,D L Luzzatto - Ghe__039;avemo Fato Arquante... [175 pps][1a Ed][1985].pdf,0,2000-01-01 01:00:00,2016-11-29 03:28:17,1589000/f38c7fe5e73759518b482231e236f6ac-g.jpg,,8585038152
29684070,El Nostro Parlar,,,,Darcy Loss Luzzatto,1993,1st,Sagra Luzzatto,Porto Alegre,135,135,Talian (Brazilian Venetian)/Portuguese,102,,0,8524104147,,,,,,,,,,,300,0,1,0,1,1,0,0,9587805,pdf,3f512b29bcfc3310b6da237aeca6db20,,,D L Luzzatto - El Nostro Parlar [135 pps][1a Ed][1993].pdf,0,2000-01-01 01:00:00,2016-11-29 03:28:31,1589000/3f512b29bcfc3310b6da237aeca6db20-g.jpg,Veneto; Talian; Venetian,8524104147
29684071,double bass string bass electric upright bass EUB eigenmodes,,,,askenfelt a,1984,,kth,,28,28,english,,,0,,,,,,,,,,,,300,1,,0,1,0,1,1,2128829,pdf,71668bdab46c81c30611fe5cdbea0414,,,bass.pdf,0,2000-01-01 01:00:00,2016-11-29 03:29:06,1588000/71668bdab46c81c30611fe5cdbea0414-g.jpg,,
29684072,"Software Defined Networks, Second Edition: A Comprehensive Approach",,,,"Paul Goransson, Chuck Black, Timothy Culver",2016,2,Morgan Kaufmann,,436,438,English,,,0,"0128045558,9780128045558",,,,,,,,,,,0,,,,,,,1,27075976,pdf,123ad891a3573c2fbbdf05c3446954ae,,,Software Defined Networks 2e.pdf,0,2000-01-01 01:00:00,2016-11-29 03:29:21,http://ecx.images-amazon.com/images/I/514ZO5tAuAL.jpg,"Networks;Networks, Protocols & APIs;Networking & Cloud Computing;Computers & Technology;Networking;Computer Science;New, Used & Rental Textbooks;Specialty Boutique","0128045558,9780128045558"
29684073,Poetiken Der Gegenwart: Deutschsprachige Romane Nach 2000 (Spectrum Literaturwissenschaft / Spectrum Literature) (German Edition),,,,"Silke Horstkotte, Leonhard Herrmann",2013,,Walter de Gruyter,,360,369,German,,,0,"3110336421,9783110336429",,,,,,,,,,,0,,,,,,,1,10087400,pdf,ed7077894ecc49f6ed9a34b41725d9da,,,Poetiken der Gegenwart.pdf,0,2000-01-01 01:00:00,2016-11-29 03:30:37,http://ecx.images-amazon.com/images/I/41UvE144YNL.jpg,"Foreign Language Fiction;Literature & Fiction;German;European;Regional & Cultural;History & Criticism;Literature & Fiction;European;World Literature;Literature;Humanities;New, Used & Rental Textbooks;Specialty Boutique","3110336421,9783110336429"
29684074,Double bass string bass electric upright bass EUB eigenmodes,,,,askenfelt a,1984,,kth,,28,28,English,,,0,,,,,,,,,,,,300,1,,0,1,0,1,1,2128829,pdf,71668bdab46c81c30611fe5cdbea0414,,,bass.pdf,0,2000-01-01 01:00:00,2016-11-29 03:30:53,1588000/71668bdab46c81c30611fe5cdbea0414-g.jpg,,
29684075,Geología de Minas,,,,HUGH EXTON McKINSTRY,1970,,Ediciones OMEGA,,660,660,ESPAÑOL,40,,0,,,,,,,,,,,,0,,,,,,,1,200541047,pdf,86b4e391d0980a6fb14702b58487596a,,,Tyler - Geología de Minas.pdf,0,2000-01-01 01:00:00,2016-11-29 03:32:17,1588000/86b4e391d0980a6fb14702b58487596a-g.jpg,,
29684076,Excavaciones subterráneas en roca,,,,E. Hoek,1980,,McGraw Hill,,634,634,español,40,,0,0-900-488-55-7,,,,,,,,,,,0,,,,,,,0,167989109,pdf,5de9e331550e9dfea309317541eeb3ea,,,EXCAVACIONES SUBTERRÁNEAS EN ROCA.pdf,0,2000-01-01 01:00:00,2016-11-29 03:32:43,1588000/5de9e331550e9dfea309317541eeb3ea-g.jpg,,0900488557
29684077,Ion Exchange: Studies and Applications,,,,Ayben Kilislioglu,2015,,AvE4EvA,,198,198,English,296,,0,978-953-51-2164-0; 953-51-2164-2,,,,,,,10.5772/59295,,,,0,1,,0,,,1,1,10253262,pdf,e64abaa3e9eaf660adbfeda4edc2e7a6,,,"Ion Exchange - Studies and Applications - Ayben Kilislioglu (AvE4EvA, 2015).pdf",0,2000-01-01 01:00:00,2016-11-29 03:36:27,,,9789535121640;9535121642
29684078,Principios y Aplicaciones de la Interpretación de Registros,,,,Schlumberger,0,,,,209,209,ESPAÑOL,38,,0,,,,,,,,,,,,0,,,,,,,1,93116620,pdf,204a1e1723f161107b73a3153ded43af,,,Schlumberger_-_Principios_y_Aplicaciones_de_la_Interpretacion_de_Registros.pdf,0,2000-01-01 01:00:00,2016-11-29 03:38:07,1588000/204a1e1723f161107b73a3153ded43af-g.jpg,,
29684079,MANUAL DE PERFORACIÓN MANUAL DE POZOS Y EQUIPAMIENTO CON BOMBAS MANUALES,,,,Abel Bellido,2004,,Centro Panamericano de Ingeniería Sanitaria y Ciencias del Ambiente,Lima,37,37,ESPAÑOL,39,,0,,,,,,,,,,,,0,,,,,,,1,608049,pdf,cbd4a193af46d31dde860eae2445e20c,,,MANUAL DE PERFORACIÓN MANUAL DE POZOS Y EQUIPAMIENTO CON BOMBAS MANUALES.pdf,0,2000-01-01 01:00:00,2016-11-29 03:38:51,1588000/cbd4a193af46d31dde860eae2445e20c-g.jpg,,
29684080,Estadísticas del agua en México,,,,SEMARNAT-GOBIERNO FEDERAL,2008,,,,233,233,ESPAÑOL,39,,0,,,,,,,,,,,,0,,,,,,,1,10518099,pdf,2e22d5cd663a05be861fbf9d014ae75c,,,estadisticas del agua en mexico.pdf,0,2000-01-01 01:00:00,2016-11-29 03:40:32,1588000/2e22d5cd663a05be861fbf9d014ae75c-g.jpg,,
29684081,Just politics : human rights and the foreign policy of great powers,,Cornell studies in security affairs.,,C. William Walldorf,0,,Cornell University Press,,229,241,English,193,,0,,,,,,,,,,,,0,,,,,,,1,2353965,pdf,367cbfbb69fadf047327bb60328a58a8,,,"Just Politics, Human Rights and the Foreign Policy of Great Powers - C. William Walldorf .pdf",0,2000-01-01 01:00:00,2016-11-29 03:42:08,1588000/367cbfbb69fadf047327bb60328a58a8-d.jpg,Human rights;International relations;Alliances;United States -- Foreign relations -- 1945-1989;Great Britain -- Foreign relations -- 1837-1901;POLITICAL SCIENCE -- Human Rights;POLITICAL SCIENCE -- Political Freedom & Security -- Civil Rights;POLITICAL SCIENCE -- Political Freedom & Security -- Human Rights;Diplomatic relations;Great Britain;United States,
29684082,Кентерберийские рассказы,Том 30,Библиотека всемирной литературы,,Чосер Джеффри,1973,,Художественная литература,,,556,Russian,,,,,,,,,,,,,,,0,,,,,,0,1,13608344,djvu,e5912827262e0f64677d0f711a27cfba,,,Чосер Джеффри;Кентерберийские рассказы;Библиотека всемирной литературы;Том 30;Художественная литература;1973;;;Russian,0,2000-01-01 01:00:00,2016-11-29 03:43:20,1588000/e5912827262e0f64677d0f711a27cfba-g.jpg,,
29684083,Poetiken Der Gegenwart: Deutschsprachige Romane Nach 2000 (Spectrum Literaturwissenschaft / Spectrum Literature) (German Edition),,,,"Silke Horstkotte, Leonhard Herrmann",2013,,Walter de Gruyter,,360,369,German,,,0,"3110336421,9783110336429",,,,,,,,,,,0,,,,,,,1,10087400,pdf,ed7077894ecc49f6ed9a34b41725d9da,,,Poetiken der Gegenwart.pdf,0,2000-01-01 01:00:00,2016-11-29 03:45:26,1589000/ed7077894ecc49f6ed9a34b41725d9da-d.jpg,"Foreign Language Fiction;Literature & Fiction;German;European;Regional & Cultural;History & Criticism;Literature & Fiction;European;World Literature;Literature;Humanities;New, Used & Rental Textbooks;Specialty Boutique","3110336421,9783110336429"
29684084,"Software Defined Networks, Second Edition: A Comprehensive Approach",,,,"Paul Goransson, Chuck Black, Timothy Culver",2016,2,Morgan Kaufmann,,436,438,English,,,0,"0128045558,9780128045558",,,,,,,,,,,0,,,,,,,1,27075976,pdf,123ad891a3573c2fbbdf05c3446954ae,,,Software Defined Networks 2e.pdf,0,2000-01-01 01:00:00,2016-11-29 03:45:38,1589000/123ad891a3573c2fbbdf05c3446954ae-d.jpg,"Networks;Networks, Protocols & APIs;Networking & Cloud Computing;Computers & Technology;Networking;Computer Science;New, Used & Rental Textbooks;Specialty Boutique","0128045558,9780128045558"
29684085,Software Defined Networks: A Comprehensive Approach,,,,"Paul Goransson, Chuck Black, Timothy Culver",2016,2nd,Morgan Kaufmann,,436,438,English,,,0,"0128045558,9780128045558",,,,,,,,,,,0,,,,,,,1,27075976,pdf,123ad891a3573c2fbbdf05c3446954ae,,,Software Defined Networks 2e.pdf,0,2000-01-01 01:00:00,2016-11-29 03:45:47,1589000/123ad891a3573c2fbbdf05c3446954ae-d.jpg,"Networks;Networks, Protocols & APIs;Networking & Cloud Computing;Computers & Technology;Networking;Computer Science;New, Used & Rental Textbooks;Specialty Boutique","0128045558,9780128045558"
29684086,Aeschines: Against Timarchos (Clarendon Ancient History Series),,Clarendon Ancient History Series,,Aeschines,2001,,Oxford University Press,,414,414,English,64,,до 2011-01,"0199241562,9780199241569",,,,,885/.01,PA3823 .A27 2001,,,OL6796037M,,0,,,,0,0,,1,4192359,pdf,13F97180D716C6BA4B359509B9A1E4E5,,,D:\\!genesis\\library.nu\\13\\_27436.13f97180d716c6ba4b359509b9a1e4e5.pdf,0,2000-01-01 01:00:00,2016-11-29 03:46:58,574000/13f97180d716c6ba4b359509b9a1e4e5-d.jpg,,"0199241562,9780199241569"
29684087,African American Communication: Exploring Identity and Culture (Volume in Lea's Communication Series),,,,"Sidney A. Ribeau, Michael L. Hecht, Ronald L. Jackson",2002,2,,,344,342,English,234,,до 2011-01,"0805839941,9780805839944,9781410606358",,,,,305.896/073,E185.625 .H39 2003,,,OL3569206M,,0,,,,,1,1,1,23386800,pdf,CC35FFBE1432F1BA29EF3A89771FA094,,,D:\\!genesis\\library.nu\\cc\\_61984.cc35ffbe1432f1ba29ef3a89771fa094.pdf,0,2000-01-01 01:00:00,2016-11-29 03:47:51,481000/cc35ffbe1432f1ba29ef3a89771fa094-d.jpg,,"0805839941,9780805839944,9781410606358"
29684088,African American Preachers and Politics: The Careys of Chicago (Margaret Walker Alexander Series in African American Studies),,Margaret Walker Alexander Series in African American Studies,,Dennis C. Dickerson,2010,,University Press of Mississippi,,257,257,English,183,,до 2011-01,"978-1-60473-427-0,978-1-60473-428-7",,,,,,,,,,,0,,,,,,1,1,2540508,pdf,A64718A7B47C6AC03DF9F5C417A5ACE2,,,D:\\!genesis\\library.nu\\a6\\_251091.a64718a7b47c6ac03df9f5c417a5ace2.pdf,0,2000-01-01 01:00:00,2016-11-29 03:48:41,513000/a64718a7b47c6ac03df9f5c417a5ace2-g.jpg,,"9781604734270,9781604734287"
29684089,Advocacy (Legal Skills Series) - 2nd edition,,,,Andy Boon,1999,2,,,248,249,English,,,до 2011-01,"9781859414859,1859414850",,,,,347.42/052,KD7483 .B66 1999,,,OL6807954M,,0,,,,,1,,1,573826,pdf,22DB491E003AF1848EC14BE680A8B04B,,,D:\\!genesis\\library.nu\\22\\_64961.22db491e003af1848ec14be680a8b04b.pdf,0,2000-01-01 01:00:00,2016-11-29 03:49:31,562000/22db491e003af1848ec14be680a8b04b-d.jpg,,"9781859414859,1859414850"
29684090,Affinity Capillary Electrophoresis in Pharmaceutics and Biopharmaceutics (Drugs and the Pharmaceutical Sciences: a Series of Textbooks and Monographs),,,,"Reinhard Neubert (Editor), Hans-Hermann Ruttinger (Editor)",2003,1,,,384,381,English,173,,до 2011-01,"0824709519,9780824709518,9780824747367",,,,,615/.1901,RS189.5.C34 A345 2003,,,OL21661697M,,0,,,,,1,,1,3252815,pdf,21E1AF46BC1BBF050C2B4B04953696AA,,,D:\\!genesis\\library.nu\\21\\_143300.21e1af46bc1bbf050c2b4b04953696aa.pdf,0,2000-01-01 01:00:00,2016-11-29 03:50:43,564000/21e1af46bc1bbf050c2b4b04953696aa-d.jpg,,"0824709519,9780824709518,9780824747367"
29684091,African Creeks: Estelvste and the Creek Nation (Race and Culture in the American West Series),,,,Gary Zellar,2007,,,,343,365,English,,,до 2011-01,"0806138157,9780806138152,9780806182438",,,,,,,,,OL7940171M,,0,,,,,1,,1,2189403,pdf,72490D641BDD75EB91D9D89B17D1B1F4,,,F:\\Library.nu\\72\\_166379.72490d641bdd75eb91d9d89b17d1b1f4.pdf,0,2000-01-01 01:00:00,2016-11-29 03:51:35,417000/72490d641bdd75eb91d9d89b17d1b1f4-d.jpg,,"0806138157,9780806138152,9780806182438"
29684092,African Creeks: Estelvste and the Creek Nation (Race and Culture in the American West Series),,,,Gary Zellar,2007,,,,368,365,English,,,до 2011-01,"0806138157,9780806138152,9780806182438",,,,,,,,,OL7940171M,,0,,,,,1,,1,2405592,pdf,935023C978DC48B45D641CEC5FB9EE90,,,D:\\!genesis\\library.nu\\93\\_118187.935023c978dc48b45d641cec5fb9ee90.pdf,0,2000-01-01 01:00:00,2016-11-29 03:52:10,529000/935023c978dc48b45d641cec5fb9ee90-d.jpg,,"0806138157,9780806138152,9780806182438"
29684093,18th-Century Keyboard Music (Routledge Studies in Musical Genre) (Routledge Studies in Musical Genre),,,,R. Marshall,2003,2nd,,,448,431,English,183,,до 2011-01,"0415966426,9780415966429",,,,,,,,,OL17101204M,,0,,,,,1,,1,10142718,pdf,1786C93F7D159AB8D2201EFE9DC6D55C,,,D:\\!genesis\\library.nu\\17\\_133142.1786c93f7d159ab8d2201efe9dc6d55c.pdf,0,2000-01-01 01:00:00,2016-11-29 03:53:34,571000/1786c93f7d159ab8d2201efe9dc6d55c-d.jpg,,"0415966426,9780415966429"
29684094,A Basket Currency for Asia (Routledgecurzon Studies in the Growth Economies of Asia),,,,Takatoshi Ito,2006,1,,,240,225,English,305,,до 2011-01,"0415383765,9780415383769,9780203966969",,,,,,,,,OL22742388M,,0,,,,,1,,1,4174544,pdf,723604E4E0585F5336CBA2F1E9418F48,,,F:\\Library.nu\\72\\_130947.723604e4e0585f5336cba2f1e9418f48.pdf,0,2000-01-01 01:00:00,2016-11-29 03:53:53,417000/723604e4e0585f5336cba2f1e9418f48-d.jpg,,"0415383765,9780415383769,9780203966969"
29684095,A Basket Currency for Asia,,Routledge-Curzon Studies in the Growth Economies of Asia,,Takatoshi Ito,2006,1,Routledge,,240,225,English,305,,до 2011-01,"0415383765,9780415383769,9780203966969",,,,,,,,,,,0,,,,,1,,1,4174544,pdf,723604E4E0585F5336CBA2F1E9418F48,,,F:/Library.nu/72/_130947.723604e4e0585f5336cba2f1e9418f48.pdf,0,2000-01-01 01:00:00,2016-11-29 03:54:25,417000/723604e4e0585f5336cba2f1e9418f48-d.jpg,,"0415383765,9780415383769,9780203966969"
29684096,A Bibliography of Female Economic Thought to 1940 (Routledge Studies in the History of Economics),,,,Kirsten Madden,2004,1,,,560,561,English,64,,до 2011-01,"041523817X,9780415238175",,,,,016.33/009/034,"Z7164.E2 M34 2004,HB71 M34 2004",,,OL22610835M,,0,,,,,1,1,1,2385478,pdf,F95BACCDEF2F76F75BE8A46D1399B945,,,D:\\!genesis\\library.nu\\f9\\_124929.f95baccdef2f76f75be8a46d1399b945.pdf,0,2000-01-01 01:00:00,2016-11-29 03:54:56,445000/f95baccdef2f76f75be8a46d1399b945-d.jpg,,"041523817X,9780415238175"
29684097,"A Blues Bibliography, 2nd edition (Routledge Music Bibliographies)",,,,Robert Ford,2007,2,Routledge,,1401,1401,English ,,,до 2011-08,"0415978874,9780415978873,9780203942123",,,,,,,,,OL17234682M,,0,,,,,1,1,1,16104913,pdf,18AFD20C5A47A45CA26F5AC0AD9ED6BC,,,_379744.18afd20c5a47a45ca26f5ac0ad9ed6bc.pdf,0,2000-01-01 01:00:00,2016-11-29 03:55:19,652000/18afd20c5a47a45ca26f5ac0ad9ed6bc-d.jpg,,"0415978874,9780415978873,9780203942123"
29684098,A Book of Irish Verse (Routledge Classics),,,,W. B. Yeats,2002,2,Routledge,,208,207,English,,,до 2011-01,"0415289823,9780415289825,9780203995068",,,,,821.008/09417,PR8851 .B6 2002,,,,,0,,,,,1,1,1,510245,pdf,78B3AF5525E017654D40445452E026BC,,,F:/Library.nu/78/_127097.78b3af5525e017654d40445452e026bc.pdf,0,2000-01-01 01:00:00,2016-11-29 03:55:34,412000/78b3af5525e017654d40445452e026bc-d.jpg,,"0415289823,9780415289825,9780203995068"
29684099,"A Century of Foreign Investment in the Third World (Routledge Studies in International Business and the World Economy, 20)",,Routledge Studies in International Business and the World Economy,,Michael Twomey,2001,1,,,272,267,English,305,,до 2011-01,"0415233607,9780415233606,9780203185940",,,,,332.67/3/091724,HG4538 .T94 2000,,,OL18314072M,,0,,,,,1,1,1,1800676,pdf,D09F03637B0DC8AB5E2E87E02798ED66,,,D:\\!genesis\\library.nu\\d0\\_56324.d09f03637b0dc8ab5e2e87e02798ed66.pdf,0,2000-01-01 01:00:00,2016-11-29 03:56:04,478000/d09f03637b0dc8ab5e2e87e02798ed66-d.jpg,,"0415233607,9780415233606,9780203185940"
29684100,Talking as Fast as I Can: From Gilmore Girls to Gilmore Girls,,and Everything in Between,,Lauren Graham,2016,,Ballantine Books,,224,0,English,,,0,"0425285170,9780425285176",,,,,,,,,,,0,,,,,,,,8986088,epub,ffef77eeaf8bf0a480562eb539d35e22,,,0425285170.epub,0,2000-01-01 01:00:00,2016-11-29 03:56:41,http://ecx.images-amazon.com/images/I/51qqFzVS0WL.jpg,"Actors & Entertainers;Arts & Literature;Biographies & Memoirs;Television Performers;Arts & Literature;Biographies & Memoirs;Memoirs;Biographies & Memoirs;Women;Specific Groups;Biographies & Memoirs;Humor;Business & Professional;Cats, Dogs & Animals;Comedy;Computers & Internet;Cooking;Doctors & Medicine;Essays;Hunting & Fishing;Jokes & Riddles;Lawyers & Criminals;Limericks & Humorous Verse;Love, Sex & Marriage;Parenting & Families;Parodies;Political;Puns & Wordplay;Religion;Rural Life;Satire;Scie","0425285170,9780425285176"
29684101,Lenin's Political Thought: Theory and Practice in the Democratic and Socialist Revolutions,,,,Neil Harding,2009,,Haymarket Books,,740,0,English,,,0,"1931859892,9781931859899",,,,,,,,,,,600,,1,,,1,1,1,9014516,djvu,91b494bf09079b25e17a263a14f3a2b1,,,Harding.Lenin__039;s Political Thought  2 Vols. (1983).djvu,0,2000-01-01 01:00:00,2016-11-29 04:00:34,1442000/91b494bf09079b25e17a263a14f3a2b1-d.jpg,Europe Belgium France Germany Great Britain Greenland Italy Netherlands Romania Scandinavia History Russia Communism Socialism Ideologies Doctrines Politics Government Social Sciences European International World Russian Former Soviet Union Theory Political Science Humanities New Used Rental Textbooks Specialty Boutique Philosophy Aesthetics Epistemology Ethics Surveys Logic Metaphysics,"1931859892,9781931859899"
29684102,Lenin's Political Thought: Theory and Practice in the Democratic and Socialist Revolutions,,,,Neil Harding,2009,,Haymarket Books,,740,0,English,,,0,"1931859892,9781931859899",,,,,,,,,,,600,,1,,,1,0,1,14565490,pdf,32f8f5709ea8ba0b3e4e216210494297,,,Harding.Lenin__039;s Political Thought  2 Vols. (1983).pdf,0,2000-01-01 01:00:00,2016-11-29 04:00:40,1442000/32f8f5709ea8ba0b3e4e216210494297-d.jpg,,"1931859892,9781931859899"
29684103,Lenin’s Political Thought: Theory and Practice in the Democratic and Socialist Revolutions,,,,Neil Harding,2009,,Haymarket Books,,740,0,English,,,0,"1931859892,9781931859899",,,,,,,,,,,600,,1,,,1,1,1,9014516,djvu,91b494bf09079b25e17a263a14f3a2b1,01B2E1E0D92759ADD33FE49FF1CEC081,no,Harding.Lenin__039;s Political Thought  2 Vols. (1983).djvu,0,2000-01-01 01:00:00,2016-11-29 04:02:15,1442000/91b494bf09079b25e17a263a14f3a2b1-d.jpg,Europe Belgium France Germany Great Britain Greenland Italy Netherlands Romania Scandinavia History Russia Communism Socialism Ideologies Doctrines Politics Government Social Sciences European International World Russian Former Soviet Union Theory Political Science Humanities New Used Rental Textbooks Specialty Boutique Philosophy Aesthetics Epistemology Ethics Surveys Logic Metaphysics,"1931859892,9781931859899"
29684104,Театрал,,,,Греч Н.И.,1853,,Типография Н. Греча,,,162,Russian,,,,-,,,,,,,,,,,0,,,,,,0,1,37959134,pdf,25c2fd4d768b164089e605624a96fb6a,,,Греч Н.И.;Театрал;;;Типография Н. Греча;1853;-;;Russian,0,2000-01-01 01:00:00,2016-11-29 04:07:36,1573000/25c2fd4d768b164089e605624a96fb6a-g.jpg,,
29684105,Иллюстрированный практический путеводитель по Одессе,,,,Москвич Г.Г.,1904,,Типография Л. Нитче (Одесса),,,193,Russian,,,,-,,,,,,,,,,,0,,,,,,0,1,114294202,pdf,6056c19c1332a4c10e4a7a718155860f,,,Москвич Г.Г.;Иллюстрированный практический путеводитель по Одессе;;;Типография Л. Нитче (Одесса);1904;-;;Russian,0,2000-01-01 01:00:00,2016-11-29 04:07:36,1577000/6056c19c1332a4c10e4a7a718155860f-g.jpg,,
29684106,«Отчизну сердцем защитили»  Стихи поэтов Тейковского района,,,,,2011,,"ОАО «Издательство «Иваново»,",,,64,Russian,,,,-,,,,,,,,,,,0,,,,,,0,1,2010197,pdf,ca229279281b8a331bc80b0e6cfa53f2,,,";«Отчизну сердцем защитили»  Стихи поэтов Тейковского района;;;ОАО «Издательство «Иваново»,;2011;-;;Russian",0,2000-01-01 01:00:00,2016-11-29 04:07:36,1585000/ca229279281b8a331bc80b0e6cfa53f2-g.jpg,,
29684107,Recettes Angéliques. Le bœuf: Le goût d’être ensemble,,,,(Collective),2012,,INTERBEV,,0,32,French,,,0,-,,,,,,,,,,,0,,,,,,0,1,3164060,pdf,be017384eb788f84803d6cf2728a3a68,,,;Recettes Angliques. Le boeuf Le got d’tre ensemble;;;INTERBEV;2012;-;;French,0,2000-01-01 01:00:00,2016-11-29 04:07:36,1585000/be017384eb788f84803d6cf2728a3a68-g.jpg,,
29684108,A World Of Animals Vol. 2,,Painting- Animals,,Ana Bernabe,2002,,Viking folk Art,,,60,English,,,,-,,,,,,,,,,,0,,,,,,0,0,50405079,pdf,857f613ba692b86d043d09c24061c24a,,,Ana Bernabe;A World Of Animals Vol. 2;Painting- Animals;;Viking folk Art;2002;-;;English,0,2000-01-01 01:00:00,2016-11-29 04:07:36,1585000/857f613ba692b86d043d09c24061c24a-g.jpg,,
29684109,A World Of Animals Vol. 3,,Painting- Animals,,Ana Bernabe,2003,,Viking folk Art,,,65,English,,,,-,,,,,,,,,,,0,,,,,,0,0,46544505,pdf,d2dbe9b1e95bf109a85cf033d923f5a2,,,Ana Bernabe;A World Of Animals Vol. 3;Painting- Animals;;Viking folk Art;2003;-;;English,0,2000-01-01 01:00:00,2016-11-29 04:07:36,1585000/d2dbe9b1e95bf109a85cf033d923f5a2-g.jpg,,
29684110,20 Easy DIY Holiday Craft,,,,Collective,2015,,FloraCraft,,0,58,English,,,0,-,,,,,,,,,,,0,,,,,,0,1,19194778,pdf,b5d1f6e32d9acffad14ecfb28dac3ac6,,,"Collective;20 Easy DIY Holiday Craft;;;FloraCraft, Prime Publishing LLC;2015;-;;English",0,2000-01-01 01:00:00,2016-11-29 04:07:36,1585000/b5d1f6e32d9acffad14ecfb28dac3ac6-g.jpg,,
29684111,Книга о лошади. Том 4. Использование лошади и уход за нею,,,,Буденный С.М.,1959,,Госсельхозиздат,,319,319,Russian,,,0,,,,,,,,,,,бинаризировано,500,,,,1,1,,0,6080299,djvu,017ad76c0e4ea220ab4ea5718d0437dc,,,Буденный С.М. (ред) - Книга о лошади. Том 4.(1959) -319.djvu,0,2000-01-01 01:00:00,2016-11-29 04:07:37,,,
29684112,Книга о лошади. Том 3. Племенная работа в коневодстве и коннозаводстве,,,,Буденный С.М.,1959,,Госсельхозиздат,,442,442,Russian,,,0,,,,,,,,,,,бинаризировано,500,,,,,,,0,10995911,djvu,f521b796338a29384972af630f1a4056,,,Буденный С.М. (ред) - Книга о лошади. Том 3.(1959) -442.djvu,0,2000-01-01 01:00:00,2016-11-29 04:13:48,,,
29684113,Племенное дело в коневодстве,,,,Каштанов Л.В.,1950,,Госсельхозиздат,,394,394,Russian,,,0,,,,,,,,,,,,450,,,,,,,0,8705663,djvu,7915a20df5cd8c46011038d2bc20006e,,,Каштанов Л.В. - Племенное дело в коневодстве.(1950) -394.djvu,0,2000-01-01 01:00:00,2016-11-29 04:15:39,,,
29684114,Курс лекций по общественному здоровью и здравоохранению. Часть 1. Общественное здоровье,,Учебная литература для студентов медицинских ВУЗов,,"Медик В.А., Юрьев В.К.",2003,,Медицина,,365,365,Russian,147,,0,5-225-04122-1,,,,,,,,,,,400,,,,,,,0,4721944,djvu,1e019233f3d2e69b1f49f73005980757,,,Медик В.А. - Курс лекций по общественному здоровью и здравоохранению. Ч.1.(2003) -365.djvu,0,2000-01-01 01:00:00,2016-11-29 04:18:59,,,5225041221
29684115,Курс лекций по общественному здоровью и здравоохранению. Часть 2. Организация медицинской помощи,,,,"Медик В.А., Юрьев В.К.",2003,,Медицина,,456,456,Russian,147,,0,5-225-04121-3,,,,,,,,,,,400,,,,,,,0,4512482,djvu,c1fc719c37d95a48ab1a3f45bd0331b0,,,Медик В.А. - Курс лекций по общественному здоровью и здравоохранению. Ч.2.(2003) -456.djvu,0,2000-01-01 01:00:00,2016-11-29 04:22:34,,,5225041213
29684116,Курс лекций по общественному здоровью и здравоохранению. Часть 3. Экономика и управление здравоохранением,,,,"Медик В.А., Юрьев В.К.",2003,,Медицина,,392,392,Russian,147,,0,5-225-04123-Х,,,,,,,,,,,400,,,,,,,0,4453685,djvu,0e63d6af8c6c7c5e7f441aa1db7f05f8,,,Медик В.А. - Курс лекций по общественному здоровью и здравоохранению. Ч.3.(2003) -392.djvu,0,2000-01-01 01:00:00,2016-11-29 04:24:40,,,522504123Х
29684117,Talking as Fast as I Can: From Gilmore Girls to Gilmore Girls,,and Everything in Between,,Lauren Graham,2016,,Ballantine Books,,224,0,English,,,0,"0425285170,9780425285176",,,,,,,,,,,0,,,,,,,,8986088,epub,ffef77eeaf8bf0a480562eb539d35e22,,,0425285170.epub,0,2000-01-01 01:00:00,2016-11-29 05:05:35,1589000/ffef77eeaf8bf0a480562eb539d35e22-d.jpg,"Actors & Entertainers;Arts & Literature;Biographies & Memoirs;Television Performers;Arts & Literature;Biographies & Memoirs;Memoirs;Biographies & Memoirs;Women;Specific Groups;Biographies & Memoirs;Humor;Business & Professional;Cats, Dogs & Animals;Comedy;Computers & Internet;Cooking;Doctors & Medicine;Essays;Hunting & Fishing;Jokes & Riddles;Lawyers & Criminals;Limericks & Humorous Verse;Love, Sex & Marriage;Parenting & Families;Parodies;Political;Puns & Wordplay;Religion;Rural Life;Satire;Scie","0425285170,9780425285176"
29684118,Startup Growth Engines: Case Studies of How Today’s Most Successful Startups Unlock Extraordinary Growth,,,,Sean Ellis; Morgan Brown,2014,1,Sean Ellis and Morgan Brown,,0,0,English,4,,0,77961SEM00001,,B00LA95B68,,,,,,,,,0,,,,,,,,482415,epub,89490eb5b95271f3a1e6e5e9cc90a729,,,Startup Growth Engines- Case Studies of How Today’s Most Successful Startups Unlock Extraordinary Growth_659322.epub,0,2000-01-01 01:00:00,2016-11-29 05:05:49,1589000/89490eb5b95271f3a1e6e5e9cc90a729-d.jpg,,77961SEM00001
29684119,Green and Lean Management,,Management and Industrial Engineering,,"Carolina Machado, J. Paulo Davim",2017,,Springer,,233,233,English,6,,0,978-3-319-44907-4; 978-3-319-44909-8,2365-0532,,,,,2016949593,10.1007/978-3-319-44909-8,1BZADQAAQBAJ,,,0,1,1,0,,,1,1,3336279,pdf,89f80ff89ff681acbbe224082815f622,,,(Management and Industrial Engineering) Green and Lean Management.pdf,0,2000-01-01 01:00:00,2016-11-29 05:06:35,1589000/89f80ff89ff681acbbe224082815f622-g.jpg,,9783319449074;9783319449098
29684120,In Perfect Harmony,,,,Laura DeLuca Laura Deluca,0,,,,0,0,English,,,0,,,,,,,,,,,,0,,,,,,,,320905,epub,83736f4a9804175caa4ec3215413ed90,,,in_perfect_harmony_jersey_girls_book_2__deluca_lau.epub,0,2000-01-01 01:00:00,2016-11-29 05:06:39,1589000/83736f4a9804175caa4ec3215413ed90-g.jpg,,
29684121,Театрал,,,,Греч Н.И.,1853,,Типография Н. Греча,,,162,Russian,,,,-,,,,,,,,,,,0,,,,,,0,1,37959134,pdf,25c2fd4d768b164089e605624a96fb6a,,,Греч Н.И.;Театрал;;;Типография Н. Греча;1853;-;;Russian,0,2000-01-01 01:00:00,2016-11-29 05:07:36,1573000/25c2fd4d768b164089e605624a96fb6a-g.jpg,,
29684122,Иллюстрированный практический путеводитель по Одессе,,,,Москвич Г.Г.,1904,,Типография Л. Нитче (Одесса),,,193,Russian,,,,-,,,,,,,,,,,0,,,,,,0,1,114294202,pdf,6056c19c1332a4c10e4a7a718155860f,,,Москвич Г.Г.;Иллюстрированный практический путеводитель по Одессе;;;Типография Л. Нитче (Одесса);1904;-;;Russian,0,2000-01-01 01:00:00,2016-11-29 05:07:36,1577000/6056c19c1332a4c10e4a7a718155860f-g.jpg,,
29684123,«Отчизну сердцем защитили»  Стихи поэтов Тейковского района,,,,,2011,,"ОАО «Издательство «Иваново»,",,,64,Russian,,,,-,,,,,,,,,,,0,,,,,,0,1,2010197,pdf,ca229279281b8a331bc80b0e6cfa53f2,,,";«Отчизну сердцем защитили»  Стихи поэтов Тейковского района;;;ОАО «Издательство «Иваново»,;2011;-;;Russian",0,2000-01-01 01:00:00,2016-11-29 05:07:36,1585000/ca229279281b8a331bc80b0e6cfa53f2-g.jpg,,
29684124,Recettes Angéliques. Le bœuf: Le goût d’être ensemble,,,,(Collective),2012,,INTERBEV,,0,32,French,,,0,-,,,,,,,,,,,0,,,,,,0,1,3164060,pdf,be017384eb788f84803d6cf2728a3a68,,,;Recettes Angliques. Le boeuf Le got d’tre ensemble;;;INTERBEV;2012;-;;French,0,2000-01-01 01:00:00,2016-11-29 05:07:36,1585000/be017384eb788f84803d6cf2728a3a68-g.jpg,,
29684125,A World Of Animals Vol. 2,,Painting- Animals,,Ana Bernabe,2002,,Viking folk Art,,,60,English,,,,-,,,,,,,,,,,0,,,,,,0,0,50405079,pdf,857f613ba692b86d043d09c24061c24a,,,Ana Bernabe;A World Of Animals Vol. 2;Painting- Animals;;Viking folk Art;2002;-;;English,0,2000-01-01 01:00:00,2016-11-29 05:07:36,1585000/857f613ba692b86d043d09c24061c24a-g.jpg,,
29684126,A World Of Animals Vol. 3,,Painting- Animals,,Ana Bernabe,2003,,Viking folk Art,,,65,English,,,,-,,,,,,,,,,,0,,,,,,0,0,46544505,pdf,d2dbe9b1e95bf109a85cf033d923f5a2,,,Ana Bernabe;A World Of Animals Vol. 3;Painting- Animals;;Viking folk Art;2003;-;;English,0,2000-01-01 01:00:00,2016-11-29 05:07:36,1585000/d2dbe9b1e95bf109a85cf033d923f5a2-g.jpg,,
29684127,20 Easy DIY Holiday Craft,,,,Collective,2015,,FloraCraft,,0,58,English,,,0,-,,,,,,,,,,,0,,,,,,0,1,19194778,pdf,b5d1f6e32d9acffad14ecfb28dac3ac6,,,"Collective;20 Easy DIY Holiday Craft;;;FloraCraft, Prime Publishing LLC;2015;-;;English",0,2000-01-01 01:00:00,2016-11-29 05:07:36,1585000/b5d1f6e32d9acffad14ecfb28dac3ac6-g.jpg,,
29684128,"Philosophy of Mathematics: Set Theory, Measuring Theories, and Nominalism",,"Logos.Studies in Logic, Philosophy of Language",,"Gerhard Preyer, Georg Peter",2009,,Ontos Verlag,,184,178,English,,,0,"3868380094,9783868380095",,,,,,,,,,,0,,,,,,,1,710946,pdf,7c81c70051a1db13291bb5fc2355cce0,,,"Philosophy of Mathematics - Set Theory, Measuring Theories, and Nominalism.pdf",0,2000-01-01 01:00:00,2016-11-29 05:08:32,1589000/7c81c70051a1db13291bb5fc2355cce0-d.jpg,"History & Philosophy;Science & Math;Logic & Language;Philosophy;Politics & Social Sciences;Methodology;Philosophy;Politics & Social Sciences;Logic;Philosophy;Humanities;New, Used & Rental Textbooks;Specialty Boutique;Science & Mathematics;Agriculture;Astronomy & Astrophysics;Biology & Life Sciences;Chemistry;Earth Sciences;Environmental Studies;Mathematics;Mechanics;Physics;New, Used & Rental Textbooks;Specialty Boutique","3868380094,9783868380095"
29684129,Green Biocomposites: Manufacturing and Properties,,Green Energy and Technology,,"Mohammad Jawaid, Salit Mohd Sapuan, Othman Y. Alothman",2017,,Springer International Publishing AG,,415,415,English,219,,0,978-3-319-46609-5; 978-3-319-46610-1,1865-3529,,,,,2016952887,10.1007/978-3-319-46610-1,,,,0,1,,0,,,1,1,11383342,pdf,50133950f2576d02dedeaf0b340e3caa,,,(Green Energy and Technology) Green Biocomposites - Manufacturing and Properties.pdf,0,2000-01-01 01:00:00,2016-11-29 05:08:45,1588000/50133950f2576d02dedeaf0b340e3caa-g.jpg,,9783319466095;9783319466101
29684130,"Recursion Theory and Complexity: Proceedings of the Kazan ’97 Workshop, Kazan, Russia, July 14 19, 1997",,de Gruyter Series in Logic and Its Applications,,"M. M. Arslanov, Marat M. Arslanov",1999,Reprint 2014 ed.,De Gruyter,,250,244,English,,,0,"3110165872,9783110165876",,,,,,,,,,,0,,,,,,,0,5569938,pdf,7ccae3d4844ad69b715bfddb4f4e85ff,,,Recursion Theory and Complexity Proceedings of the Kazan __039;97 Workshop.pdf,0,2000-01-01 01:00:00,2016-11-29 05:10:09,1589000/7ccae3d4844ad69b715bfddb4f4e85ff-d.jpg,"Computer Science;AI & Machine Learning;Bioinformatics;Computer Simulation;Cybernetics;Human-Computer Interaction;Information Theory;Robotics;Systems Analysis & Design;Computers & Technology;Logic;Pure Mathematics;Mathematics;Science & Math;Reference;Mathematics;Science & Math;Computer Science;Algorithms;Artificial Intelligence;Database Storage & Design;Graphics & Visualization;Networking;Object-Oriented Software Design;Operating Systems;Programming Languages;Software Design & Engineering;New, Us","3110165872,9783110165876"
29684131,Вечори цікавої хімії в школі (Вечера занимательной химии в школе),,,,Ходос Л.Ф.,1970,,Радянська школа,,,546,Ukrainian,,,,,,,,,,,,,,,0,,,,,,0,0,13955665,djvu,5f06a715c0e84503777dbe208ff8860b,,,Ходос Л.Ф.;Вечори цікавої хімії в школі (Вечера занимательной химии в школе);;;Радянська школа;1970;;;Ukrainian,0,2000-01-01 01:00:00,2016-11-29 05:10:43,1588000/5f06a715c0e84503777dbe208ff8860b-g.jpg,,
29684132,"British Freemasonry, 1717–1813, Volume 4: Debates",,"British Freemasonry, 1717–1813 + 4",,Róbert Péter (Ed.),2016,,Routledge,New York,430,463,English,64,,0,978-1-315-63983-3,,B01M646N3D,,,,,,,,,0,0,0,0,1,1,1,1,7849438,pdf,18f2b241f6fdcf36a60a5e605b74c446,,,"British Freemasonry, 1717–1813 Volume 4.pdf",0,2000-01-01 01:00:00,2016-11-29 05:10:43,1588000/18f2b241f6fdcf36a60a5e605b74c446-d.jpg,,9781315639833
29684133,"Микула Селянинович, представитель земли. Поэма в XII песнях. Книги 1 и 2",,,,"Тимофеев, Алексей Васильевич",1876,,тип. кн. В.В. Оболенского,,,766,Russian,,,,,,,,,,,,,,,0,,,,,,0,0,107650469,pdf,4b758b314805c6b440784df468786591,,,"Тимофеев, Алексей Васильевич;Микула Селянинович, представитель земли. Поэма в XII песнях. Книги 1 и 2;;;тип. кн. В.В. Оболенского;1876;;;Russian",0,2000-01-01 01:00:00,2016-11-29 05:12:37,1588000/4b758b314805c6b440784df468786591-g.jpg,,
29684134,Гайдамаки,,,,Тарас Григорович Шевченко,1988,,Дніпро,,,289,Ukrainian,,,,5-308-00010-0,,,,,,,,,,,0,,,,,,0,1,13777314,djvu,cd01118d3161880db6f6113dcd353aef,,,Тарас Григорович Шевченко;Гайдамаки;;;Дніпро;1988;5-308-00010-0;;Ukrainian,0,2000-01-01 01:00:00,2016-11-29 05:12:42,1588000/cd01118d3161880db6f6113dcd353aef-g.jpg,,5308000100
29684135,"British Freemasonry, 1717–1813, Volume 4: Debates",4,,,Róbert Péter (Ed.),2016,,Routledge,New York,430,463,English,64,,0,978-1-315-63983-3,,B01M646N3D,,,,,,,,,0,0,0,0,1,1,1,1,7849438,pdf,18f2b241f6fdcf36a60a5e605b74c446,,,"British Freemasonry, 1717–1813 Volume 4.pdf",0,2000-01-01 01:00:00,2016-11-29 05:12:52,1588000/18f2b241f6fdcf36a60a5e605b74c446-d.jpg,,9781315639833
29684136,În pragul lumii albe,,,,Narcisa Alexandra Ştiucă,2001,1st edition,Centrul Naţional de Conservare şi Valorificare a Tradiţiei şi Creaţiei Populare,Bucharest,234,234,Romanian,197,,0,978-973-002-483-8,,,,,,,,,,ocr by epistematic,0,,,,,,,1,7898657,pdf,7bcb2ea50a063a5dfd1290fb1f15d7d0,,,Narcisa Stiuca.pdf,0,2000-01-01 01:00:00,2016-11-29 05:18:43,1586000/7bcb2ea50a063a5dfd1290fb1f15d7d0-g.jpg,,9789730024838
29684137,Psycho-Cybernetics: Updated and Expanded,,,,Maxwell Maltz,0,,Perigee,,0,0,English,,,0,,,,,,,,,,,,0,,,,,,,,573793,epub,7475556fecda69521160e1be204cac1f,,,Psycho-Cybernetics_ Updated and Expanded - Maxwell Maltz.epub,0,2000-01-01 01:00:00,2016-11-29 05:23:15,1588000/7475556fecda69521160e1be204cac1f-g.jpg,Success -- Psychological aspects,
29684138,Ocean Greens: Explore the World of Edible Seaweed and Sea Vegetables: A Way of Eating for Your Health and the Planet’s,,,,"Lisette Kreischer, Marcel Schuttelaar, North Sea Farm",2016,,The Experiment,,192,194,English,,,0,"1615193529,9781615193523",,,,,,,,,,,0,,,,,,,1,21858018,pdf,bc9738f3c0d453232940bb75d47e3054,,,1615193529.pdf,0,2000-01-01 01:00:00,2016-11-29 05:26:45,http://ecx.images-amazon.com/images/I/61IqhJW2xzL.jpg,"Fish & Seafood;Cooking by Ingredient;Cookbooks, Food & Wine;Vegetables;Cooking by Ingredient;Cookbooks, Food & Wine;Burgers & Sandwiches;Main Courses & Side Dishes;Cookbooks, Food & Wine;Non-Vegan Vegetarian;Vegetarian & Vegan;Cookbooks, Food & Wine;Vegan;Vegetarian & Vegan;Cookbooks, Food & Wine;Engineering;Aerospace;Automotive;Bioengineering;Chemical;Civil & Environmental;Computer Modelling;Construction;Design;Electrical & Electronics;Energy Production & Extraction;Industrial, Manufacturing & ","1615193529,9781615193523"
29684139,Weather Radar Polarimetry,,,,Guifu Zhang,2016,1,CRC Press,,322,300,English,,,0,"1439869588,9781439869581",,,,,,,,,,,0,,,,,,,1,36614853,pdf,b5de3041600f94e1769e387d25200fa3,,,10.1201@9781315374666.pdf,0,2000-01-01 01:00:00,2016-11-29 05:31:43,http://ecx.images-amazon.com/images/I/51PRg0%2BGdaL.jpg,"Remote Sensing & GIS;Computer Modelling;Engineering;Engineering & Transportation;Microwaves;Telecommunications & Sensors;Engineering;Engineering & Transportation;Climatology;Earth Sciences;Science & Math;Information Systems;Geography;Earth Sciences;Science & Math;Rivers;Earth Sciences;Science & Math;Weather;Environment;Science & Math;Earth Sciences;Science & Mathematics;New, Used & Rental Textbooks;Specialty Boutique","1439869588,9781439869581"
29684140,Ocean Greens: Explore the World of Edible Seaweed and Sea Vegetables: A Way of Eating for Your Health and the Planet’s,,,,"Lisette Kreischer, Marcel Schuttelaar, North Sea Farm",2016,,The Experiment,,192,194,English,,,0,"1615193529,9781615193523",,,,,,,,,,,0,,,,,,,1,21858018,pdf,bc9738f3c0d453232940bb75d47e3054,,,1615193529.pdf,0,2000-01-01 01:00:00,2016-11-29 05:36:51,1589000/bc9738f3c0d453232940bb75d47e3054-d.jpg,"Fish & Seafood;Cooking by Ingredient;Cookbooks, Food & Wine;Vegetables;Cooking by Ingredient;Cookbooks, Food & Wine;Burgers & Sandwiches;Main Courses & Side Dishes;Cookbooks, Food & Wine;Non-Vegan Vegetarian;Vegetarian & Vegan;Cookbooks, Food & Wine;Vegan;Vegetarian & Vegan;Cookbooks, Food & Wine;Engineering;Aerospace;Automotive;Bioengineering;Chemical;Civil & Environmental;Computer Modelling;Construction;Design;Electrical & Electronics;Energy Production & Extraction;Industrial, Manufacturing & ","1615193529,9781615193523"
29684141,Poetiken Der Gegenwart: Deutschsprachige Romane Nach 2000,,Spectrum Literaturwissenschaft / Spectrum Literature,,"Silke Horstkotte, Leonhard Herrmann",2013,,Walter de Gruyter,,360,369,German,,,0,"3110336421,9783110336429",,,,,,,,,,,0,,,,,,,1,10087400,pdf,ed7077894ecc49f6ed9a34b41725d9da,,,Poetiken der Gegenwart.pdf,0,2000-01-01 01:00:00,2016-11-29 05:36:51,1589000/ed7077894ecc49f6ed9a34b41725d9da-d.jpg,"Foreign Language Fiction;Literature & Fiction;German;European;Regional & Cultural;History & Criticism;Literature & Fiction;European;World Literature;Literature;Humanities;New, Used & Rental Textbooks;Specialty Boutique","3110336421,9783110336429"
29684142,Grammaire De Civilisations,,Champs Histoire,,Fernand Braudel,2002,,Flammarion,,314,314,French,,,0,"2080812858,9782080812858",,,,,,,,,,,0,,,,,,,0,226887217,pdf,9ff61ea56f6a5be2ab934e65c26ce9cc,,,Fernand Braudel - Grammaire des civilisations.pdf,0,2000-01-01 01:00:00,2016-11-29 05:36:58,https://pictures.abebooks.com/isbn/9782080812858-fr.jpg,World;Civilization & Culture;Expeditions & Discoveries;Jewish;Religious;Slavery & Emancipation;Women in History;History;Foreign Language Study & Reference;Instruction;Foreign Language Dictionaries & Thesauruses;Reference,"2080812858,9782080812858"
29684143,"The Northwest Coastal Explorer: Your Guide to the Places, Plants, and Animals of the Pacific Coast",,,,Robert Steelquist,2016,,Timber Press,,284,0,English,,,0,"1604696311,9781604696318",,,,,,,,,,,0,,,,,,,,93092622,epub,5200d570b76875d6acc5f87d959e9ccc,,,1604696311.epub,0,2000-01-01 01:00:00,2016-11-29 05:39:02,http://ecx.images-amazon.com/images/I/61s0TNGNcJL.jpg,Marine Life;Oceans & Seas;Nature & Ecology;Science & Math;Oceanography;Oceans & Seas;Nature & Ecology;Science & Math;Pacific;West;United States;Travel,"1604696311,9781604696318"
29684144,A Short History of the Bicycle,,,,Nicholas Clayton,2016,,Amberley,,96,0,English,,,0,"1445648822,9781445648828",,,,,,,,,,,0,,,,,,,,7229824,azw,29d2a1e85231fd409f0c94e090aed584,,,1445648822.azw,0,2000-01-01 01:00:00,2016-11-29 05:40:20,http://ecx.images-amazon.com/images/I/51g0NewvlKL.jpg,Transportation;Automotive;Aviation;History;Mass Transit;Owner’s Manuals & Maintenance Guides;Railroads;Reference;Ships;Engineering & Transportation;Cycling;Bike Repair;Excursion Guides;Mountain Biking;Individual Sports;Sports & Outdoors,"1445648822,9781445648828"
29684145,"Knowledge Games: How Playing Games Can Solve Problems, Create Insight, and Make Change",,Tech.edu: A Hopkins Series on Education and Technology,,Karen Schrier,2016,,Johns Hopkins University Press,,280,281,English,,,0,"1421419203,9781421419206",,,,,,,,,,,0,,,,,,,1,18052104,pdf,46f54231892739bead0297c9b07f0dee,,,Knowledge Games.pdf,0,2000-01-01 01:00:00,2016-11-29 05:47:32,http://ecx.images-amazon.com/images/I/51C%2B5Ou9k4L.jpg,Game Programming;Programming;Computers & Technology;History;Reference;Engineering;Engineering & Transportation;Technology;Science & Math;Higher & Continuing Education;Administration;Adult & Continuing Education;Business School Guides;College Guides;Financial Aid;Graduate School Guides;Law School Guides;Medical School Guides;Test Preparation;Vocational;Education & Teaching;Education Theory;Administration;Assessment;Educational Psychology;Experimental Methods;History;Language Experience Approach;P,"1421419203,9781421419206"
29684146,Histoires de croisades,,,,"Alessandro Barbero, Jean-Marc Mandosio",2010,,Flammarion,,98,0,Français,64,,0,"2081231476,9782081231474",,,,,,,,,,,0,,,,,,,,134347,epub,91ec1f9658e6b46b93e4684f716e57da,,,Histoire-de-croisades---Alessandro-Barbero.epub,0,2000-01-01 01:00:00,2016-11-29 05:52:44,1289000/9ed51875be9d7527350c2e6c1cd5517d-d.jpg,,"2081231476,9782081231474"
29684147,Основы молекулярной биологии,,,,Калинин Ф.Л.,1978,,Вища школа,,489,0,Russian,12,,0,,,,,,,,,,,бинаризировано,450,,,,1,1,,0,10056180,djvu,a17adda95870ef77058841c0f17f700e,,,Калинин Ф.Л. - Основы молекулярной биологии.(1978) -489.djvu,0,2000-01-01 01:00:00,2016-11-29 05:56:51,,,
29684148,Биология. Общая биология. 10-11 классы. Базовый уровень,,Академический школьный учебник,,"Беляев Д.К., Дымшиц Г.М. (ред)",2012,11,Просвещение,,312,312,Russian,12,,0,978-5-09-028906-1,,,,,,,,,,,500,,,,,1,,0,6437454,djvu,8c931727489c4eb960dac96a1893d5d4,,,Беляев Д.К. - Биология. 10-11 класс.(2012) -312.djvu,0,2000-01-01 01:00:00,2016-11-29 06:05:08,,,9785090289061
29684149,Театрал,,,,Греч Н.И.,1853,,Типография Н. Греча,,,162,Russian,,,,-,,,,,,,,,,,0,,,,,,0,1,37959134,pdf,25c2fd4d768b164089e605624a96fb6a,,,Греч Н.И.;Театрал;;;Типография Н. Греча;1853;-;;Russian,0,2000-01-01 01:00:00,2016-11-29 06:07:37,1573000/25c2fd4d768b164089e605624a96fb6a-g.jpg,,
29684150,Иллюстрированный практический путеводитель по Одессе,,,,Москвич Г.Г.,1904,,Типография Л. Нитче (Одесса),,,193,Russian,,,,-,,,,,,,,,,,0,,,,,,0,1,114294202,pdf,6056c19c1332a4c10e4a7a718155860f,,,Москвич Г.Г.;Иллюстрированный практический путеводитель по Одессе;;;Типография Л. Нитче (Одесса);1904;-;;Russian,0,2000-01-01 01:00:00,2016-11-29 06:07:37,1577000/6056c19c1332a4c10e4a7a718155860f-g.jpg,,
29684151,«Отчизну сердцем защитили»  Стихи поэтов Тейковского района,,,,,2011,,"ОАО «Издательство «Иваново»,",,,64,Russian,,,,-,,,,,,,,,,,0,,,,,,0,1,2010197,pdf,ca229279281b8a331bc80b0e6cfa53f2,,,";«Отчизну сердцем защитили»  Стихи поэтов Тейковского района;;;ОАО «Издательство «Иваново»,;2011;-;;Russian",0,2000-01-01 01:00:00,2016-11-29 06:07:37,1585000/ca229279281b8a331bc80b0e6cfa53f2-g.jpg,,
29684152,Recettes Angéliques. Le bœuf: Le goût d’être ensemble,,,,(Collective),2012,,INTERBEV,,0,32,French,,,0,-,,,,,,,,,,,0,,,,,,0,1,3164060,pdf,be017384eb788f84803d6cf2728a3a68,,,;Recettes Angliques. Le boeuf Le got d’tre ensemble;;;INTERBEV;2012;-;;French,0,2000-01-01 01:00:00,2016-11-29 06:07:37,1585000/be017384eb788f84803d6cf2728a3a68-g.jpg,,
29684153,A World Of Animals Vol. 2,,Painting- Animals,,Ana Bernabe,2002,,Viking folk Art,,,60,English,,,,-,,,,,,,,,,,0,,,,,,0,0,50405079,pdf,857f613ba692b86d043d09c24061c24a,,,Ana Bernabe;A World Of Animals Vol. 2;Painting- Animals;;Viking folk Art;2002;-;;English,0,2000-01-01 01:00:00,2016-11-29 06:07:37,1585000/857f613ba692b86d043d09c24061c24a-g.jpg,,
29684154,A World Of Animals Vol. 3,,Painting- Animals,,Ana Bernabe,2003,,Viking folk Art,,,65,English,,,,-,,,,,,,,,,,0,,,,,,0,0,46544505,pdf,d2dbe9b1e95bf109a85cf033d923f5a2,,,Ana Bernabe;A World Of Animals Vol. 3;Painting- Animals;;Viking folk Art;2003;-;;English,0,2000-01-01 01:00:00,2016-11-29 06:07:37,1585000/d2dbe9b1e95bf109a85cf033d923f5a2-g.jpg,,
29684155,20 Easy DIY Holiday Craft,,,,Collective,2015,,FloraCraft,,0,58,English,,,0,-,,,,,,,,,,,0,,,,,,0,1,19194778,pdf,b5d1f6e32d9acffad14ecfb28dac3ac6,,,"Collective;20 Easy DIY Holiday Craft;;;FloraCraft, Prime Publishing LLC;2015;-;;English",0,2000-01-01 01:00:00,2016-11-29 06:07:37,1585000/b5d1f6e32d9acffad14ecfb28dac3ac6-g.jpg,,
29684156,A Short History of the Bicycle,,,,Nicholas Clayton,2016,,Amberley,,96,0,English,,,0,"1445648822,9781445648828",,,,,,,,,,,0,,,,,,,,7120492,epub,62d8791f95130225067391d3e52c831f,,,1445648822.epub,0,2000-01-01 01:00:00,2016-11-29 06:07:40,http://ecx.images-amazon.com/images/I/51g0NewvlKL.jpg,,"1445648822,9781445648828"
29684157,Unsupervised Deep Learning in Python: Master Data Science and Machine Learning with Modern Neural Networks written in Python and Theano (Machine Learning in Python),,,,LazyProgrammer,2016,,LazyProgrammer,,0,0,English,87,,0,,,B01HUA6BOG,,,,,,,,Pages v5.6.2,0,,,,,,,,276968,azw3,79208d30feed6cca008efcf0c16c5b3c,,,Unsupervised Deep Learning in P - LazyProgrammer.azw3,0,2000-01-01 01:00:00,2016-11-29 06:40:07,http://127.0.0.1/covers/79208d30feed6cca008efcf0c16c5b3c-temp.jpg,,
