30239158,Engineering Applications of Soft Computing (Intelligent Systems Reference Library),,,,Margarita-Arimatea Daz-Corts and Erik Cuevas,2017,,Springer,,,268,English,,,,,,,,,,,,,,,0,,,,,,0,1,17494697,pdf,d8526cf47cb0cfdaeb08e0822562c085,,,Margarita-Arimatea Daz-Corts and Erik Cuevas;Engineering Applications of Soft Computing (Intelligent Systems Reference Library);;;Springer;2017;;;English,0,2000-01-01 01:00:00,2017-06-15 10:00:56,1693000/d8526cf47cb0cfdaeb08e0822562c085-g.jpg,,
30239159,Numerical Methods for Engineers and Scientists Using MATLAB®,,,,Ramin S. Esfandiari,2017,Second Edition,CRC Press,,,494,English,,,,,,,,,,,,,,,0,,,,,,0,1,5294335,pdf,890981122cc3ee7fac1c51547c62dad8,,,Ramin S. Esfandiari;Numerical Methods for Engineers and Scientists Using MATLAB®;;;CRC Press;2017;;Second Edition;English,0,2000-01-01 01:00:00,2017-06-15 10:01:16,1693000/890981122cc3ee7fac1c51547c62dad8-g.jpg,,
30239160,"Man, Economy, and State, with Power and Market - Scholars Edition",,,,Murray Rothbard,2009,2nd,Ludwig von Mises Institute,,1400-1500,0,English,,,0,978-1-933550-27-5,,,,,,,,,,,0,,,,,,,,4431206,epub,8ab53b027080c7894aa05d4d5eccba60,,,"Rothbard - Man, Economy, _amp; State With Power And Market.epub",0,2000-01-01 01:00:00,2017-06-15 10:01:48,1693000/8ab53b027080c7894aa05d4d5eccba60-g.jpg,"Austrian Economics, Political Theory",9781933550275
30239161,Engineering Applications of Soft Computing,,Intelligent Systems Reference Library 129,,"Margarita-Arimatea Daz-Corts, Erik Cuevas, Raúl Rojas",2017,,Springer,,0,268,English,,,0,,,,,,,,,,,,0,,,,,,0,1,17494697,pdf,d8526cf47cb0cfdaeb08e0822562c085,,,Margarita-Arimatea Daz-Corts and Erik Cuevas;Engineering Applications of Soft Computing (Intelligent Systems Reference Library);;;Springer;2017;;;English,0,2000-01-01 01:00:00,2017-06-15 10:02:30,1693000/d8526cf47cb0cfdaeb08e0822562c085-g.jpg,,
30239162,Engineering Applications of Soft Computing,,Intelligent Systems Reference Library 129,,"Margarita-Arimatea Díaz-Cortés, Erik Cuevas, Raúl Rojas",2017,,Springer,,0,268,English,,,0,,,,,,,,,,,,0,,,,,,0,1,17494697,pdf,d8526cf47cb0cfdaeb08e0822562c085,,,Margarita-Arimatea Daz-Corts and Erik Cuevas;Engineering Applications of Soft Computing (Intelligent Systems Reference Library);;;Springer;2017;;;English,0,2000-01-01 01:00:00,2017-06-15 10:02:30,1693000/d8526cf47cb0cfdaeb08e0822562c085-g.jpg,,
30239163,Handbook for business writing,,,,"Baugh, L. Sue; Thomas, David A.; Fryar, Maridell",1996,2nd,NTC Business Book,"Lincolnwood, IL",302,308,English,1,,0,"9780844232782,0844232785",,,,,,,,,,,0,,,,1,0,,1,3340714,pdf,331f99a45cf73a6fe46d7bfb4614599c,,,Handbook for Business Writing.pdf,0,2000-01-01 01:00:00,2017-06-15 10:06:24,1692000/331f99a45cf73a6fe46d7bfb4614599c-d.jpg,poslovna korespondenca -- angleščina -- priročniki;poslovna pisma,"9780844232782,0844232785"
30239164,Amerykanskie krazowniki atomowe,,"Arsenal Morza. Okrety, uzbrojenie, kampanie",,Zenon Nycz,2005,,Firma Wydawnicza «Pingwin»,,,36,Polish,,,,,,,,,,,,,,,0,,,,,,0,0,18418291,pdf,dc8e7a8192df7da2c1f4f7a7a0dfafbf,,,"Zenon Nycz;Amerykanskie krazowniki atomowe;Arsenal Morza. Okrety, uzbrojenie, kampanie;;Firma Wydawnicza «Pingwin»;2005;;;Polish",0,2000-01-01 01:00:00,2017-06-15 10:07:13,1692000/dc8e7a8192df7da2c1f4f7a7a0dfafbf-g.jpg,,
30239165,Театрал,,,,Греч Н.И.,1853,,Типография Н. Греча,,,162,Russian,,,,-,,,,,,,,,,,0,,,,,,0,1,37959134,pdf,25c2fd4d768b164089e605624a96fb6a,,,Греч Н.И.;Театрал;;;Типография Н. Греча;1853;-;;Russian,0,2000-01-01 01:00:00,2017-06-15 10:07:37,1573000/25c2fd4d768b164089e605624a96fb6a-g.jpg,,
30239166,Иллюстрированный практический путеводитель по Одессе,,,,Москвич Г.Г.,1904,,Типография Л. Нитче (Одесса),,,193,Russian,,,,-,,,,,,,,,,,0,,,,,,0,1,114294202,pdf,6056c19c1332a4c10e4a7a718155860f,,,Москвич Г.Г.;Иллюстрированный практический путеводитель по Одессе;;;Типография Л. Нитче (Одесса);1904;-;;Russian,0,2000-01-01 01:00:00,2017-06-15 10:07:37,1577000/6056c19c1332a4c10e4a7a718155860f-g.jpg,,
30239167,«Отчизну сердцем защитили»  Стихи поэтов Тейковского района,,,,,2011,,"ОАО «Издательство «Иваново»,",,,64,Russian,,,,-,,,,,,,,,,,0,,,,,,0,1,2010197,pdf,ca229279281b8a331bc80b0e6cfa53f2,,,";«Отчизну сердцем защитили»  Стихи поэтов Тейковского района;;;ОАО «Издательство «Иваново»,;2011;-;;Russian",0,2000-01-01 01:00:00,2017-06-15 10:07:37,1585000/ca229279281b8a331bc80b0e6cfa53f2-g.jpg,,
30239168,Recettes Angéliques. Le bœuf: Le goût d’être ensemble,,,,(Collective),2012,,INTERBEV,,0,32,French,,,0,-,,,,,,,,,,,0,,,,,,0,1,3164060,pdf,be017384eb788f84803d6cf2728a3a68,,,;Recettes Angliques. Le boeuf Le got d’tre ensemble;;;INTERBEV;2012;-;;French,0,2000-01-01 01:00:00,2017-06-15 10:07:37,1585000/be017384eb788f84803d6cf2728a3a68-g.jpg,,
30239169,A World Of Animals Vol. 2,,Painting- Animals,,Ana Bernabe,2002,,Viking folk Art,,,60,English,,,,-,,,,,,,,,,,0,,,,,,0,0,50405079,pdf,857f613ba692b86d043d09c24061c24a,,,Ana Bernabe;A World Of Animals Vol. 2;Painting- Animals;;Viking folk Art;2002;-;;English,0,2000-01-01 01:00:00,2017-06-15 10:07:37,1585000/857f613ba692b86d043d09c24061c24a-g.jpg,,
30239170,A World Of Animals Vol. 3,,Painting- Animals,,Ana Bernabe,2003,,Viking folk Art,,,65,English,,,,-,,,,,,,,,,,0,,,,,,0,0,46544505,pdf,d2dbe9b1e95bf109a85cf033d923f5a2,,,Ana Bernabe;A World Of Animals Vol. 3;Painting- Animals;;Viking folk Art;2003;-;;English,0,2000-01-01 01:00:00,2017-06-15 10:07:37,1585000/d2dbe9b1e95bf109a85cf033d923f5a2-g.jpg,,
30239171,20 Easy DIY Holiday Craft,,,,Collective,2015,,FloraCraft,,0,58,English,,,0,-,,,,,,,,,,,0,,,,,,0,1,19194778,pdf,b5d1f6e32d9acffad14ecfb28dac3ac6,,,"Collective;20 Easy DIY Holiday Craft;;;FloraCraft, Prime Publishing LLC;2015;-;;English",0,2000-01-01 01:00:00,2017-06-15 10:07:37,1585000/b5d1f6e32d9acffad14ecfb28dac3ac6-g.jpg,,
30239172,Описание 3-х линейной винтовки образца 1891 года,,,,,1891,,"Издание Офицерской стрелковой школы, Типография И,Н, Скороходова (СПб",,,16,Russian,,,,-,,,,,,,,,,,0,,,,,,0,1,20685620,pdf,3249fcdc9c40bf854fcfbf1ef55e4d9d,,,";Описание 3-х линейной винтовки образца 1891 года;;;Издание Офицерской стрелковой школы, Типография И,Н, Скороходова (СПб;1891;-;;Russian",0,2000-01-01 01:00:00,2017-06-15 10:07:37,1630000/3249fcdc9c40bf854fcfbf1ef55e4d9d-g.jpg,,
30239173,Третье отделение при Николае I,,,,Троцкий И.М.,1930,,Издательство Всесоюзного общества политкаторжан и ссыльно-поселенцев,,,74,Russian,,,,-,,,,,,,,,,,0,,,,,,0,1,39399144,pdf,e7c5d9cf33dd069059147f4c08996e2b,,,Троцкий И.М.;Третье отделение при Николае I;;;Издательство Всесоюзного общества политкаторжан и ссыльно-поселенцев;1930;-;;Russian,0,2000-01-01 01:00:00,2017-06-15 10:07:37,1630000/e7c5d9cf33dd069059147f4c08996e2b-g.jpg,,
30239174,Занимательные задачи и опыты,,,,Перельман Я.И.,1972,,Детская литература,,,472,Russian,,,,-,,,,,,,,,,,0,,,,,,0,1,167718439,pdf,0fc1642694a8224f1a8df67f677f4c26,,,Перельман Я.И.;Занимательные задачи и опыты;;;Детская литература;1972;-;;Russian,0,2000-01-01 01:00:00,2017-06-15 10:07:37,1630000/0fc1642694a8224f1a8df67f677f4c26-g.jpg,,
30239175,Сад и огород в доме,,,,Попов Е.Б.,1985,,Детская литература,,,120,Russian,,,,-,,,,,,,,,,,0,,,,,,0,1,48066991,pdf,fe06f74051bf5081ef51978cd47a993c,,,Попов Е.Б.;Сад и огород в доме;;;Детская литература;1985;-;;Russian,0,2000-01-01 01:00:00,2017-06-15 10:07:37,1631000/fe06f74051bf5081ef51978cd47a993c-g.jpg,,
30239176,Oceanografie. eseuri,,,,Mircea Eliade,1934,1st edition,Cultura Populara,București,304,304,Romanian,195,,0,-,,,,,,,,,,ocr by epistematic,0,,,,,,,1,17299949,pdf,f5e05a11cfc53acb1e4e292fa66c1bd2,,,Eliade Oceanografie 1934 ocr lipsa.pdf,0,2000-01-01 01:00:00,2017-06-15 10:07:37,1685000/f5e05a11cfc53acb1e4e292fa66c1bd2-g.jpg,,
30239177,Cum ne construim dușmanul: și alte scrieri ocazionale,,,,Umberto Eco,2007,3rd edition,Polirom,Iasi,352,352,Romanian,,,0,-,,,,,,,,,,"ocr by epistematic, scan sdr",300,,,,,,0,1,11499669,pdf,9d2e9c43400588086e983e18322889e4,,,Umberto Eco - Cum ne construim dușmanii ocr.pdf,0,2000-01-01 01:00:00,2017-06-15 10:07:37,1689000/9d2e9c43400588086e983e18322889e4-g.jpg,,
30239178,Крепости на колесах. История бронепоездов,,,,И.Г. Дроговоз,2002,,Харвест,,,354,Russian,,,,985-13-0744-0,,,,,,,,,,,0,,,,,,0,0,176488137,pdf,21988030ebd5431a83fef723cb895173,,,И.Г. Дроговоз;Крепости на колесах. История бронепоездов;;;Харвест;2002;985-13-0744-0;;Russian,0,2000-01-01 01:00:00,2017-06-15 10:07:37,1693000/21988030ebd5431a83fef723cb895173-g.jpg,,
30239179,Не в знании сила. Как сомнения помогают нам развиваться,,,,"Стивен Д'Соуза, Дайана Реннер",2015,,Альпина Диджитал,,,701,Russian,,,,978-5-9614-3030-1,,,,,,,,,,,0,,,,,,0,1,10842940,pdf,b1f69e3b5dd564776acd057e05be5dcc,,,"Стивен Д'Соуза, Дайана Реннер;Не в знании сила. Как сомнения помогают нам развиваться;;;Альпина Диджитал;2015;978-5-9614-3030-1;;Russian",0,2000-01-01 01:00:00,2017-06-15 10:07:37,1693000/b1f69e3b5dd564776acd057e05be5dcc-g.jpg,,
30239180,Самоучитель игры на Паскале. ABC и немного Турбо,,,,Комлев Н.Ю.,2013,,СОЛОН-Пресс,,,257,Russian,,,,978-5-91359-112-8,,,,,,,,,,,0,,,,,,0,1,10970933,pdf,2c75fd6d44bb78b7f36dec8b1445d302,,,Комлев Н.Ю.;Самоучитель игры на Паскале. ABC и немного Турбо;;;СОЛОН-Пресс;2013;978-5-91359-112-8;;Russian,0,2000-01-01 01:00:00,2017-06-15 10:07:37,1693000/2c75fd6d44bb78b7f36dec8b1445d302-g.jpg,,
30239181,Античные источники по истории и этнографии Африки.  Монографическое исследование грекоязычных источников,,,,Поплинский Ю.К.,2008,,Наука,,,418,Russian,,,,987-5-02-025228-8,,,,,,,,,,,0,,,,,,0,1,14037028,pdf,0b388c0b8a3b3c98484bf1daae4893b1,,,Поплинский Ю.К.;Античные источники по истории и этнографии Африки.  Монографическое исследование грекоязычных источников;;;Наука;2008;987-5-02-025228-8;;Russian,0,2000-01-01 01:00:00,2017-06-15 10:07:37,1693000/0b388c0b8a3b3c98484bf1daae4893b1-g.jpg,,
30239182,100% мобильность - все возможности компьютера и мобильной связи,,Просто о сложном,,Инджиев А. А.,2008,,"НТ Пресс, ВКТ",,,126,Russian,,,,"978-5-477-01181-0, 978-5-226-00353-0",,,,,,,,,,,0,,,,,,0,0,60265378,pdf,1b08b9130209552ee9dbc2367c34bb8b,,,"Инджиев А. А.;100% мобильность - все возможности компьютера и мобильной связи;Просто о сложном;;НТ Пресс, ВКТ;2008;978-5-477-01181-0, 978-5-226-00353-0;;Russian",0,2000-01-01 01:00:00,2017-06-15 10:07:37,1693000/1b08b9130209552ee9dbc2367c34bb8b-g.jpg,,
30239183,"Электроника в автомобиле. Схемы, устройства, доработка",,,,Кашкаров А.П.,2014,,ДМК Пресс,,,161,Russian,,,,978-5-97060-699-7,,,,,,,,,,,0,,,,,,0,1,83303379,pdf,db4e5a8fbf8d21ac0bf21ad3e3b2aaef,,,"Кашкаров А.П.;Электроника в автомобиле. Схемы, устройства, доработка;;;ДМК Пресс;2014;978-5-97060-699-7;;Russian",0,2000-01-01 01:00:00,2017-06-15 10:07:37,1693000/db4e5a8fbf8d21ac0bf21ad3e3b2aaef-g.jpg,,
30239184,История авиационного вооружения. Краткий очерк,,Библиотека военной истории,,Александр Широкорад,2001,,Харвест,,,562,Russian,,,,985-433-695-6,,,,,,,,,,,0,,,,,,0,0,267230190,pdf,75879da721870e36663290e9126846b0,,,Александр Широкорад;История авиационного вооружения. Краткий очерк;Библиотека военной истории;;Харвест;2001;985-433-695-6;;Russian,0,2000-01-01 01:00:00,2017-06-15 10:07:37,1693000/75879da721870e36663290e9126846b0-g.jpg,,
30239185,Блюда из духовки,,,,Радина Т.(отв. ред.),2008,,Эксмо,,,253,Russian,,,,978-5-699-26774-3,,,,,,,,,,,0,,,,,,0,1,11886938,pdf,86530872928dff1272f067b044e89c28,,,Радина Т.(отв. ред.);Блюда из духовки;;;Эксмо;2008;978-5-699-26774-3;;Russian,0,2000-01-01 01:00:00,2017-06-15 10:07:37,1693000/86530872928dff1272f067b044e89c28-g.jpg,,
30239186,"Самые быстрые самолеты, или Гонка за призраком скорости",,Клуб фанатов техники,,Виктор Бакурский,2000,,ИЛБИ (При содействии журнала «Авиация и Космонавтика»,,,176,Russian,,,,5-87483-038-3,,,,,,,,,,,0,,,,,,0,0,167789681,pdf,5146966af3dfb2bae9f4a1c56b2ef502,,,"Виктор Бакурский;Самые быстрые самолеты, или Гонка за призраком скорости;Клуб фанатов техники;;ИЛБИ (При содействии журнала «Авиация и Космонавтика»;2000;5-87483-038-3;;Russian",0,2000-01-01 01:00:00,2017-06-15 10:07:37,1693000/5146966af3dfb2bae9f4a1c56b2ef502-g.jpg,,
30239187,Блюда из духовки,,Школа Гастронома,,"Левашева Е., Мусина А.",2010,,Эксмо,,,66,Russian,,,,978-5-699-40144-4,,,,,,,,,,,0,,,,,,0,0,13767570,djvu,9844f7274429c0086ff516f10a39813f,,,"Левашева Е., Мусина А.;Блюда из духовки;Школа Гастронома;;Эксмо;2010;978-5-699-40144-4;;Russian",0,2000-01-01 01:00:00,2017-06-15 10:07:37,1693000/9844f7274429c0086ff516f10a39813f-g.jpg,,
30239188,Музыка и видео в вашем автомобиле. Справочник по автомобильной звуко- и видеотехнике,,,,Козюренко Ю.И.,2008,,СОЛОН-Р,,,225,Russian,,,,5-93455-095-0,,,,,,,,,,,0,,,,,,0,1,11918002,pdf,2d867211ddf5a3e686840a4b8e25e92d,,,Козюренко Ю.И.;Музыка и видео в вашем автомобиле. Справочник по автомобильной звуко- и видеотехнике;;;СОЛОН-Р;2008;5-93455-095-0;;Russian,0,2000-01-01 01:00:00,2017-06-15 10:07:37,1693000/2d867211ddf5a3e686840a4b8e25e92d-g.jpg,,
30239189,"Gösterge Avcıları, Şiiri Okuyan Şairler 1",,Şiir - 83,,Mehmet Rifat,1997,1,Yapı Kredi Yayınları,İstanbul,109,109,Turkish,109,,0,975-363-792-6,,,,,,,,,,Evrensel Kitaplık,0,,,,,,,1,1165030,pdf,dc5174123823dea06c5a6e53db437af3,,,"Mehmet Rifat - Gösterge Avcıları, Şiiri Okuyan Şairler 1.pdf",0,2000-01-01 01:00:00,2017-06-15 10:08:16,,Mehmet Rifat; gösterge; şiir; şair; Salah Birsel; Cemal  Süreya; Behçet Necatigil; Oktay Rifat; Melih Cevdet Anday; Evrensel Kitaplık,9753637926
30239190,Pancerniki brytyjskie I wojny swiatowej,,"Arsenal Morza. Okrety, uzbrojenie, kampanie",,Robert Andrzej Jamka,2005,,Firma Wydawnicza «Pingwin»,,,36,Polish,,,,,,,,,,,,,,,0,,,,,,0,0,19616544,pdf,2f633f7fd82b7114be06963d49bb52d2,,,"Robert Andrzej Jamka;Pancerniki brytyjskie I wojny swiatowej;Arsenal Morza. Okrety, uzbrojenie, kampanie;;Firma Wydawnicza «Pingwin»;2005;;;Polish",0,2000-01-01 01:00:00,2017-06-15 10:08:34,1692000/2f633f7fd82b7114be06963d49bb52d2-g.jpg,,
30239191,La jaula de la melancolía: identidad y metamorfosis del mexicano,,,,"BARTRA, ROGER",0,,Grijalbo,,137,137,Spanish,191,,0,,,,,,,,,,,,0,,,,,,,0,22075829,pdf,3b7b705227fe92b0ac2293ed11780721,,,170212733-Roger-Bartra-La-Jaula-de-La-Melancolia.pdf,0,2000-01-01 01:00:00,2017-06-15 10:09:07,,,
30239192,Amerykanskie lotniskowce Lady Lex i Sara,,Arsenal Morza,,Zenon Nycz,2004,,Firma Wydawnicza «Pingwin»,,,36,Polish,,,,,,,,,,,,,,,0,,,,,,0,0,18983669,pdf,b9954e996e7a2555ec773f92342292f0,,,Zenon Nycz;Amerykanskie lotniskowce Lady Lex i Sara;Arsenal Morza;;Firma Wydawnicza «Pingwin»;2004;;;Polish,0,2000-01-01 01:00:00,2017-06-15 10:10:24,1692000/b9954e996e7a2555ec773f92342292f0-g.jpg,,
30239193,Сочинения,,,,К. П. Победоносцев.,1996,,Наука,СПб.,257,257,Russian,,,0,,,,,,,,,,,"В PDF подрезаны номера страниц и, требуют исправления.",0,,,,,,,0,124754435,pdf,489976960052abcef412f5f656540788,,,К. П. Победоносцев - Сочинения - 1996  .pdf,0,2000-01-01 01:00:00,2017-06-15 10:25:10,http://s019.radikal.ru/i641/1705/02/c1631dbd1ecd.jpg,История России; Исторические источники,
30239194,Горе победителям,,,,Данилевский Н.Я.,1998,,АЛИР,М.,209,209,Russian,,,0,5-02-026854-2,,,,,,,,,,,0,,,,,,,0,86068707,pdf,03744fc78b24269af0b838f16621d4f9,,,Данилевский Н.Я. - Горе победителям - 1998.pdf,0,2000-01-01 01:00:00,2017-06-15 10:27:44,http://s019.radikal.ru/i608/1705/a4/cd86ca7e61a5.jpg,История России; Исторические источники; Политология,5020268542
30239195,Геополитика России,,,,Дусинский И. И.,2003,,Москва,М.,162,162,Russian,,,0,5-89097-045-3,,,,,,,,,,,0,,,,,,,0,69087743,pdf,7b8af2f4f41afbf6904726f9435bcbf0,,,Дусинский И. И. - Геополитика России - 2003.pdf,0,2000-01-01 01:00:00,2017-06-15 10:30:10,,История России; Исторические источники; Политология,5890970453
30239196,Народная Монархия,,,,Солоневич И. Л.,1998,,Лучи Софии,Минск,254,254,Russian,,,0,985-6171-17-2,,,,,,,,,,,0,,,,,,,0,125875458,pdf,5d586a65e2d424f9c8d53c65c6546780,,,Солоневич И. Л. - Народная Монархия - 1998.pdf,0,2000-01-01 01:00:00,2017-06-15 10:34:23,http://s016.radikal.ru/i337/1704/8d/8efa5842a9f3.jpg,История России; Исторические источники; Политология,9856171172
30239197,Наша страна,,,,Солоневич И. Л.,2001,,Москва,Минск,225,225,Russian,,,0,5-89097-038-0,,,,,,,,,,,0,,,,,,,0,99393860,pdf,2c8c7651b8594492ca4d7ee9b3383e6a,,,Солоневич И. Л. - Наша страна - 2001.pdf,0,2000-01-01 01:00:00,2017-06-15 10:37:36,http://s020.radikal.ru/i708/1704/4c/1dd20e907ff2.jpg,История России; Исторические источники; Политология,5890970380
30239198,Las ilusiones de la modernidad,,,,Bolívar Echeverría,1997,,UNAM El Equilibrista,Ciudad Universitária,204,204,Spanish,191,,0,,,,,,,,,,,,0,,,,,,,0,5527796,pdf,bb4423c34ec0e532d2e34b03af34d6f7,,,99719234-Las-Ilusiones-de-La-Modernidad.pdf,0,2000-01-01 01:00:00,2017-06-15 10:39:19,,,
30239199,Украинский сепаратизм в России. Сборник,,,,Смолин М. Б. (ред.),1998,,Москва,М.,437,437,Russian,,,0,5-89097-010-0,,,,,,,,,,,0,,,,,,,0,82961174,pdf,5ed747a5f88dbaa672acc60ef18a549c,,,Смолин М. Б. (ред.) - Украинский сепаратизм в России. Сборник - 1998.pdf,0,2000-01-01 01:00:00,2017-06-15 10:40:35,,История России; Исторические источники; Политология,5890970100
30239200,Arabs and the art of storytelling : a strange familiarity,,Middle East literature in translation,,"Allen, Roger; Sellin, Eric; Sryfi, Mbarek",2014,,Syracuse University Press,,173,173,English,102,,0,"9780815633716,0815633718,9780815652861,0815652860",,,,,,,,,,,0,,,,1,0,0,1,2227652,pdf,5e2e354a82dd2857150bd1917ac622ec,,,Middle East Literature In Translation  Arabs and the Art of Stor.pdf,0,2000-01-01 01:00:00,2017-06-15 10:51:27,,Arabic literature -- History and criticism;Narration (Rhetoric);Arabic literature,"9780815633716,0815633718,9780815652861,0815652860"
30239201,"Вільгельм Олександрович Котарбінський, 1849-1921 : живопис і графіка з музеїв України та приват. колекцій Києва",,,,"М. І. Кружкова, О. Ю. Марініна ; під заг. ред. К. І. Ладиженської",2010,,Київ. нац. музей рос. мистец.,Київ,188,188,Ukrainian,59,,0,,,,,,,,,,,,0,,,,,,,1,278533486,pdf,fcada9055e27cac2cacb09cfa6edb614,,,Wilhelm Kotarbiński.pdf,0,2000-01-01 01:00:00,2017-06-15 10:55:04,,,
30239202,Рыбинск. Путешествие по Крестовой.,,,,Михайлов А.В.,2006,,Рыбинский Дом Печати,Рыбинск,92,92,Russian,57,,0,,,,,,,,,,,,0,,,,,,,1,285561828,pdf,15683047f23a60300a958ec2c2b88b9a,,,Михайлов А.В. - Рыбинск. Путешествие по Крестовой. - 2006.pdf,0,2000-01-01 01:00:00,2017-06-15 10:57:51,,,
30239203,Arabs and the art of storytelling : a strange familiarity,,Middle East literature in translation,,"Allen, Roger; Sellin, Eric; Sryfi, Mbarek",2014,,Syracuse University Press,,173,173,English,102,,0,"9780815633716,0815633718,9780815652861,0815652860",,,,,,,,,,,0,,,,1,0,0,1,2227652,pdf,5e2e354a82dd2857150bd1917ac622ec,,,Middle East Literature In Translation  Arabs and the Art of Stor.pdf,0,2000-01-01 01:00:00,2017-06-15 10:58:45,1693000/5e2e354a82dd2857150bd1917ac622ec-g.jpg,Arabic literature -- History and criticism;Narration (Rhetoric);Arabic literature,"9780815633716,0815633718,9780815652861,0815652860"
30239204,Memoria de La Segunda Guerra Mundial,7,Memoria de la Segunda Guerra Mundial Página 12 capítulo 7,,Juan Pablo Fusi (Director),1995,1,Diario Página 12,Buenos Aires,16,16,Spanish,67,,0,987-915-24-X,,,,,,,,,,,300,1,,0,,1,,0,6257701,pdf,f37b874a5e46e7acfcd172c1ee6ed5dc,,,Memoria de La Segunda Guerra Mundial Pag12 cap07_08.pdf,0,2000-01-01 01:00:00,2017-06-15 10:59:45,,,98791524X
30239205,Peasant art in Italy.,,Studio 1913.,,"Holme, Charles Geoffrey",1913,,The Studio,"London, Italy, Italy.",39,244,English,,,0,,,,,,,,,,,,0,,,,,,,1,271455200,pdf,16852bf2d741de710304d6e773bb4c70,,,Holme Ch. - Peasant art in Italy - 1913.pdf,0,2000-01-01 01:00:00,2017-06-15 11:00:45,,Decorative arts -- Italy;Costume -- Italy;Italy -- Social life and customs;Costume;Decorative arts;Manners and customs;Italy,
30239206,Memoria de La Segunda Guerra Mundial,8,Memoria de la Segunda Guerra Mundial Página 12 capítulo 8,,Juan Pablo Fusi (Director),1995,1,Diario Página 12,Buenos Aires,16,16,Spanish,67,,0,987-915-24-X,,,,,,,,,,,300,1,,0,,1,,0,6216097,pdf,3f3bc8fa566c5607c7d65ee46bba0305,,,Memoria de La Segunda Guerra Mundial Pag12 cap08_08.pdf,0,2000-01-01 01:00:00,2017-06-15 11:04:28,,,98791524X
30239207,Peasant art in Rumania,,Rumanian studies / Rumanian Academy 2,,"Focillon, Henri; Oprescu, George",1939,,Impr. Nationala,Bucharest,243,274,English,57,,0,,,,,,,,,,,,0,,,,,,,1,265141142,pdf,0d3d223e59f385dbc03da8393d11f62b,,,Oprescu G. - Peasant art in Rumania - 1939.pdf,0,2000-01-01 01:00:00,2017-06-15 11:05:05,,,
30239208,10 Days to Faster Reading: Jump-Start Your Reading Skills with Speed Reading,,,,The Princeton Language Institute,0,,,,0,249,English,,,0,,,,,,,,,,,,0,,,,,,,1,2755217,pdf,22aa28703caaee9567e43678b7206383,,,5qtgd.10.Days.to.Faster.Reading.pdf,0,2000-01-01 01:00:00,2017-06-15 11:05:32,http://127.0.0.1/covers/22aa28703caaee9567e43678b7206383-temp.jpg,,
30239209,10 Days to Faster Reading: Jump-Start Your Reading Skills with Speed Reading,,,,The Princeton Language Institute,0,,,,0,249,English,,,0,,,,,,,,,,,,0,,,,,,,1,2755217,pdf,22aa28703caaee9567e43678b7206383,,,5qtgd.10.Days.to.Faster.Reading.pdf,0,2000-01-01 01:00:00,2017-06-15 11:07:20,,,
30239210,Театрал,,,,Греч Н.И.,1853,,Типография Н. Греча,,,162,Russian,,,,-,,,,,,,,,,,0,,,,,,0,1,37959134,pdf,25c2fd4d768b164089e605624a96fb6a,,,Греч Н.И.;Театрал;;;Типография Н. Греча;1853;-;;Russian,0,2000-01-01 01:00:00,2017-06-15 11:07:38,1573000/25c2fd4d768b164089e605624a96fb6a-g.jpg,,
30239211,Иллюстрированный практический путеводитель по Одессе,,,,Москвич Г.Г.,1904,,Типография Л. Нитче (Одесса),,,193,Russian,,,,-,,,,,,,,,,,0,,,,,,0,1,114294202,pdf,6056c19c1332a4c10e4a7a718155860f,,,Москвич Г.Г.;Иллюстрированный практический путеводитель по Одессе;;;Типография Л. Нитче (Одесса);1904;-;;Russian,0,2000-01-01 01:00:00,2017-06-15 11:07:38,1577000/6056c19c1332a4c10e4a7a718155860f-g.jpg,,
30239212,«Отчизну сердцем защитили»  Стихи поэтов Тейковского района,,,,,2011,,"ОАО «Издательство «Иваново»,",,,64,Russian,,,,-,,,,,,,,,,,0,,,,,,0,1,2010197,pdf,ca229279281b8a331bc80b0e6cfa53f2,,,";«Отчизну сердцем защитили»  Стихи поэтов Тейковского района;;;ОАО «Издательство «Иваново»,;2011;-;;Russian",0,2000-01-01 01:00:00,2017-06-15 11:07:38,1585000/ca229279281b8a331bc80b0e6cfa53f2-g.jpg,,
30239213,Recettes Angéliques. Le bœuf: Le goût d’être ensemble,,,,(Collective),2012,,INTERBEV,,0,32,French,,,0,-,,,,,,,,,,,0,,,,,,0,1,3164060,pdf,be017384eb788f84803d6cf2728a3a68,,,;Recettes Angliques. Le boeuf Le got d’tre ensemble;;;INTERBEV;2012;-;;French,0,2000-01-01 01:00:00,2017-06-15 11:07:38,1585000/be017384eb788f84803d6cf2728a3a68-g.jpg,,
30239214,A World Of Animals Vol. 2,,Painting- Animals,,Ana Bernabe,2002,,Viking folk Art,,,60,English,,,,-,,,,,,,,,,,0,,,,,,0,0,50405079,pdf,857f613ba692b86d043d09c24061c24a,,,Ana Bernabe;A World Of Animals Vol. 2;Painting- Animals;;Viking folk Art;2002;-;;English,0,2000-01-01 01:00:00,2017-06-15 11:07:38,1585000/857f613ba692b86d043d09c24061c24a-g.jpg,,
30239215,A World Of Animals Vol. 3,,Painting- Animals,,Ana Bernabe,2003,,Viking folk Art,,,65,English,,,,-,,,,,,,,,,,0,,,,,,0,0,46544505,pdf,d2dbe9b1e95bf109a85cf033d923f5a2,,,Ana Bernabe;A World Of Animals Vol. 3;Painting- Animals;;Viking folk Art;2003;-;;English,0,2000-01-01 01:00:00,2017-06-15 11:07:38,1585000/d2dbe9b1e95bf109a85cf033d923f5a2-g.jpg,,
30239216,20 Easy DIY Holiday Craft,,,,Collective,2015,,FloraCraft,,0,58,English,,,0,-,,,,,,,,,,,0,,,,,,0,1,19194778,pdf,b5d1f6e32d9acffad14ecfb28dac3ac6,,,"Collective;20 Easy DIY Holiday Craft;;;FloraCraft, Prime Publishing LLC;2015;-;;English",0,2000-01-01 01:00:00,2017-06-15 11:07:38,1585000/b5d1f6e32d9acffad14ecfb28dac3ac6-g.jpg,,
30239217,Описание 3-х линейной винтовки образца 1891 года,,,,,1891,,"Издание Офицерской стрелковой школы, Типография И,Н, Скороходова (СПб",,,16,Russian,,,,-,,,,,,,,,,,0,,,,,,0,1,20685620,pdf,3249fcdc9c40bf854fcfbf1ef55e4d9d,,,";Описание 3-х линейной винтовки образца 1891 года;;;Издание Офицерской стрелковой школы, Типография И,Н, Скороходова (СПб;1891;-;;Russian",0,2000-01-01 01:00:00,2017-06-15 11:07:38,1630000/3249fcdc9c40bf854fcfbf1ef55e4d9d-g.jpg,,
30239218,Третье отделение при Николае I,,,,Троцкий И.М.,1930,,Издательство Всесоюзного общества политкаторжан и ссыльно-поселенцев,,,74,Russian,,,,-,,,,,,,,,,,0,,,,,,0,1,39399144,pdf,e7c5d9cf33dd069059147f4c08996e2b,,,Троцкий И.М.;Третье отделение при Николае I;;;Издательство Всесоюзного общества политкаторжан и ссыльно-поселенцев;1930;-;;Russian,0,2000-01-01 01:00:00,2017-06-15 11:07:38,1630000/e7c5d9cf33dd069059147f4c08996e2b-g.jpg,,
30239219,Занимательные задачи и опыты,,,,Перельман Я.И.,1972,,Детская литература,,,472,Russian,,,,-,,,,,,,,,,,0,,,,,,0,1,167718439,pdf,0fc1642694a8224f1a8df67f677f4c26,,,Перельман Я.И.;Занимательные задачи и опыты;;;Детская литература;1972;-;;Russian,0,2000-01-01 01:00:00,2017-06-15 11:07:38,1630000/0fc1642694a8224f1a8df67f677f4c26-g.jpg,,
30239220,Сад и огород в доме,,,,Попов Е.Б.,1985,,Детская литература,,,120,Russian,,,,-,,,,,,,,,,,0,,,,,,0,1,48066991,pdf,fe06f74051bf5081ef51978cd47a993c,,,Попов Е.Б.;Сад и огород в доме;;;Детская литература;1985;-;;Russian,0,2000-01-01 01:00:00,2017-06-15 11:07:38,1631000/fe06f74051bf5081ef51978cd47a993c-g.jpg,,
30239221,Oceanografie. eseuri,,,,Mircea Eliade,1934,1st edition,Cultura Populara,București,304,304,Romanian,195,,0,-,,,,,,,,,,ocr by epistematic,0,,,,,,,1,17299949,pdf,f5e05a11cfc53acb1e4e292fa66c1bd2,,,Eliade Oceanografie 1934 ocr lipsa.pdf,0,2000-01-01 01:00:00,2017-06-15 11:07:38,1685000/f5e05a11cfc53acb1e4e292fa66c1bd2-g.jpg,,
30239222,Cum ne construim dușmanul: și alte scrieri ocazionale,,,,Umberto Eco,2007,3rd edition,Polirom,Iasi,352,352,Romanian,,,0,-,,,,,,,,,,"ocr by epistematic, scan sdr",300,,,,,,0,1,11499669,pdf,9d2e9c43400588086e983e18322889e4,,,Umberto Eco - Cum ne construim dușmanii ocr.pdf,0,2000-01-01 01:00:00,2017-06-15 11:07:38,1689000/9d2e9c43400588086e983e18322889e4-g.jpg,,
30239223,Планшет для ваших родителей с Android 5,,,,"Сильвестрова А.В., Трошин Д.П.",2016,,НиТ,,,321,Russian,,,,978-5-94387-983-8,,,,,,,,,,,0,,,,,,0,1,55369940,pdf,2a68928451ecd54b0ab79f8560a04b1b,,,"Сильвестрова А.В., Трошин Д.П.;Планшет для ваших родителей с Android 5;;;НиТ;2016;978-5-94387-983-8;;Russian",0,2000-01-01 01:00:00,2017-06-15 11:07:38,1693000/2a68928451ecd54b0ab79f8560a04b1b-g.jpg,,
30239224,Сборник примеров и задач по программированию,,,,"Москвитина О.А., Новичков В.С., Пылькин А.Н.",2014,,Горячая линия-Телеком,,,246,Russian,,,,978-5-9912-0411-8,,,,,,,,,,,0,,,,,,0,1,10544249,pdf,5eaf56ad59453386c160f7d00c9b3ee7,,,"Москвитина О.А., Новичков В.С., Пылькин А.Н.;Сборник примеров и задач по программированию;;;Горячая линия-Телеком;2014;978-5-9912-0411-8;;Russian",0,2000-01-01 01:00:00,2017-06-15 11:07:38,1693000/5eaf56ad59453386c160f7d00c9b3ee7-g.jpg,,
30239225,Цифровая звукозапись. Технологий и стандарты,,Профи,,Никамин В.А.,2002,,Наука и Техника,,,124,Russian,,,,5-94387-043-1,,,,,,,,,,,0,,,,,,0,0,86901092,pdf,04eee668ba3566c47db3f3cea3b318c0,,,Никамин В.А.;Цифровая звукозапись. Технологий и стандарты;Профи;;Наука и Техника;2002;5-94387-043-1;;Russian,0,2000-01-01 01:00:00,2017-06-15 11:07:38,1693000/04eee668ba3566c47db3f3cea3b318c0-g.jpg,,
30239226,Антенны. Практическое руководство,,,,Миллер Г.,2012,,НиТ,,,481,Russian,,,,978-5-94387-816-9,,,,,,,,,,,0,,,,,,0,1,9819308,pdf,ca4f94f09f81a4fcf6913e3ce01086eb,,,Миллер Г.;Антенны. Практическое руководство;;;НиТ;2012;978-5-94387-816-9;;Russian,0,2000-01-01 01:00:00,2017-06-15 11:07:38,1693000/ca4f94f09f81a4fcf6913e3ce01086eb-g.jpg,,
30239227,Поиск неисправностей и ремонт бытовых электроприборов,,,,Партала О.Н.,2010,,НиТ,,,401,Russian,,,,978-5-94387-805-3,,,,,,,,,,,0,,,,,,0,1,16209996,pdf,963034cfaf92634e1fbece9fe7d62e7b,,,Партала О.Н.;Поиск неисправностей и ремонт бытовых электроприборов;;;НиТ;2010;978-5-94387-805-3;;Russian,0,2000-01-01 01:00:00,2017-06-15 11:07:38,1693000/963034cfaf92634e1fbece9fe7d62e7b-g.jpg,,
30239228,Системы охранной сигнализации. Технические средства обнаружения,,,,Груба И.И.,2012,,СОЛОН-Пресс,,,221,Russian,,,,978-5-91359-103-6,,,,,,,,,,,0,,,,,,0,1,9958565,pdf,2cfc5b4d7b48c7bd41a7f1a785cf5545,,,Груба И.И.;Системы охранной сигнализации. Технические средства обнаружения;;;СОЛОН-Пресс;2012;978-5-91359-103-6;;Russian,0,2000-01-01 01:00:00,2017-06-15 11:07:38,1693000/2cfc5b4d7b48c7bd41a7f1a785cf5545-g.jpg,,
30239229,Как создать ламповый усилитель своими руками,,,,"Торопкин М.В., Андреев Д.А.",2012,,НиТ,,,289,Russian,,,,978-5-94387-856-5,,,,,,,,,,,0,,,,,,0,1,9827782,pdf,3c9a3da91c9fa7e4dbf517655f18f44c,,,"Торопкин М.В., Андреев Д.А.;Как создать ламповый усилитель своими руками;;;НиТ;2012;978-5-94387-856-5;;Russian",0,2000-01-01 01:00:00,2017-06-15 11:07:38,1693000/3c9a3da91c9fa7e4dbf517655f18f44c-g.jpg,,
30239230,Ламповый усилитель своими руками. Элементная база ХХI века,,,,"Торопкин М.В., Андреев Д.А.",2016,,НиТ,,,289,Russian,,,,978-5-94387-865-7,,,,,,,,,,,0,,,,,,0,1,13366118,pdf,0bc932a5a302a4b7f136e43042de113d,,,"Торопкин М.В., Андреев Д.А.;Ламповый усилитель своими руками. Элементная база ХХI века;;;НиТ;2016;978-5-94387-865-7;;Russian",0,2000-01-01 01:00:00,2017-06-15 11:07:38,1693000/0bc932a5a302a4b7f136e43042de113d-g.jpg,,
30239231,Микроэлектронные измерительные преобразователи,,,,Топильский В.Б.,2015,,Бином. ЛЗ,,,495,Russian,,,,978-5-9963-3020-1,,,,,,,,,,,0,,,,,,0,1,10176098,pdf,8a806ee8fc354ad98078c54a264c40e4,,,Топильский В.Б.;Микроэлектронные измерительные преобразователи;;;Бином. ЛЗ;2015;978-5-9963-3020-1;;Russian,0,2000-01-01 01:00:00,2017-06-15 11:07:38,1693000/8a806ee8fc354ad98078c54a264c40e4-g.jpg,,
30239232,Как заказать сайт. Практическое руководство для непрофессионалов,,,,"Воронин А.П., Прокди Р.Г., Финкова Н.А.",2012,,НиТ,,,193,Russian,,,,978-5-94387-697-4,,,,,,,,,,,0,,,,,,0,0,34870937,pdf,e2db76e3411de2124f5a7127c5498f53,,,"Воронин А.П., Прокди Р.Г., Финкова Н.А.;Как заказать сайт. Практическое руководство для непрофессионалов;;;НиТ;2012;978-5-94387-697-4;;Russian",0,2000-01-01 01:00:00,2017-06-15 11:07:38,1693000/e2db76e3411de2124f5a7127c5498f53-g.jpg,,
30239233,Микроконтроллеры MSP430. Первое знакомство,,,,Семенов Б. Ю.,2006,,Солон-Пресс,,,66,Russian,,,,5-98003-265-7,,,,,,,,,,,0,,,,,,0,0,11069638,pdf,f183d9316d329e7cf6074fec3599defa,,,Семенов Б. Ю.;Микроконтроллеры MSP430. Первое знакомство;;;Солон-Пресс;2006;5-98003-265-7;;Russian,0,2000-01-01 01:00:00,2017-06-15 11:07:38,1693000/f183d9316d329e7cf6074fec3599defa-g.jpg,,
30239234,"И-180, И-185",,,,Михаил Маслов,2003,,Издательский Дом «Техника-Молодёжи»,,,70,Russian,,,,5-93848-003-7,,,,,,,,,,,0,,,,,,0,0,80490480,pdf,06468ea98dff5fcd2ae16bddaad2615d,,,"Михаил Маслов;И-180, И-185;;;Издательский Дом «Техника-Молодёжи»;2003;5-93848-003-7;;Russian",0,2000-01-01 01:00:00,2017-06-15 11:07:38,1693000/06468ea98dff5fcd2ae16bddaad2615d-g.jpg,,
30239235,И-153,,,,Михаил Маслов,2001,,"Издательский Дом «Техника-Молодёжи», Редакционно издательский центр «Авиантик»",,,107,Russian,,,,5-93848-003-5,,,,,,,,,,,0,,,,,,0,0,125528584,pdf,71ed79d1e67eb0b85c245e439db83813,,,"Михаил Маслов;И-153;;;Издательский Дом «Техника-Молодёжи», Редакционно издательский центр «Авиантик»;2001;5-93848-003-5;;Russian",0,2000-01-01 01:00:00,2017-06-15 11:07:38,1693000/71ed79d1e67eb0b85c245e439db83813-g.jpg,,
30239236,Су-2 Ближний бомбардировщик,,,,"Н.Т. Гордюков, Д. Б. Хазанов",2000,,Издательский Дом «Техника-молодежи»,,,110,Russian,,,,5-93848-006-X,,,,,,,,,,,0,,,,,,0,0,117496058,pdf,d9b9b59ee257a01b9a9113eeba3a204f,,,"Н.Т. Гордюков, Д. Б. Хазанов;Су-2 Ближний бомбардировщик;;;Издательский Дом «Техника-молодежи»;2000;5-93848-006-X;;Russian",0,2000-01-01 01:00:00,2017-06-15 11:07:38,1693000/d9b9b59ee257a01b9a9113eeba3a204f-g.jpg,,
30239237,IP-телефония,,,,"А.В. Росляков, М.Ю. Самсонов, И.В. Шибаева",2003,,Эко-Трендз,,,245,Russian,,,,5-88405-044-5,,,,,,,,,,,0,,,,,,0,0,13392767,pdf,c75daddda34c6e1743622839025e244b,,,"А.В. Росляков, М.Ю. Самсонов, И.В. Шибаева;IP-телефония;;;Эко-Трендз;2003;5-88405-044-5;;Russian",0,2000-01-01 01:00:00,2017-06-15 11:07:38,1693000/c75daddda34c6e1743622839025e244b-g.jpg,,
30239238,Introduction to Geography,,,,Arthur Getis,2014,,McGraw-Hill,,,492,English,,,,0073522880,,,,,,,,,,,0,,,,,,0,1,338073420,pdf,06ec8b78b460a38c0bb54fb681217dd6,,,Arthur Getis;Introduction to Geography;;;McGraw-Hill;2014;0073522880;;English,0,2000-01-01 01:00:00,2017-06-15 11:07:38,1693000/06ec8b78b460a38c0bb54fb681217dd6-g.jpg,,
30239239,10 Days to Faster Reading: Jump-Start Your Reading Skills with Speed Reading,,,,The Princeton Language Institute,2008,,,,0,249,English,,,0,,,,,,,,,,,,0,,,,,0,1,1,2755217,pdf,22aa28703caaee9567e43678b7206383,,,5qtgd.10.Days.to.Faster.Reading.pdf,0,2000-01-01 01:00:00,2017-06-15 11:07:38,,,
30239240,"The baths of the Romans explained and illustrated: with the restorations of Palladio corrected and improved. To which is prefixed an introductory preface, pointing out the nature of the work ; and a dissertation upon the state of the arts during the different periods of the Roman Empire",,,,"Cameron, Charles",1775,,"Printed for S. Leacroft, and J. Mathews",London,0,242,English,57,,0,,,,,,,,,,,,0,,,,,,,1,218426750,pdf,20226851e7bbf55368eef8e6667c0896,,,Cameron Charles - The baths of the Romans explained and illustrated - 1775.pdf,0,2000-01-01 01:00:00,2017-06-15 11:08:49,,,
30239241,Czolgi wloskie 1939-1945,,,,"Jacek Solarz, Janusz Ledwoch",1995,,Wydawnictwo Militaria,,,245,Polish,,,,,,,,,,,,,,,0,,,,,,0,0,45738236,pdf,671e5a20895efb3939329bb0409e52a3,,,"Jacek Solarz, Janusz Ledwoch;Czolgi wloskie 1939-1945;;;Wydawnictwo Militaria;1995;;;Polish",0,2000-01-01 01:00:00,2017-06-15 11:14:30,1691000/671e5a20895efb3939329bb0409e52a3-g.jpg,,
30239242,Discrete-Time Signal Processing   3rd ed.,,,,"Alan V. Oppenheim, Ronald W. Schafer",2014,,Pearson,,1042,1042,english,,,0,978-1-292-02572-8,,,,,,,,,,,0,,,,,,,1,15168460,pdf,389dcf8becf0bf99b3999bb0cb3471cf,,,Pearson - Discrete-Time Signal Processing 2014.pdf,0,2000-01-01 01:00:00,2017-06-15 11:14:41,,,9781292025728
30239243,Normandia 1944. Dziaania bojowe w Normandii 6 czerwca 1944 r.,,Wielkie Bitwy Historii,,Wojciech Zalewski,2009,,Taktyka i Strategia,,,66,Polish,,,,,,,,,,,,,,,0,,,,,,0,0,188159885,pdf,dfbef12b1ccf29ebed79aa19ebb9053a,,,Wojciech Zalewski;Normandia 1944. Dziaania bojowe w Normandii 6 czerwca 1944 r.;Wielkie Bitwy Historii;;Taktyka i Strategia;2009;;;Polish,0,2000-01-01 01:00:00,2017-06-15 11:16:05,1691000/dfbef12b1ccf29ebed79aa19ebb9053a-g.jpg,,
30239244,"VII. Kunstausstellung der Deutschen Demokratischen Republik, Dresden : [Albertinum Brühlsche Terrasse, 5. Oktober 1972 bis 25. März 1973].",,,,Albertinum,1972,,Ausstellungskomitee,"Array, Germany (East)",0,302,German,,,0,,,,,,,,,,,,0,,,,,,,1,187349446,pdf,42de90208c71870fb98e35078567f93e,,,"Wolfgang Scheibner - VII. Kunstausstellung der DDR, Dresden (1973).pdf",0,2000-01-01 01:00:00,2017-06-15 11:16:07,,"Art, German -- Germany (East) -- Exhibitions;Art, Modern -- Exhibitions;Art, German;Art, Modern;Germany (East)",
30239245,Akhenaten and Nefertiti,,,,Cyril Aldred,1973,First Edition,Studio,,231,232,English,,,0,"0670111392,9780670111398",,,,,,,,,,,0,,,,,,,0,141437616,pdf,982791409a9e594f7bd65e5dc7832414,,,C. Aldred Akhenaten and Nefertiti.pdf,0,2000-01-01 01:00:00,2017-06-15 11:24:46,https://images-na.ssl-images-amazon.com/images/I/61OPYicrT0L.jpg,Egypt;Middle East;History,"0670111392,9780670111398"
30239246,"Практика реставрационных работ, сборник второй",,,,"Фехнер М.В., Ратия Ш.Е., Максимова П.Н.",1958,,"ГИЗ литературы по строительству, архитектуры",М.,184,184,Russian,58,,0,,,,,,,,,,,,0,,,,,,,0,185963047,pdf,55e727f45bf112198335e37b563b34dc,,,55e727f45bf112198335e37b563b34dc.pdf,0,2000-01-01 01:00:00,2017-06-15 11:27:55,,,
30239247,Русские прялки,,,,"Тарановская Н.В., Мальцев Н.В.",1970,,,М.,120,120,Russian,197,,0,,,,,,,,,,,,0,,,,,,,1,135871325,pdf,7de3b402d81a32e6ecffa9675f6c9c8e,,,"Тарановская Н.В., Мальцев Н.В. - Русские прялки - 1970.pdf",0,2000-01-01 01:00:00,2017-06-15 11:36:00,,,
30239248,Sergueï Eisenstein. Dessins secrets,,,,"Jean-Claude Marcadé, Galia Ackerman",1999,,Seuil,,0,183,French,,,0,"202033612X,9782020336123",,,,,,,,,,,0,,,,,,,1,134424668,pdf,9334af5719458ffefc8f6138b8403c9b,,,eisenstein_dessins_secrets.pdf,0,2000-01-01 01:00:00,2017-06-15 11:37:54,https://images-na.ssl-images-amazon.com/images/I/51MDJHYMWGL.jpg,"Arts & Photography;Biographies & Memoirs;Business & Money;Calendars;Comics & Graphic Novels;Computers & Technology;Cookbooks, Food & Wine;Crafts, Hobbies & Home;Education & Teaching;Engineering & Transportation;Gay & Lesbian;Health, Fitness & Dieting;History;Humor & Entertainment;Law;Literature & Fiction;Mystery, Thriller & Suspense;Parenting & Relationships;Politics & Social Sciences;Reference;Religion & Spirituality;Romance;Science & Math;Science Fiction & Fantasy;Self-Help;Sports & Outdoors;T","202033612X,9782020336123"
30239249,"Les Cahiers du cinéma, Histoire d’une revue, tome 2 : Cinéma, tours et détours, 1959-1981",,,,Antoine de Baecque,1991,,Cahiers du Cinema Livres,,0,418,French,,,0,"2866421108,9782866421106",,,,,,,,,,,0,,,,,,,1,63060630,pdf,51276597902a59b449e38aff61bafa5d,,,"Les Cahiers du cinema, Histoire d__039;une revue - Tome 2 - Cinéma, tours detours, 1959-1981.pdf",0,2000-01-01 01:00:00,2017-06-15 11:50:24,https://images-na.ssl-images-amazon.com/images/I/51wQsBTjGjL.jpg,Foreign Language Study & Reference;Instruction;Foreign Language Dictionaries & Thesauruses;Reference,"2866421108,9782866421106"
30239250,"Les Cahiers du cinéma, Histoire d’une revue, tome 1 : A l’assaut du cinéma, 1951-1959",,,,Antoine de Baecque,1991,0,Cahiers du cinéma,,0,354,French,,,0,"2866421078,9782866421076",,,,,,,,,,,0,,,,,,,1,29244659,pdf,a4a1306d5331df2505d52772368fb69d,,,"Les Cahiers du cinéma, Histoire d__039;une revue - Tome 1 - A l__039;assaut du cinéma, 1951-1959.pdf",0,2000-01-01 01:00:00,2017-06-15 11:58:17,1693000/a4a1306d5331df2505d52772368fb69d-d.jpg,Foreign Language Study & Reference;Instruction;Foreign Language Dictionaries & Thesauruses;Reference,"2866421078,9782866421076"
30239251,Rommel: Primer Movimiento Tobruk 1941,3,La Segunda Guerra Mundial Osprey 3,,Jon Latimer,2007,1,Osprey RBA,Barcelona,48,48,Spanish,67,,0,978-84-473-5435-1,,,,,,,,,,,300,1,,1,,1,,0,106985982,pdf,ce64ab68f659676b1ec53b734a741084,,,Osprey RBA WW2 03 Rommel Primer Movimiento Tobruk 1941 J Latimer 2007.pdf,0,2000-01-01 01:00:00,2017-06-15 12:03:35,,,9788447354351
30239252,Театрал,,,,Греч Н.И.,1853,,Типография Н. Греча,,,162,Russian,,,,-,,,,,,,,,,,0,,,,,,0,1,37959134,pdf,25c2fd4d768b164089e605624a96fb6a,,,Греч Н.И.;Театрал;;;Типография Н. Греча;1853;-;;Russian,0,2000-01-01 01:00:00,2017-06-15 12:07:37,1573000/25c2fd4d768b164089e605624a96fb6a-g.jpg,,
30239253,Иллюстрированный практический путеводитель по Одессе,,,,Москвич Г.Г.,1904,,Типография Л. Нитче (Одесса),,,193,Russian,,,,-,,,,,,,,,,,0,,,,,,0,1,114294202,pdf,6056c19c1332a4c10e4a7a718155860f,,,Москвич Г.Г.;Иллюстрированный практический путеводитель по Одессе;;;Типография Л. Нитче (Одесса);1904;-;;Russian,0,2000-01-01 01:00:00,2017-06-15 12:07:37,1577000/6056c19c1332a4c10e4a7a718155860f-g.jpg,,
30239254,«Отчизну сердцем защитили»  Стихи поэтов Тейковского района,,,,,2011,,"ОАО «Издательство «Иваново»,",,,64,Russian,,,,-,,,,,,,,,,,0,,,,,,0,1,2010197,pdf,ca229279281b8a331bc80b0e6cfa53f2,,,";«Отчизну сердцем защитили»  Стихи поэтов Тейковского района;;;ОАО «Издательство «Иваново»,;2011;-;;Russian",0,2000-01-01 01:00:00,2017-06-15 12:07:37,1585000/ca229279281b8a331bc80b0e6cfa53f2-g.jpg,,
30239255,Recettes Angéliques. Le bœuf: Le goût d’être ensemble,,,,(Collective),2012,,INTERBEV,,0,32,French,,,0,-,,,,,,,,,,,0,,,,,,0,1,3164060,pdf,be017384eb788f84803d6cf2728a3a68,,,;Recettes Angliques. Le boeuf Le got d’tre ensemble;;;INTERBEV;2012;-;;French,0,2000-01-01 01:00:00,2017-06-15 12:07:37,1585000/be017384eb788f84803d6cf2728a3a68-g.jpg,,
30239256,A World Of Animals Vol. 2,,Painting- Animals,,Ana Bernabe,2002,,Viking folk Art,,,60,English,,,,-,,,,,,,,,,,0,,,,,,0,0,50405079,pdf,857f613ba692b86d043d09c24061c24a,,,Ana Bernabe;A World Of Animals Vol. 2;Painting- Animals;;Viking folk Art;2002;-;;English,0,2000-01-01 01:00:00,2017-06-15 12:07:37,1585000/857f613ba692b86d043d09c24061c24a-g.jpg,,
30239257,A World Of Animals Vol. 3,,Painting- Animals,,Ana Bernabe,2003,,Viking folk Art,,,65,English,,,,-,,,,,,,,,,,0,,,,,,0,0,46544505,pdf,d2dbe9b1e95bf109a85cf033d923f5a2,,,Ana Bernabe;A World Of Animals Vol. 3;Painting- Animals;;Viking folk Art;2003;-;;English,0,2000-01-01 01:00:00,2017-06-15 12:07:37,1585000/d2dbe9b1e95bf109a85cf033d923f5a2-g.jpg,,
30239258,20 Easy DIY Holiday Craft,,,,Collective,2015,,FloraCraft,,0,58,English,,,0,-,,,,,,,,,,,0,,,,,,0,1,19194778,pdf,b5d1f6e32d9acffad14ecfb28dac3ac6,,,"Collective;20 Easy DIY Holiday Craft;;;FloraCraft, Prime Publishing LLC;2015;-;;English",0,2000-01-01 01:00:00,2017-06-15 12:07:37,1585000/b5d1f6e32d9acffad14ecfb28dac3ac6-g.jpg,,
30239259,Описание 3-х линейной винтовки образца 1891 года,,,,,1891,,"Издание Офицерской стрелковой школы, Типография И,Н, Скороходова (СПб",,,16,Russian,,,,-,,,,,,,,,,,0,,,,,,0,1,20685620,pdf,3249fcdc9c40bf854fcfbf1ef55e4d9d,,,";Описание 3-х линейной винтовки образца 1891 года;;;Издание Офицерской стрелковой школы, Типография И,Н, Скороходова (СПб;1891;-;;Russian",0,2000-01-01 01:00:00,2017-06-15 12:07:37,1630000/3249fcdc9c40bf854fcfbf1ef55e4d9d-g.jpg,,
30239260,Третье отделение при Николае I,,,,Троцкий И.М.,1930,,Издательство Всесоюзного общества политкаторжан и ссыльно-поселенцев,,,74,Russian,,,,-,,,,,,,,,,,0,,,,,,0,1,39399144,pdf,e7c5d9cf33dd069059147f4c08996e2b,,,Троцкий И.М.;Третье отделение при Николае I;;;Издательство Всесоюзного общества политкаторжан и ссыльно-поселенцев;1930;-;;Russian,0,2000-01-01 01:00:00,2017-06-15 12:07:37,1630000/e7c5d9cf33dd069059147f4c08996e2b-g.jpg,,
30239261,Занимательные задачи и опыты,,,,Перельман Я.И.,1972,,Детская литература,,,472,Russian,,,,-,,,,,,,,,,,0,,,,,,0,1,167718439,pdf,0fc1642694a8224f1a8df67f677f4c26,,,Перельман Я.И.;Занимательные задачи и опыты;;;Детская литература;1972;-;;Russian,0,2000-01-01 01:00:00,2017-06-15 12:07:37,1630000/0fc1642694a8224f1a8df67f677f4c26-g.jpg,,
30239262,Сад и огород в доме,,,,Попов Е.Б.,1985,,Детская литература,,,120,Russian,,,,-,,,,,,,,,,,0,,,,,,0,1,48066991,pdf,fe06f74051bf5081ef51978cd47a993c,,,Попов Е.Б.;Сад и огород в доме;;;Детская литература;1985;-;;Russian,0,2000-01-01 01:00:00,2017-06-15 12:07:37,1631000/fe06f74051bf5081ef51978cd47a993c-g.jpg,,
30239263,Oceanografie. eseuri,,,,Mircea Eliade,1934,1st edition,Cultura Populara,București,304,304,Romanian,195,,0,-,,,,,,,,,,ocr by epistematic,0,,,,,,,1,17299949,pdf,f5e05a11cfc53acb1e4e292fa66c1bd2,,,Eliade Oceanografie 1934 ocr lipsa.pdf,0,2000-01-01 01:00:00,2017-06-15 12:07:37,1685000/f5e05a11cfc53acb1e4e292fa66c1bd2-g.jpg,,
30239264,Cum ne construim dușmanul: și alte scrieri ocazionale,,,,Umberto Eco,2007,3rd edition,Polirom,Iasi,352,352,Romanian,,,0,-,,,,,,,,,,"ocr by epistematic, scan sdr",300,,,,,,0,1,11499669,pdf,9d2e9c43400588086e983e18322889e4,,,Umberto Eco - Cum ne construim dușmanii ocr.pdf,0,2000-01-01 01:00:00,2017-06-15 12:07:37,1689000/9d2e9c43400588086e983e18322889e4-g.jpg,,
30239265,Windows 10. Все об использовании и настройках. Самоучитель,,,,"Ромель А.П., Финкова М.А., Матвеев М.Д.",2016,,НиТ,,,337,Russian,,,,978-5-94387-986-9,,,,,,,,,,,0,,,,,,0,1,27510991,pdf,2c8ce4ade58c32b84facb725ca6806bb,,,"Ромель А.П., Финкова М.А., Матвеев М.Д.;Windows 10. Все об использовании и настройках. Самоучитель;;;НиТ;2016;978-5-94387-986-9;;Russian",0,2000-01-01 01:00:00,2017-06-15 12:07:37,1693000/2c8ce4ade58c32b84facb725ca6806bb-g.jpg,,
30239266,Справочник дачного электрика,,,,Бессонов В.В.,2010,,НиТ,,,385,Russian,,,,978-5-94387-819-0,,,,,,,,,,,0,,,,,,0,1,11335206,pdf,cf482b885dfc527bc4e0e67cf8cd0646,,,Бессонов В.В.;Справочник дачного электрика;;;НиТ;2010;978-5-94387-819-0;;Russian,0,2000-01-01 01:00:00,2017-06-15 12:07:37,1693000/cf482b885dfc527bc4e0e67cf8cd0646-g.jpg,,
30239267,Повышение выходной мощности усилителей радиопередающих устройств,,,,Титов А.А.,2013,,Горячая линия-Телеком,,,143,Russian,,,,978-5-9912-0349-4,,,,,,,,,,,0,,,,,,0,1,10678219,pdf,b9f1aff5e124f9ffe63a22d1c5fff070,,,Титов А.А.;Повышение выходной мощности усилителей радиопередающих устройств;;;Горячая линия-Телеком;2013;978-5-9912-0349-4;;Russian,0,2000-01-01 01:00:00,2017-06-15 12:07:37,1693000/b9f1aff5e124f9ffe63a22d1c5fff070-g.jpg,,
30239268,Naked Money: A Revealing Look at What It Is and Why It Matters,,3,,Charles Wheelan,2016,,W. W. Norton Company,,368,0,English,308,,0,0393069028,,,,,,,,,,,0,,,,,,,,530381,epub,f4e260a508f4cfa3964423169671bd3d,,,Naked Money_ A Revealing Look at What It Is - Charles Wheelan.epub,0,2000-01-01 01:00:00,2017-06-15 12:22:00,,"Economics, Monetary Policy",0393069028
30239269,Sophismes économiques,,,,Frédéric Bastiat,0,,Wikisource,,0,0,French,308,,0,,,,,,,,,,,,0,,,,,,,,329102,epub,0de056e783fc87006dcea75c5cec6f79,,,Sophismes_économiques.epub,0,2000-01-01 01:00:00,2017-06-15 12:27:31,,"Classical Liberalism, Libertarianism",
30239270,Why Government Is the Problem,,Essays in Public Policy,,Milton Friedman,1993,Photocopy,Hoover Institution Press,,18,11,English,305,,0,"0817954422,9780817954420",,,,,,,,,,,0,,,,,,,1,189783,pdf,6b9cea407e4c484ca13efd18a40a12d5,,,friedman-government-problem-1993.pdf,0,2000-01-01 01:00:00,2017-06-15 12:29:56,https://images-na.ssl-images-amazon.com/images/I/51dz1iHHspL.jpg,"Reference;Almanacs & Yearbooks;Atlases & Maps;Careers;Catalogs & Directories;Consumer Guides;Dictionaries & Thesauruses;Encyclopedias & Subject Guides;English as a Second Language;Etiquette;Foreign Language Study & Reference;Genealogy;Quotations;Survival & Emergency Preparedness;Test Preparation;Words, Language & Grammar;Writing, Research & Publishing Guides;Conservatism & Liberalism;Ideologies & Doctrines;Politics & Government;Politics & Social Sciences;Political Science;Comparative Politics;Co","0817954422,9780817954420"
30239271,Очерки и исследования. Избранные статьи о русском искусстве XVIII-XX веков,,Библиотека искусствоведения,,Петров В.Н.,1978,,Советский художник,М.,391,391,Russian,57,,0,,,,,,,,,,,,0,,,,,,,1,106103832,pdf,c320ecc176b21c51795d426a0355271a,,,Петров В.Н. - Очерки и исследования. - 1978.pdf,0,2000-01-01 01:00:00,2017-06-15 12:31:29,,,
30239272,An Outline of Psycho-Analysis,,Complete Psychological Works of Sigmund Freud,,"Sigmund Freud, James Strachey",1989,The Standard Edition,W. W. Norton & Company,,144,0,English,,,0,"0393001512,9780393001518",,,,,,,,,,Does not include the biographical introduction by Peter Gay,0,,,,,,,,98439,epub,d953e1a6d96991b553d49972e4bc2ad6,,,"Outline of Psycho-Analysis, An - Sigmund Freud _amp; James Strachey.epub",0,2000-01-01 01:00:00,2017-06-15 12:33:54,https://images-na.ssl-images-amazon.com/images/I/51F0RRzrIEL.jpg,"Psychoanalysis;Psychology & Counseling;Health, Fitness & Dieting;Behavioral Psychology;Behavioral Sciences;Science & Math;Behaviorism;Movements;Psychology","0393001512,9780393001518"
30239273,Башкирская народная одежда.,,,,Шитова С.Н.,1995,,Китап,Уфа,237,248,Russian,,,0,"9785295012044,5295012042",,,,,,,,,,,0,,,,,,,1,90134172,pdf,a12327373c7d4d9d538cad671c813c41,,,Шитова С.Н. - Башкирская народная одежда - 1995.pdf,0,2000-01-01 01:00:00,2017-06-15 12:34:26,,Clothing and dress -- Russia (Federation) -- Bashkortostan;Clothing and dress;Russia (Federation) -- Bashkortostan,"9785295012044,5295012042"
30239274,Саркис Мурадян. Живопись,,Мастера советского искусства,,Мартынов В.М.,1980,,Советский художник,М.,153,153,Russian,59,,0,,,,,,,,,,,,0,,,,,,,1,81886928,pdf,84dedbf34ca71a73c9ba7b8ce82e5f15,,,Мартынов В.М. - Саркис Мурадян. Живопись (Мастера советского искусства) - 1980.pdf,0,2000-01-01 01:00:00,2017-06-15 12:36:29,,,
30239275,Молдавский национальный костюм/Moldavian National Costume,,,,Зеленчук В.С.,1984,,Тимпул,Кишинев,149,149,Russian,57,,0,,,,,,,,,,,,0,,,,,,,1,81299935,pdf,09872796efacb19c63ccb8f162ff460d,,,Зеленчук В.С. - Молдавский национальный костюм - 1985.pdf,0,2000-01-01 01:00:00,2017-06-15 12:38:59,,,
30239276,Куда ведет кризис культуры? Опыт междисциплинарных диалогов,,,,Клямкин И.М. (ред.),2011,,Новое издательство,М.,539,539,Russian,191,,0,978-5-98379-156-5,,,,,,,,,,,0,,,,,,,1,74424329,pdf,3c65300ed66c421b3d773ccde2a6b02a,,,Клямкин И.М. (ред.) Куда ведет кризис культуры. Опыт междисциплинарных диалогов. 2011.pdf,0,2000-01-01 01:00:00,2017-06-15 12:42:20,,,9785983791565
30239277,Закарпатський художнiй музей,,,,Чернега-Балла Е.М.,1984,,Мистецтво,Київ,135,135,Ukrainian,57,,0,,,,,,,,,,,,0,,,,,,,0,71895110,pdf,d4cedbd849f73e7770c000d89d81ff83,,,Чернега-Балла Е.М. - Закарпатский художественный музей - 1984.pdf,0,2000-01-01 01:00:00,2017-06-15 12:45:59,,,
30239278,Naga-ed-Dêr stelae of the first intermediate period,,,,"Dunham, Dows",1937,,"Published for the Museum of fine arts, Boston, by the Oxford University press",London,124,166,English,57,,0,,,,,,,,,,,,0,,,,,,,1,71221931,pdf,39d2fabba4ed5c0ada9076e47b2ec5df,,,Dunham D. Naga-ed-Der Stelae of the First intermediate period (1937).pdf,0,2000-01-01 01:00:00,2017-06-15 12:47:23,,,
30239279,El gran asalto paracaidista nazi. Creta mayo de 1941,4,La Segunda Guerra Mundial Osprey 4,,Peter D. Antill,2007,1,Osprey RBA,Barcelona,96,96,Spanish,67,,0,978-84-473-5436-8,,,,,,,,,,,300,1,,0,,1,,1,22665951,pdf,dcd2f578f1a1c605fc3398480d06ff9c,,,Osprey RBA WW2 04 EI gran asalto paracaidista nazi Creta mayo de 1941 P Antill 2007.pdf,0,2000-01-01 01:00:00,2017-06-15 12:51:38,,,9788447354368
30239280,"Stage d’initiation au manuscrit médiéval et au livre humaniste : domaines latin, roman et hébreu",,,,Institut de recherche et d’histoire des textes,2016,,Institut de recherche et d’histoire des textes,Paris,131,131,French,102,,0,,,,,,,,,,,,0,,,,,,,1,6583156,pdf,b713aad914cc90eb5734edb52569cb21,,,livret2016.pdf,0,2000-01-01 01:00:00,2017-06-15 12:59:51,,"manuscripts, Middle Ages, Renaissance, Latin, Romance languages, Hebrew",
30239281,Operación Barbarroja I: La invasión de la URSS. Unión Soviética junio de 1941,5,La Segunda Guerra Mundial Osprey 5,,Robert Kirchubel,2007,1,Osprey RBA,Barcelona,97,97,Spanish,67,,0,978-84-473-5437-5,,,,,,,,,,,300,1,,0,,1,,0,27128016,pdf,e58e39dc47b00a2349b98afda876c59f,,,Osprey RBA WW2 05 Operacion Barbarroja I La invasion de la URSS Union Sovietica junio de 1941 R Kirchubel 2007.pdf,0,2000-01-01 01:00:00,2017-06-15 13:05:55,,,9788447354375
30239282,Театрал,,,,Греч Н.И.,1853,,Типография Н. Греча,,,162,Russian,,,,-,,,,,,,,,,,0,,,,,,0,1,37959134,pdf,25c2fd4d768b164089e605624a96fb6a,,,Греч Н.И.;Театрал;;;Типография Н. Греча;1853;-;;Russian,0,2000-01-01 01:00:00,2017-06-15 13:07:37,1573000/25c2fd4d768b164089e605624a96fb6a-g.jpg,,
30239283,Иллюстрированный практический путеводитель по Одессе,,,,Москвич Г.Г.,1904,,Типография Л. Нитче (Одесса),,,193,Russian,,,,-,,,,,,,,,,,0,,,,,,0,1,114294202,pdf,6056c19c1332a4c10e4a7a718155860f,,,Москвич Г.Г.;Иллюстрированный практический путеводитель по Одессе;;;Типография Л. Нитче (Одесса);1904;-;;Russian,0,2000-01-01 01:00:00,2017-06-15 13:07:37,1577000/6056c19c1332a4c10e4a7a718155860f-g.jpg,,
30239284,«Отчизну сердцем защитили»  Стихи поэтов Тейковского района,,,,,2011,,"ОАО «Издательство «Иваново»,",,,64,Russian,,,,-,,,,,,,,,,,0,,,,,,0,1,2010197,pdf,ca229279281b8a331bc80b0e6cfa53f2,,,";«Отчизну сердцем защитили»  Стихи поэтов Тейковского района;;;ОАО «Издательство «Иваново»,;2011;-;;Russian",0,2000-01-01 01:00:00,2017-06-15 13:07:37,1585000/ca229279281b8a331bc80b0e6cfa53f2-g.jpg,,
30239285,Recettes Angéliques. Le bœuf: Le goût d’être ensemble,,,,(Collective),2012,,INTERBEV,,0,32,French,,,0,-,,,,,,,,,,,0,,,,,,0,1,3164060,pdf,be017384eb788f84803d6cf2728a3a68,,,;Recettes Angliques. Le boeuf Le got d’tre ensemble;;;INTERBEV;2012;-;;French,0,2000-01-01 01:00:00,2017-06-15 13:07:37,1585000/be017384eb788f84803d6cf2728a3a68-g.jpg,,
30239286,A World Of Animals Vol. 2,,Painting- Animals,,Ana Bernabe,2002,,Viking folk Art,,,60,English,,,,-,,,,,,,,,,,0,,,,,,0,0,50405079,pdf,857f613ba692b86d043d09c24061c24a,,,Ana Bernabe;A World Of Animals Vol. 2;Painting- Animals;;Viking folk Art;2002;-;;English,0,2000-01-01 01:00:00,2017-06-15 13:07:37,1585000/857f613ba692b86d043d09c24061c24a-g.jpg,,
30239287,A World Of Animals Vol. 3,,Painting- Animals,,Ana Bernabe,2003,,Viking folk Art,,,65,English,,,,-,,,,,,,,,,,0,,,,,,0,0,46544505,pdf,d2dbe9b1e95bf109a85cf033d923f5a2,,,Ana Bernabe;A World Of Animals Vol. 3;Painting- Animals;;Viking folk Art;2003;-;;English,0,2000-01-01 01:00:00,2017-06-15 13:07:37,1585000/d2dbe9b1e95bf109a85cf033d923f5a2-g.jpg,,
30239288,20 Easy DIY Holiday Craft,,,,Collective,2015,,FloraCraft,,0,58,English,,,0,-,,,,,,,,,,,0,,,,,,0,1,19194778,pdf,b5d1f6e32d9acffad14ecfb28dac3ac6,,,"Collective;20 Easy DIY Holiday Craft;;;FloraCraft, Prime Publishing LLC;2015;-;;English",0,2000-01-01 01:00:00,2017-06-15 13:07:37,1585000/b5d1f6e32d9acffad14ecfb28dac3ac6-g.jpg,,
30239289,Описание 3-х линейной винтовки образца 1891 года,,,,,1891,,"Издание Офицерской стрелковой школы, Типография И,Н, Скороходова (СПб",,,16,Russian,,,,-,,,,,,,,,,,0,,,,,,0,1,20685620,pdf,3249fcdc9c40bf854fcfbf1ef55e4d9d,,,";Описание 3-х линейной винтовки образца 1891 года;;;Издание Офицерской стрелковой школы, Типография И,Н, Скороходова (СПб;1891;-;;Russian",0,2000-01-01 01:00:00,2017-06-15 13:07:37,1630000/3249fcdc9c40bf854fcfbf1ef55e4d9d-g.jpg,,
30239290,Третье отделение при Николае I,,,,Троцкий И.М.,1930,,Издательство Всесоюзного общества политкаторжан и ссыльно-поселенцев,,,74,Russian,,,,-,,,,,,,,,,,0,,,,,,0,1,39399144,pdf,e7c5d9cf33dd069059147f4c08996e2b,,,Троцкий И.М.;Третье отделение при Николае I;;;Издательство Всесоюзного общества политкаторжан и ссыльно-поселенцев;1930;-;;Russian,0,2000-01-01 01:00:00,2017-06-15 13:07:37,1630000/e7c5d9cf33dd069059147f4c08996e2b-g.jpg,,
30239291,Занимательные задачи и опыты,,,,Перельман Я.И.,1972,,Детская литература,,,472,Russian,,,,-,,,,,,,,,,,0,,,,,,0,1,167718439,pdf,0fc1642694a8224f1a8df67f677f4c26,,,Перельман Я.И.;Занимательные задачи и опыты;;;Детская литература;1972;-;;Russian,0,2000-01-01 01:00:00,2017-06-15 13:07:37,1630000/0fc1642694a8224f1a8df67f677f4c26-g.jpg,,
30239292,Сад и огород в доме,,,,Попов Е.Б.,1985,,Детская литература,,,120,Russian,,,,-,,,,,,,,,,,0,,,,,,0,1,48066991,pdf,fe06f74051bf5081ef51978cd47a993c,,,Попов Е.Б.;Сад и огород в доме;;;Детская литература;1985;-;;Russian,0,2000-01-01 01:00:00,2017-06-15 13:07:37,1631000/fe06f74051bf5081ef51978cd47a993c-g.jpg,,
30239293,Oceanografie. eseuri,,,,Mircea Eliade,1934,1st edition,Cultura Populara,București,304,304,Romanian,195,,0,-,,,,,,,,,,ocr by epistematic,0,,,,,,,1,17299949,pdf,f5e05a11cfc53acb1e4e292fa66c1bd2,,,Eliade Oceanografie 1934 ocr lipsa.pdf,0,2000-01-01 01:00:00,2017-06-15 13:07:37,1685000/f5e05a11cfc53acb1e4e292fa66c1bd2-g.jpg,,
30239294,Cum ne construim dușmanul: și alte scrieri ocazionale,,,,Umberto Eco,2007,3rd edition,Polirom,Iasi,352,352,Romanian,,,0,-,,,,,,,,,,"ocr by epistematic, scan sdr",300,,,,,,0,1,11499669,pdf,9d2e9c43400588086e983e18322889e4,,,Umberto Eco - Cum ne construim dușmanii ocr.pdf,0,2000-01-01 01:00:00,2017-06-15 13:07:37,1689000/9d2e9c43400588086e983e18322889e4-g.jpg,,
30239295,Самолеты СССР Второй Мировой войны,,,,В. Юденок,2003,,Харвест,,,221,Russian,,,,"5-17-007303-8, 985-13-1115-4",,,,,,,,,,,0,,,,,,0,0,317879918,pdf,fbf430dea24c66869f81e8b5b72588d7,,,"В. Юденок;Самолеты СССР Второй Мировой войны;;;Харвест;2003;5-17-007303-8, 985-13-1115-4;;Russian",0,2000-01-01 01:00:00,2017-06-15 13:07:37,1693000/fbf430dea24c66869f81e8b5b72588d7-g.jpg,,
30239296,Classic Handguns of the 20th Century.  A Shooter's and Collector's Guide,,,,David W. Arnold,2004,,Krause Publications,,,146,English,,,,978-0873495769,,,,,,,,,,,0,,,,,,0,1,21938584,pdf,413b683488859dbbfb74acbd56b49e27,,,David W. Arnold;Classic Handguns of the 20th Century.  A Shooter's and Collector's Guide;;;Krause Publications;2004;978-0873495769;;English,0,2000-01-01 01:00:00,2017-06-15 13:07:37,1693000/413b683488859dbbfb74acbd56b49e27-g.jpg,,
30239297,The Gun Digest Book of Tactical Weapons AssemblyDisassembly,,,,J. B. Wood,2008,,Krause Publications,,,306,English,,,,9780896896925,,,,,,,,,,,0,,,,,,0,1,23782053,pdf,6f33f0e511c69e9d24ab15c40cd3ecdc,,,J. B. Wood;The Gun Digest Book of Tactical Weapons AssemblyDisassembly;;;Krause Publications;2008;9780896896925;;English,0,2000-01-01 01:00:00,2017-06-15 13:07:37,1693000/6f33f0e511c69e9d24ab15c40cd3ecdc-g.jpg,,
30239298,Gun Digest Shooter's Guide to the 1911,,,,Robert K. Campbell,2011,,"F+W Media, Inc",,,194,English,,,,978-1-4402-1434-9,,,,,,,,,,,0,,,,,,0,1,126644393,pdf,0d056a1601b98ac57f651a951093f19a,,,"Robert K. Campbell;Gun Digest Shooter's Guide to the 1911;;;F+W Media, Inc;2011;978-1-4402-1434-9;;English",0,2000-01-01 01:00:00,2017-06-15 13:07:37,1693000/0d056a1601b98ac57f651a951093f19a-g.jpg,,
30239299,Knives 2011.  The World's Greatest Knife Book,,,,Joe Kertzman,2010,,"Krause Publications, 31st Revised edition",,,314,English,,,,978-1440211133,,,,,,,,,,,0,,,,,,0,1,72955550,pdf,48bf024435e63ef0efa8675f1dbea697,,,"Joe Kertzman;Knives 2011.  The World's Greatest Knife Book;;;Krause Publications, 31st Revised edition;2010;978-1440211133;;English",0,2000-01-01 01:00:00,2017-06-15 13:07:37,1693000/48bf024435e63ef0efa8675f1dbea697-g.jpg,,
30239300,Gauguin,,Mega Square,,Jp. A. Calosse,2011,,Parkstone International,,,256,English,,,,978-1-78042-211-4,,,,,,,,,,,0,,,,,,0,1,43579424,pdf,36e618cbe2b728c64c05119df9882d48,,,Jp. A. Calosse;Gauguin;Mega Square;;Parkstone International;2011;978-1-78042-211-4;;English,0,2000-01-01 01:00:00,2017-06-15 13:07:37,1693000/36e618cbe2b728c64c05119df9882d48-g.jpg,,
30239301,Unified theory of syntactic categories.,,,,Joseph E. Emons.,1985,,Mouton De Gruyter,Berlin,0,369,English,314,,0,"9783110808513,311080851X",,,,,,,,,,,0,,,,1,1,1,1,30296184,pdf,2fc8c02aa87c2211bf1fc0e5f4fbd626,,,Binder1.pdf,0,2000-01-01 01:00:00,2017-06-15 13:09:33,,,"9783110808513,311080851X"
30239302,Unified theory of syntactic categories.,,,,Joseph E. Emons.,1985,,Mouton De Gruyter,Berlin,0,369,English,314,,0,"9783110808513,311080851X",,,,,,,,,,,0,,,,1,1,1,1,30296184,pdf,2fc8c02aa87c2211bf1fc0e5f4fbd626,,,Binder1.pdf,0,2000-01-01 01:00:00,2017-06-15 13:13:54,1693000/2fc8c02aa87c2211bf1fc0e5f4fbd626-g.2017-06-15 16-13-54.jpg,,"9783110808513,311080851X"
30239303,Unified theory of syntactic categories.,,,,Joseph E. Emons.,1985,,Mouton De Gruyter,Berlin,0,369,English,314,,0,"9783110808513,311080851X",,,,,,,,,,,0,,,,1,1,1,1,30296184,pdf,2fc8c02aa87c2211bf1fc0e5f4fbd626,,,Binder1.pdf,0,2000-01-01 01:00:00,2017-06-15 13:13:58,https://images-na.ssl-images-amazon.com/images/I/318OE1mzdyL.jpg,,"9783110808513,311080851X"
30239304,MCSA 70-742 Cert Guide: Identity with Windows Server 2016,,Certification Guide,,Benjamin Finkel,2017,1,Pearson IT Certification,,528,0,English,,,0,"0789757036,9780789757036",,,,,,,,,,,0,,,,,,,,13302826,epub,4d9a43df095627928b113d3c2d2ba920,,,MCSA 70-742 Cert Guide_ Identit - Benjamin Finkel.epub,0,2000-01-01 01:00:00,2017-06-15 13:27:06,https://images-na.ssl-images-amazon.com/images/I/51UKOC5%2BqYL.jpg,"Windows Server;Business Technology;Computers & Technology;Cisco;Certification;Computers & Technology;Microsoft;Certification;Computers & Technology;Windows Desktop;Windows Vista;Windows XP;Windows;Operating Systems;Computers & Technology;Operating Systems;Computer Science;New, Used & Rental Textbooks;Specialty Boutique","0789757036,9780789757036"
30239305,A História do Século XX,,,,Martin Gilbert,2017,,Planeta,,830,0,Portuguese,,,0,"8542209648, 9788542209648",,,,,,,,oqUBDgAAQBAJ&q,,,0,,,,,,,,7949121,epub,58f8d7688319afb7548e802ca87ddd2d,,,A Historia do Seculo XX - Martin Gilbert.epub,0,2000-01-01 01:00:00,2017-06-15 13:39:57,http://books.google.com/books?id=oqUBDgAAQBAJ&q&printsec=frontcover&img=1&zoom=1,,"8542209648,9788542209648"
30239306,A História do Século XX,,,,Martin Gilbert,2017,,Planeta,,830,0,Portuguese,,,0,"8542209648, 9788542209648",,,,,,,,oqUBDgAAQBAJ&q,,,0,,,,,,,,7949121,epub,58f8d7688319afb7548e802ca87ddd2d,,,A Historia do Seculo XX - Martin Gilbert.epub,0,2000-01-01 01:00:00,2017-06-15 13:43:00,1693000/58f8d7688319afb7548e802ca87ddd2d-d.jpg,,"8542209648,9788542209648"
30239307,A História do Século XX,,,,Martin Gilbert,2017,1,Planeta - Crítica,,830,0,Portuguese,,,0,"8542209648, 9788542209648",,,,,,,,oqUBDgAAQBAJ&q,,Tradução de: History of the twentieth century,0,,,,,,,,7949121,epub,58f8d7688319afb7548e802ca87ddd2d,,,A Historia do Seculo XX - Martin Gilbert.epub,0,2000-01-01 01:00:00,2017-06-15 13:43:03,,,"8542209648,9788542209648"
30239308,MCSA Windows Server 2016 Study Guide: Exam 70-740,,,,William Panek,2017,2,Sybex,,432,0,English,,,0,"1119359341,9781119359340",,,,,,,,,,,0,,,,,,,,10294082,epub,6d5d8ef50892ffa1746db2162d88980b,,,MCSA Windows Server 2016 Study Guide Exam 70-740.epub,0,2000-01-01 01:00:00,2017-06-15 13:50:57,https://images-na.ssl-images-amazon.com/images/I/51cyCe0EjaL.jpg,"Microsoft;Certification;Computers & Technology;Client-Server Systems;Data in the Enterprise;Networking & Cloud Computing;Computers & Technology;Computer Science;Algorithms;Artificial Intelligence;Database Storage & Design;Graphics & Visualization;Networking;Object-Oriented Software Design;Operating Systems;Programming Languages;Software Design & Engineering;New, Used & Rental Textbooks;Specialty Boutique","1119359341,9781119359340"
30239309,A casebook of cognitive therapy for psychosis,,Online access with purchase: Taylor & Francis.,,"Morrison, Anthony P.",2014,,Routledge,"London, New York",308,325,English,198,,0,"9781306574983,1306574986,9781315783215,1315783215,9781583912058,1583912053,9781583912065,1583912061",,,,,,,,,,,0,,,,1,0,1,1,2351031,pdf,281a3e6407e962980ae922e49e6bc12a,,,Morrison.pdf,0,2000-01-01 01:00:00,2017-06-15 13:59:20,http://coverart.oclc.org/ImageWebSvc/oclc/+-+871445304_140.jpg,Psychoses -- Treatment;Cognitive therapy;Psychoses -- Treatment -- Case studies;Cognitive therapy -- Case studies;Electronic books,"9781306574983,1306574986,9781315783215,1315783215,9781583912058,1583912053,9781583912065,1583912061"
30239310,Unified theory of syntactic categories.,,,,Joseph E. Emons.,1985,,Mouton De Gruyter,Berlin,0,369,English,314,,0,"9783110808513,311080851X",,,,,,,,,,,0,,,,1,1,1,1,30296184,pdf,2fc8c02aa87c2211bf1fc0e5f4fbd626,,,Binder1.pdf,0,2000-01-01 01:00:00,2017-06-15 14:00:11,1693000/2fc8c02aa87c2211bf1fc0e5f4fbd626-d.jpg,,"9783110808513,311080851X"
30239311,Naga-ed-Dêr stelae of the first intermediate period,,,,"Dunham, Dows",1937,,"Published for the Museum of fine arts, Boston, by the Oxford University press",London,124,166,English,57,,0,,,,,,,,,,,,0,,,,,,,1,71221931,pdf,39d2fabba4ed5c0ada9076e47b2ec5df,,,Dunham D. Naga-ed-Der Stelae of the First intermediate period (1937).pdf,0,2000-01-01 01:00:00,2017-06-15 14:00:55,1693000/39d2fabba4ed5c0ada9076e47b2ec5df-g.jpg,,
30239312,Naked Money: A Revealing Look at What It Is and Why It Matters,,3,,Charles Wheelan,2016,,W. W. Norton Company,,368,0,English,308,,0,0393069028,,,,,,,,,,,0,,,,,,,,530381,epub,f4e260a508f4cfa3964423169671bd3d,,,Naked Money_ A Revealing Look at What It Is - Charles Wheelan.epub,0,2000-01-01 01:00:00,2017-06-15 14:01:20,1693000/f4e260a508f4cfa3964423169671bd3d-g.jpg,"Economics, Monetary Policy",0393069028
30239313,Idiot's Guides.  Calculus II,,,,W. Michael Kelley,2016,,Alpha,,,339,English,,,,,,,,,,,,,,,0,,,,,,0,1,14867353,pdf,bc123171a772ec3762efa7b448d13132,,,W. Michael Kelley;Idiot's Guides.  Calculus II;;;Alpha;2016;;;English,0,2000-01-01 01:00:00,2017-06-15 14:01:43,1693000/bc123171a772ec3762efa7b448d13132-g.jpg,,
30239314,Introductory Engineering Mathematics,,,,David Reeping and Kenneth Reid,2016,,Momentum Press,,,193,English,,,,,,,,,,,,,,,0,,,,,,0,1,2689646,pdf,77e5026d88ce3bcd44e8ec862c4fdc20,,,David Reeping and Kenneth Reid;Introductory Engineering Mathematics;;;Momentum Press;2016;;;English,0,2000-01-01 01:00:00,2017-06-15 14:02:35,1693000/77e5026d88ce3bcd44e8ec862c4fdc20-g.jpg,,
30239315,Introductory Engineering Mathematics,,General Engineering and K-12 Education Engineering Collection,,"David Reeping, Kenneth Reid",2016,,Momentum Press,,0,193,English,,,0,,,,,,,,,,,,0,,,,,,0,1,2689646,pdf,77e5026d88ce3bcd44e8ec862c4fdc20,,,David Reeping and Kenneth Reid;Introductory Engineering Mathematics;;;Momentum Press;2016;;;English,0,2000-01-01 01:00:00,2017-06-15 14:02:58,1693000/77e5026d88ce3bcd44e8ec862c4fdc20-g.jpg,,
30239316,Introductory Engineering Mathematics,,General Engineering and K-12 Education Engineering Collection,,"David Reeping, Kenneth Reid",2016,,Momentum Press,,0,193,English,,,0,,,,,,,,,,,,0,,,,,,0,1,2689646,pdf,77e5026d88ce3bcd44e8ec862c4fdc20,,,David Reeping and Kenneth Reid;Introductory Engineering Mathematics;;;Momentum Press;2016;;;English,0,2000-01-01 01:00:00,2017-06-15 14:03:35,1693000/77e5026d88ce3bcd44e8ec862c4fdc20-g.jpg,,
30239317,Introductory Engineering Mathematics,,General Engineering and K-12 Education Engineering Collection,,"David Reeping, Kenneth Reid",2016,,Momentum Press,,0,193,English,,,0,,,,,,,,,,,,0,,,,,,0,1,2689646,pdf,77e5026d88ce3bcd44e8ec862c4fdc20,,,David Reeping and Kenneth Reid;Introductory Engineering Mathematics;;;Momentum Press;2016;;;English,0,2000-01-01 01:00:00,2017-06-15 14:03:35,1693000/77e5026d88ce3bcd44e8ec862c4fdc20-g.jpg,,
30239318,Introductory Engineering Mathematics,,General Engineering and K-12 Education Engineering Collection,,"David Reeping, Kenneth Reid",2016,,Momentum Press,,0,193,English,,,0,,,,,,,,,,,,0,,,,,,0,1,2689646,pdf,77e5026d88ce3bcd44e8ec862c4fdc20,,,David Reeping and Kenneth Reid;Introductory Engineering Mathematics;;;Momentum Press;2016;;;English,0,2000-01-01 01:00:00,2017-06-15 14:03:35,1693000/77e5026d88ce3bcd44e8ec862c4fdc20-g.jpg,,
30239319,Idiot's Guides Calculus I,,,,W. Michael Kelley,2016,,Alpha,,,355,English,,,,,,,,,,,,,,,0,,,,,,0,1,15208100,pdf,782a8c011b0166969040439864ca0059,,,W. Michael Kelley;Idiot's Guides Calculus I;;;Alpha;2016;;;English,0,2000-01-01 01:00:00,2017-06-15 14:03:50,1693000/782a8c011b0166969040439864ca0059-g.jpg,,
30239320,Calculus I,,Idiot’s Guides,,W. Michael Kelley,2016,,Alpha,,0,355,English,,,0,,,,,,,,,,,,0,,,,,,0,1,15208100,pdf,782a8c011b0166969040439864ca0059,,,W. Michael Kelley;Idiot s Guides Calculus I;;;Alpha;2016;;;English,0,2000-01-01 01:00:00,2017-06-15 14:03:50,1693000/782a8c011b0166969040439864ca0059-g.jpg,,
30239321,Calculus I,,Idiot’s Guides,,W. Michael Kelley,2016,,Alpha,,0,355,English,,,0,,,,,,,,,,,,0,,,,,,0,1,15208100,pdf,782a8c011b0166969040439864ca0059,,,W. Michael Kelley;Idiot s Guides Calculus I;;;Alpha;2016;;;English,0,2000-01-01 01:00:00,2017-06-15 14:03:50,1693000/782a8c011b0166969040439864ca0059-g.jpg,,
30239322,A casebook of cognitive therapy for psychosis,,Online access with purchase: Taylor & Francis.,,"Morrison, Anthony P.",2014,,Routledge,"London, New York",308,325,English,198,,0,"9781306574983,1306574986,9781315783215,1315783215,9781583912058,1583912053,9781583912065,1583912061",,,,,,,,,,,0,,,,1,0,1,1,2351031,pdf,281a3e6407e962980ae922e49e6bc12a,,,Morrison.pdf,0,2000-01-01 01:00:00,2017-06-15 14:03:55,1693000/281a3e6407e962980ae922e49e6bc12a-d.jpg,Psychoses -- Treatment;Cognitive therapy;Psychoses -- Treatment -- Case studies;Cognitive therapy -- Case studies;Electronic books,"9781306574983,1306574986,9781315783215,1315783215,9781583912058,1583912053,9781583912065,1583912061"
30239323,Discrete-Time Signal Processing   3rd ed.,,,,"Alan V. Oppenheim, Ronald W. Schafer",2014,,Pearson,,1042,1042,english,,,0,978-1-292-02572-8,,,,,,,,,,,0,,,,,,,1,15168460,pdf,389dcf8becf0bf99b3999bb0cb3471cf,,,Pearson - Discrete-Time Signal Processing 2014.pdf,0,2000-01-01 01:00:00,2017-06-15 14:04:26,1693000/389dcf8becf0bf99b3999bb0cb3471cf-g.jpg,,9781292025728
30239324,Discrete-Time Signal Processing,,,,"Alan V. Oppenheim, Ronald W. Schafer",2014,3,Pearson,,1042,1042,English,,,0,978-1-292-02572-8,,,,,,,,,,,0,,,,,,,1,15168460,pdf,389dcf8becf0bf99b3999bb0cb3471cf,,,Pearson - Discrete-Time Signal Processing 2014.pdf,0,2000-01-01 01:00:00,2017-06-15 14:04:26,1693000/389dcf8becf0bf99b3999bb0cb3471cf-g.jpg,,9781292025728
30239325,Discrete-Time Signal Processing,,,,"Alan V. Oppenheim, Ronald W. Schafer",2014,3,Pearson,,1042,1042,English,,,0,978-1-292-02572-8,,,,,,,,,,,0,,,,,,,1,15168460,pdf,389dcf8becf0bf99b3999bb0cb3471cf,,,Pearson - Discrete-Time Signal Processing 2014.pdf,0,2000-01-01 01:00:00,2017-06-15 14:04:27,1693000/389dcf8becf0bf99b3999bb0cb3471cf-g.jpg,,9781292025728
30239326,Introductory Engineering Mathematics,,General Engineering and K-12 Education Engineering Collection,,"David Reeping, Kenneth Reid",2016,,Momentum Press,,0,193,English,,,0,,,,,,,,,,,,0,,,,,,0,1,2689646,pdf,77e5026d88ce3bcd44e8ec862c4fdc20,,,David Reeping and Kenneth Reid;Introductory Engineering Mathematics;;;Momentum Press;2016;;;English,0,2000-01-01 01:00:00,2017-06-15 14:04:55,1693000/77e5026d88ce3bcd44e8ec862c4fdc20-g.jpg,,
30239327,Introductory Engineering Mathematics,,General Engineering and K-12 Engineering Education Collection,,"David Reeping, Kenneth Reid",2016,,Momentum Press,,0,193,English,,,0,,,,,,,,,,,,0,,,,,,0,1,2689646,pdf,77e5026d88ce3bcd44e8ec862c4fdc20,,,David Reeping and Kenneth Reid;Introductory Engineering Mathematics;;;Momentum Press;2016;;;English,0,2000-01-01 01:00:00,2017-06-15 14:04:55,1693000/77e5026d88ce3bcd44e8ec862c4fdc20-g.jpg,,
30239328,Introductory Engineering Mathematics,,General Engineering and K-12 Engineering Education Collection,,"David Reeping, Kenneth Reid",2016,,Momentum Press,,0,193,English,,,0,,,,,,,,,,,,0,,,,,,0,1,2689646,pdf,77e5026d88ce3bcd44e8ec862c4fdc20,,,David Reeping and Kenneth Reid;Introductory Engineering Mathematics;;;Momentum Press;2016;;;English,0,2000-01-01 01:00:00,2017-06-15 14:04:56,1693000/77e5026d88ce3bcd44e8ec862c4fdc20-g.jpg,,
30239329,"The baths of the Romans explained and illustrated: with the restorations of Palladio corrected and improved. To which is prefixed an introductory preface, pointing out the nature of the work ; and a dissertation upon the state of the arts during the different periods of the Roman Empire",,,,"Cameron, Charles",1775,,"Printed for S. Leacroft, and J. Mathews",London,0,242,English,57,,0,,,,,,,,,,,,0,,,,,,,1,218426750,pdf,20226851e7bbf55368eef8e6667c0896,,,Cameron Charles - The baths of the Romans explained and illustrated - 1775.pdf,0,2000-01-01 01:00:00,2017-06-15 14:06:21,1693000/20226851e7bbf55368eef8e6667c0896-g.jpg,,
30239330,The baths of the Romans explained and illustrated ...,,,,"Cameron, Charles",1775,,S. Leacroft & J. Mathews,London,0,242,English,57,,0,,,,,,,,,,,,0,,,,,,,1,218426750,pdf,20226851e7bbf55368eef8e6667c0896,,,Cameron Charles - The baths of the Romans explained and illustrated - 1775.pdf,0,2000-01-01 01:00:00,2017-06-15 14:06:39,1693000/20226851e7bbf55368eef8e6667c0896-g.jpg,,
30239331,The baths of the Romans explained and illustrated ...,,,,"Cameron, Charles",1775,,S. Leacroft & J. Mathews,London,0,242,English,57,,0,,,,,,,,,,,,0,,,,,,,1,218426750,pdf,20226851e7bbf55368eef8e6667c0896,,,Cameron Charles - The baths of the Romans explained and illustrated - 1775.pdf,0,2000-01-01 01:00:00,2017-06-15 14:06:39,1693000/20226851e7bbf55368eef8e6667c0896-g.jpg,,
30239332,The baths of the Romans explained and illustrated ...,,,,"Cameron, Charles",1775,,S. Leacroft & J. Mathews,London,0,242,English,57,,0,,,,,,,,,,,,0,,,,,,,1,218426750,pdf,20226851e7bbf55368eef8e6667c0896,,,Cameron Charles - The baths of the Romans explained and illustrated - 1775.pdf,0,2000-01-01 01:00:00,2017-06-15 14:06:39,1693000/20226851e7bbf55368eef8e6667c0896-g.jpg,,
30239333,Театрал,,,,Греч Н.И.,1853,,Типография Н. Греча,,,162,Russian,,,,-,,,,,,,,,,,0,,,,,,0,1,37959134,pdf,25c2fd4d768b164089e605624a96fb6a,,,Греч Н.И.;Театрал;;;Типография Н. Греча;1853;-;;Russian,0,2000-01-01 01:00:00,2017-06-15 14:07:37,1573000/25c2fd4d768b164089e605624a96fb6a-g.jpg,,
30239334,Иллюстрированный практический путеводитель по Одессе,,,,Москвич Г.Г.,1904,,Типография Л. Нитче (Одесса),,,193,Russian,,,,-,,,,,,,,,,,0,,,,,,0,1,114294202,pdf,6056c19c1332a4c10e4a7a718155860f,,,Москвич Г.Г.;Иллюстрированный практический путеводитель по Одессе;;;Типография Л. Нитче (Одесса);1904;-;;Russian,0,2000-01-01 01:00:00,2017-06-15 14:07:37,1577000/6056c19c1332a4c10e4a7a718155860f-g.jpg,,
30239335,«Отчизну сердцем защитили»  Стихи поэтов Тейковского района,,,,,2011,,"ОАО «Издательство «Иваново»,",,,64,Russian,,,,-,,,,,,,,,,,0,,,,,,0,1,2010197,pdf,ca229279281b8a331bc80b0e6cfa53f2,,,";«Отчизну сердцем защитили»  Стихи поэтов Тейковского района;;;ОАО «Издательство «Иваново»,;2011;-;;Russian",0,2000-01-01 01:00:00,2017-06-15 14:07:37,1585000/ca229279281b8a331bc80b0e6cfa53f2-g.jpg,,
30239336,Recettes Angéliques. Le bœuf: Le goût d’être ensemble,,,,(Collective),2012,,INTERBEV,,0,32,French,,,0,-,,,,,,,,,,,0,,,,,,0,1,3164060,pdf,be017384eb788f84803d6cf2728a3a68,,,;Recettes Angliques. Le boeuf Le got d’tre ensemble;;;INTERBEV;2012;-;;French,0,2000-01-01 01:00:00,2017-06-15 14:07:37,1585000/be017384eb788f84803d6cf2728a3a68-g.jpg,,
30239337,A World Of Animals Vol. 2,,Painting- Animals,,Ana Bernabe,2002,,Viking folk Art,,,60,English,,,,-,,,,,,,,,,,0,,,,,,0,0,50405079,pdf,857f613ba692b86d043d09c24061c24a,,,Ana Bernabe;A World Of Animals Vol. 2;Painting- Animals;;Viking folk Art;2002;-;;English,0,2000-01-01 01:00:00,2017-06-15 14:07:37,1585000/857f613ba692b86d043d09c24061c24a-g.jpg,,
30239338,A World Of Animals Vol. 3,,Painting- Animals,,Ana Bernabe,2003,,Viking folk Art,,,65,English,,,,-,,,,,,,,,,,0,,,,,,0,0,46544505,pdf,d2dbe9b1e95bf109a85cf033d923f5a2,,,Ana Bernabe;A World Of Animals Vol. 3;Painting- Animals;;Viking folk Art;2003;-;;English,0,2000-01-01 01:00:00,2017-06-15 14:07:37,1585000/d2dbe9b1e95bf109a85cf033d923f5a2-g.jpg,,
30239339,20 Easy DIY Holiday Craft,,,,Collective,2015,,FloraCraft,,0,58,English,,,0,-,,,,,,,,,,,0,,,,,,0,1,19194778,pdf,b5d1f6e32d9acffad14ecfb28dac3ac6,,,"Collective;20 Easy DIY Holiday Craft;;;FloraCraft, Prime Publishing LLC;2015;-;;English",0,2000-01-01 01:00:00,2017-06-15 14:07:37,1585000/b5d1f6e32d9acffad14ecfb28dac3ac6-g.jpg,,
30239340,Описание 3-х линейной винтовки образца 1891 года,,,,,1891,,"Издание Офицерской стрелковой школы, Типография И,Н, Скороходова (СПб",,,16,Russian,,,,-,,,,,,,,,,,0,,,,,,0,1,20685620,pdf,3249fcdc9c40bf854fcfbf1ef55e4d9d,,,";Описание 3-х линейной винтовки образца 1891 года;;;Издание Офицерской стрелковой школы, Типография И,Н, Скороходова (СПб;1891;-;;Russian",0,2000-01-01 01:00:00,2017-06-15 14:07:37,1630000/3249fcdc9c40bf854fcfbf1ef55e4d9d-g.jpg,,
30239341,Третье отделение при Николае I,,,,Троцкий И.М.,1930,,Издательство Всесоюзного общества политкаторжан и ссыльно-поселенцев,,,74,Russian,,,,-,,,,,,,,,,,0,,,,,,0,1,39399144,pdf,e7c5d9cf33dd069059147f4c08996e2b,,,Троцкий И.М.;Третье отделение при Николае I;;;Издательство Всесоюзного общества политкаторжан и ссыльно-поселенцев;1930;-;;Russian,0,2000-01-01 01:00:00,2017-06-15 14:07:37,1630000/e7c5d9cf33dd069059147f4c08996e2b-g.jpg,,
30239342,Занимательные задачи и опыты,,,,Перельман Я.И.,1972,,Детская литература,,,472,Russian,,,,-,,,,,,,,,,,0,,,,,,0,1,167718439,pdf,0fc1642694a8224f1a8df67f677f4c26,,,Перельман Я.И.;Занимательные задачи и опыты;;;Детская литература;1972;-;;Russian,0,2000-01-01 01:00:00,2017-06-15 14:07:37,1630000/0fc1642694a8224f1a8df67f677f4c26-g.jpg,,
30239343,Сад и огород в доме,,,,Попов Е.Б.,1985,,Детская литература,,,120,Russian,,,,-,,,,,,,,,,,0,,,,,,0,1,48066991,pdf,fe06f74051bf5081ef51978cd47a993c,,,Попов Е.Б.;Сад и огород в доме;;;Детская литература;1985;-;;Russian,0,2000-01-01 01:00:00,2017-06-15 14:07:37,1631000/fe06f74051bf5081ef51978cd47a993c-g.jpg,,
30239344,Oceanografie. eseuri,,,,Mircea Eliade,1934,1st edition,Cultura Populara,București,304,304,Romanian,195,,0,-,,,,,,,,,,ocr by epistematic,0,,,,,,,1,17299949,pdf,f5e05a11cfc53acb1e4e292fa66c1bd2,,,Eliade Oceanografie 1934 ocr lipsa.pdf,0,2000-01-01 01:00:00,2017-06-15 14:07:37,1685000/f5e05a11cfc53acb1e4e292fa66c1bd2-g.jpg,,
30239345,Cum ne construim dușmanul: și alte scrieri ocazionale,,,,Umberto Eco,2007,3rd edition,Polirom,Iasi,352,352,Romanian,,,0,-,,,,,,,,,,"ocr by epistematic, scan sdr",300,,,,,,0,1,11499669,pdf,9d2e9c43400588086e983e18322889e4,,,Umberto Eco - Cum ne construim dușmanii ocr.pdf,0,2000-01-01 01:00:00,2017-06-15 14:07:37,1689000/9d2e9c43400588086e983e18322889e4-g.jpg,,
30239346,Arabs and the art of storytelling : a strange familiarity,,Middle East literature in translation,,"Allen, Roger; Sellin, Eric; Sryfi, Mbarek",2014,,Syracuse University Press,,173,173,English,102,,0,"9780815633716,0815633718,9780815652861,0815652860",,,,,,,,,,,0,,,,1,0,0,1,2227652,pdf,5e2e354a82dd2857150bd1917ac622ec,,,Middle East Literature In Translation  Arabs and the Art of Stor.pdf,0,2000-01-01 01:00:00,2017-06-15 14:12:25,1693000/5e2e354a82dd2857150bd1917ac622ec-g.jpg,Arabic literature -- History and criticism;Narration (Rhetoric);Arabic literature,"9780815633716,0815633718,9780815652861,0815652860"
30239347,Arabs and the art of storytelling : a strange familiarity,,Middle East literature in translation,,"Abdelfattah Kilito; Sellin, Eric; Sryfi, Mbarek Sryfi,  (trans.)",2014,,Syracuse University Press,,173,173,English,102,,0,"9780815633716,0815633718,9780815652861,0815652860",,,,,,,,,,,0,,,,1,0,0,1,2227652,pdf,5e2e354a82dd2857150bd1917ac622ec,,,Middle East Literature In Translation  Arabs and the Art of Stor.pdf,0,2000-01-01 01:00:00,2017-06-15 14:12:25,1693000/5e2e354a82dd2857150bd1917ac622ec-g.jpg,Arabic literature -- History and criticism;Narration (Rhetoric);Arabic literature,"9780815633716,0815633718,9780815652861,0815652860"
30239348,Arabs and the art of storytelling : a strange familiarity,,Middle East literature in translation,,"Abdelfattah Kilito; Sellin, Eric; Sryfi, Mbarek Sryfi,  (trans.)",2014,,Syracuse University Press,,173,173,English,102,,0,"9780815633716,0815633718,9780815652861,0815652860",,,,,,,,,,,0,,,,1,0,0,1,2227652,pdf,5e2e354a82dd2857150bd1917ac622ec,,,Middle East Literature In Translation  Arabs and the Art of Stor.pdf,0,2000-01-01 01:00:00,2017-06-15 14:12:25,1693000/5e2e354a82dd2857150bd1917ac622ec-g.jpg,Arabic literature -- History and criticism;Narration (Rhetoric);Arabic literature,"9780815633716,0815633718,9780815652861,0815652860"
30239349,Arabs and the art of storytelling : a strange familiarity,,Middle East literature in translation,,"Abdelfattah Kilito; Sellin, Eric; Sryfi, Mbarek Sryfi,  (trans.)",2014,,Syracuse University Press,,173,173,English,102,,0,"9780815633716,0815633718,9780815652861,0815652860",,,,,,,,,,,0,,,,1,0,0,1,2227652,pdf,5e2e354a82dd2857150bd1917ac622ec,,,Middle East Literature In Translation  Arabs and the Art of Stor.pdf,0,2000-01-01 01:00:00,2017-06-15 14:12:25,1693000/5e2e354a82dd2857150bd1917ac622ec-g.jpg,Arabic literature -- History and criticism;Narration (Rhetoric);Arabic literature,"9780815633716,0815633718,9780815652861,0815652860"
30239350,Arabs and the art of storytelling : a strange familiarity,,Middle East literature in translation,,"Abdelfattah Kilito; Sellin, Eric; Sryfi, Mbarek Sryfi,  (trans.)",2014,,Syracuse University Press,,173,173,English,102,,0,"9780815633716,0815633718,9780815652861,0815652860",,,,,,,,,,,0,,,,1,0,0,1,2227652,pdf,5e2e354a82dd2857150bd1917ac622ec,,,Middle East Literature In Translation  Arabs and the Art of Stor.pdf,0,2000-01-01 01:00:00,2017-06-15 14:12:26,1693000/5e2e354a82dd2857150bd1917ac622ec-g.jpg,Arabic literature -- History and criticism;Narration (Rhetoric);Arabic literature,"9780815633716,0815633718,9780815652861,0815652860"
30239351,Arabs and the art of storytelling : a strange familiarity,,Middle East literature in translation,,"Abdelfattah Kilito; Sellin, Eric; Sryfi, Mbarek Sryfi,  (trans.)",2014,,Syracuse University Press,,173,173,English,102,,0,"9780815633716,0815633718,9780815652861,0815652860",,,,,,,,,,,0,,,,1,0,0,1,2227652,pdf,5e2e354a82dd2857150bd1917ac622ec,,,Middle East Literature In Translation  Arabs and the Art of Stor.pdf,0,2000-01-01 01:00:00,2017-06-15 14:12:26,1693000/5e2e354a82dd2857150bd1917ac622ec-g.jpg,Arabic literature -- History and criticism;Narration (Rhetoric);Arabic literature,"9780815633716,0815633718,9780815652861,0815652860"
30239352,Arabs and the art of storytelling : a strange familiarity,,Middle East literature in translation,,"Abdelfattah Kilito; Sellin, Eric; Sryfi, Mbarek Sryfi,  (trans.)",2014,,Syracuse University Press,,173,173,English,102,,0,"9780815633716,0815633718,9780815652861,0815652860",,,,,,,,,,,0,,,,1,0,0,1,2227652,pdf,5e2e354a82dd2857150bd1917ac622ec,,,Middle East Literature In Translation  Arabs and the Art of Stor.pdf,0,2000-01-01 01:00:00,2017-06-15 14:12:26,1693000/5e2e354a82dd2857150bd1917ac622ec-g.jpg,Arabic literature -- History and criticism;Narration (Rhetoric);Arabic literature,"9780815633716,0815633718,9780815652861,0815652860"
30239353,Arabs and the art of storytelling : a strange familiarity,,Middle East literature in translation,,"Abdelfattah Kilito; Sellin, Eric; Sryfi, Mbarek Sryfi,  (trans.)",2014,,Syracuse University Press,,173,173,English,102,,0,"9780815633716,0815633718,9780815652861,0815652860",,,,,,,,,,,0,,,,1,0,0,1,2227652,pdf,5e2e354a82dd2857150bd1917ac622ec,,,Middle East Literature In Translation  Arabs and the Art of Stor.pdf,0,2000-01-01 01:00:00,2017-06-15 14:12:26,1693000/5e2e354a82dd2857150bd1917ac622ec-g.jpg,Arabic literature -- History and criticism;Narration (Rhetoric);Arabic literature,"9780815633716,0815633718,9780815652861,0815652860"
30239354,Computer Games,,,,Tristan Cazenave and Mark H.M. Winands,2017,,Springer,,,188,English,,,,,,,,,,,,,,,0,,,,,,0,1,13308440,pdf,d3554b0df54cf673932f3208cbc4dd32,,,Tristan Cazenave and Mark H.M. Winands;Computer Games;;;Springer;2017;;;English,0,2000-01-01 01:00:00,2017-06-15 14:13:06,1693000/d3554b0df54cf673932f3208cbc4dd32-g.jpg,,
30239355,Computer Games,,,,Tristan Cazenave et al. (eds.),2017,,Springer,,0,188,English,,,0,,,,,,,,,,,,0,,,,,,0,1,13308440,pdf,d3554b0df54cf673932f3208cbc4dd32,,,Tristan Cazenave and Mark H.M. Winands;Computer Games;;;Springer;2017;;;English,0,2000-01-01 01:00:00,2017-06-15 14:13:06,1693000/d3554b0df54cf673932f3208cbc4dd32-g.jpg,,
30239356,The baths of the Romans explained and illustrated ...,,,,"Cameron, Charles",1775,,S. Leacroft & J. Mathews,London,0,242,English,57,,0,,,,,,,,,,,,0,,,,,,,1,218426750,pdf,20226851e7bbf55368eef8e6667c0896,,,Cameron Charles - The baths of the Romans explained and illustrated - 1775.pdf,0,2000-01-01 01:00:00,2017-06-15 14:13:12,1693000/20226851e7bbf55368eef8e6667c0896-g.jpg,,
30239357,The baths of the Romans explained and illustrated ...,,,,"Cameron, Charles",1775,,S. Leacroft & J. Mathews,London,0,242,English,57,,0,,,,,,,,,,,,0,,,,,,,1,218426750,pdf,20226851e7bbf55368eef8e6667c0896,,,Cameron Charles - The baths of the Romans explained and illustrated - 1775.pdf,0,2000-01-01 01:00:00,2017-06-15 14:13:12,1693000/20226851e7bbf55368eef8e6667c0896-g.jpg,,
30239358,The baths of the Romans explained and illustrated ...,,,,"Cameron, Charles",1775,,S. Leacroft & J. Mathews,London,0,242,English,57,,0,,,,,,,,,,,,0,,,,,,,1,218426750,pdf,20226851e7bbf55368eef8e6667c0896,,,Cameron Charles - The baths of the Romans explained and illustrated - 1775.pdf,0,2000-01-01 01:00:00,2017-06-15 14:13:12,1693000/20226851e7bbf55368eef8e6667c0896-g.jpg,,
30239359,The baths of the Romans explained and illustrated ...,,,,"Cameron, Charles",1775,,S. Leacroft & J. Mathews,London,0,242,English,57,,0,,,,,,,,,,,,0,,,,,,,1,218426750,pdf,20226851e7bbf55368eef8e6667c0896,,,Cameron Charles - The baths of the Romans explained and illustrated - 1775.pdf,0,2000-01-01 01:00:00,2017-06-15 14:13:12,1693000/20226851e7bbf55368eef8e6667c0896-g.jpg,,
30239360,Arabs and the art of storytelling : a strange familiarity,,Middle East literature in translation,,"Abdelfattah Kilito; Sellin, Eric; Sryfi, Mbarek Sryfi,  (trans.)",2014,,Syracuse University Press,,173,173,English,102,,0,"9780815633716,0815633718,9780815652861,0815652860",,,,,,,,,,,0,,,,1,0,0,1,2227652,pdf,5e2e354a82dd2857150bd1917ac622ec,,,Middle East Literature In Translation  Arabs and the Art of Stor.pdf,0,2000-01-01 01:00:00,2017-06-15 14:13:15,1693000/5e2e354a82dd2857150bd1917ac622ec-g.jpg,Arabic literature -- History and criticism;Narration (Rhetoric);Arabic literature,"9780815633716,0815633718,9780815652861,0815652860"
30239361,Arabs and the art of storytelling : a strange familiarity,,Middle East literature in translation,,"Abdelfattah Kilito; Sellin, Eric; Sryfi, Mbarek Sryfi,  (trans.)",2014,,Syracuse University Press,,173,173,English,102,,0,"9780815633716,0815633718,9780815652861,0815652860",,,,,,,,,,,0,,,,1,0,0,1,2227652,pdf,5e2e354a82dd2857150bd1917ac622ec,,,Middle East Literature In Translation  Arabs and the Art of Stor.pdf,0,2000-01-01 01:00:00,2017-06-15 14:13:17,1693000/5e2e354a82dd2857150bd1917ac622ec-g.jpg,Arabic literature -- History and criticism;Narration (Rhetoric);Arabic literature,"9780815633716,0815633718,9780815652861,0815652860"
30239362,Arabs and the art of storytelling : a strange familiarity,,Middle East literature in translation,,"Abdelfattah Kilito; Sellin, Eric; Sryfi, Mbarek Sryfi,  (trans.)",2014,,Syracuse University Press,,173,173,English,102,,0,"9780815633716,0815633718,9780815652861,0815652860",,,,,,,,,,,0,,,,1,0,0,1,2227652,pdf,5e2e354a82dd2857150bd1917ac622ec,,,Middle East Literature In Translation  Arabs and the Art of Stor.pdf,0,2000-01-01 01:00:00,2017-06-15 14:13:19,1693000/5e2e354a82dd2857150bd1917ac622ec-g.jpg,Arabic literature -- History and criticism;Narration (Rhetoric);Arabic literature,"9780815633716,0815633718,9780815652861,0815652860"
30239363,The baths of the Romans explained and illustrated ...,,,,"Cameron, Charles",1775,,S. Leacroft & J. Mathews,London,0,242,English,57,,0,,,,,,,,,,,,0,,,,,,,1,218426750,pdf,20226851e7bbf55368eef8e6667c0896,,,Cameron Charles - The baths of the Romans explained and illustrated - 1775.pdf,0,2000-01-01 01:00:00,2017-06-15 14:14:02,1693000/20226851e7bbf55368eef8e6667c0896-g.jpg,,
30239364,The baths of the Romans explained and illustrated ...,,,,"Cameron, Charles",1775,,S. Leacroft & J. Mathews,London,0,242,English,57,,0,,,,,,,,,,,,0,,,,,,,1,218426750,pdf,20226851e7bbf55368eef8e6667c0896,,,Cameron Charles - The baths of the Romans explained and illustrated - 1775.pdf,0,2000-01-01 01:00:00,2017-06-15 14:14:04,,,
30239365,The baths of the Romans explained and illustrated ...,,,,"Cameron, Charles",1775,,S. Leacroft & J. Mathews,London,0,242,English,57,,0,,,,,,,,,,,,0,,,,,,,1,218426750,pdf,20226851e7bbf55368eef8e6667c0896,,,Cameron Charles - The baths of the Romans explained and illustrated - 1775.pdf,0,2000-01-01 01:00:00,2017-06-15 14:14:05,,,
30239366,Arabs and the art of storytelling : a strange familiarity,,Middle East literature in translation,,"Abdelfattah Kilito; Sellin, Eric; Sryfi, Mbarek Sryfi,  (trans.)",2014,,Syracuse University Press,,173,173,English,102,,0,"9780815633716,0815633718,9780815652861,0815652860",,,,,,,,,,,0,,,,1,0,0,1,2227652,pdf,5e2e354a82dd2857150bd1917ac622ec,,,Middle East Literature In Translation  Arabs and the Art of Stor.pdf,0,2000-01-01 01:00:00,2017-06-15 14:14:40,1693000/5e2e354a82dd2857150bd1917ac622ec-g.jpg,Arabic literature -- History and criticism;Narration (Rhetoric);Arabic literature,"9780815633716,0815633718,9780815652861,0815652860"
30239367,Arabs and the art of storytelling : a strange familiarity,,Middle East literature in translation,,"Abdelfattah Kilito; Mbarek Sryfi, Eric Sellin (trans.)",2014,,Syracuse University Press,,173,173,English,102,,0,"9780815633716,0815633718,9780815652861,0815652860",,,,,,,,,,,0,,,,1,0,0,1,2227652,pdf,5e2e354a82dd2857150bd1917ac622ec,,,Middle East Literature In Translation  Arabs and the Art of Stor.pdf,0,2000-01-01 01:00:00,2017-06-15 14:14:40,1693000/5e2e354a82dd2857150bd1917ac622ec-g.jpg,Arabic literature -- History and criticism;Narration (Rhetoric);Arabic literature,"9780815633716,0815633718,9780815652861,0815652860"
30239368,Arabs and the art of storytelling : a strange familiarity,,Middle East literature in translation,,"Abdelfattah Kilito; Mbarek Sryfi, Eric Sellin (trans.)",2014,,Syracuse University Press,,173,173,English,102,,0,"9780815633716,0815633718,9780815652861,0815652860",,,,,,,,,,,0,,,,1,0,0,1,2227652,pdf,5e2e354a82dd2857150bd1917ac622ec,,,Middle East Literature In Translation  Arabs and the Art of Stor.pdf,0,2000-01-01 01:00:00,2017-06-15 14:14:40,1693000/5e2e354a82dd2857150bd1917ac622ec-g.jpg,Arabic literature -- History and criticism;Narration (Rhetoric);Arabic literature,"9780815633716,0815633718,9780815652861,0815652860"
30239369,Arabs and the art of storytelling : a strange familiarity,,Middle East literature in translation,,"Abdelfattah Kilito; Mbarek Sryfi, Eric Sellin (trans.)",2014,,Syracuse University Press,,173,173,English,102,,0,"9780815633716,0815633718,9780815652861,0815652860",,,,,,,,,,,0,,,,1,0,0,1,2227652,pdf,5e2e354a82dd2857150bd1917ac622ec,,,Middle East Literature In Translation  Arabs and the Art of Stor.pdf,0,2000-01-01 01:00:00,2017-06-15 14:14:41,1693000/5e2e354a82dd2857150bd1917ac622ec-g.jpg,Arabic literature -- History and criticism;Narration (Rhetoric);Arabic literature,"9780815633716,0815633718,9780815652861,0815652860"
30239370,Arabs and the art of storytelling : a strange familiarity,,Middle East literature in translation,,"Abdelfattah Kilito; Mbarek Sryfi, Eric Sellin (trans.)",2014,,Syracuse University Press,,173,173,English,102,,0,"9780815633716,0815633718,9780815652861,0815652860",,,,,,,,,,,0,,,,1,0,0,1,2227652,pdf,5e2e354a82dd2857150bd1917ac622ec,,,Middle East Literature In Translation  Arabs and the Art of Stor.pdf,0,2000-01-01 01:00:00,2017-06-15 14:14:41,1693000/5e2e354a82dd2857150bd1917ac622ec-g.jpg,Arabic literature -- History and criticism;Narration (Rhetoric);Arabic literature,"9780815633716,0815633718,9780815652861,0815652860"
30239371,High Performance Computing,,,,Carlos Jaime Barrios Hernndez and Isidoro Gitler,2017,,Springer,,,418,English,,,,,,,,,,,,,,,0,,,,,,0,1,29659292,pdf,a4fa00606501e9b0755eb86b8eed7832,,,Carlos Jaime Barrios Hernndez and Isidoro Gitler;High Performance Computing;;;Springer;2017;;;English,0,2000-01-01 01:00:00,2017-06-15 14:15:22,1693000/a4fa00606501e9b0755eb86b8eed7832-g.jpg,,
30239372,High Performance Computing,,,,"Carlos Jaime Barrios Hernandez, Isidoro Gitler, Jaime Klapp (eds.)",2017,,Springer,,0,418,English,,,0,,,,,,,,,,,,0,,,,,,0,1,29659292,pdf,a4fa00606501e9b0755eb86b8eed7832,,,Carlos Jaime Barrios Hernndez and Isidoro Gitler;High Performance Computing;;;Springer;2017;;;English,0,2000-01-01 01:00:00,2017-06-15 14:15:23,1693000/a4fa00606501e9b0755eb86b8eed7832-g.jpg,,
30239373,High Performance Computing,,,,"Carlos Jaime Barrios Hernandez, Isidoro Gitler, Jaime Klapp (eds.)",2017,,Springer,,0,418,English,,,0,,,,,,,,,,,,0,,,,,,0,1,29659292,pdf,a4fa00606501e9b0755eb86b8eed7832,,,Carlos Jaime Barrios Hernndez and Isidoro Gitler;High Performance Computing;;;Springer;2017;;;English,0,2000-01-01 01:00:00,2017-06-15 14:15:23,1693000/a4fa00606501e9b0755eb86b8eed7832-g.jpg,,
30239374,High Performance Computing,,,,"Carlos Jaime Barrios Hernandez, Isidoro Gitler, Jaime Klapp (eds.)",2017,,Springer,,0,418,English,,,0,,,,,,,,,,,,0,,,,,,0,1,29659292,pdf,a4fa00606501e9b0755eb86b8eed7832,,,Carlos Jaime Barrios Hernndez and Isidoro Gitler;High Performance Computing;;;Springer;2017;;;English,0,2000-01-01 01:00:00,2017-06-15 14:15:23,1693000/a4fa00606501e9b0755eb86b8eed7832-g.jpg,,
30239375,The baths of the Romans explained and illustrated ...,,,,"Cameron, Charles",1775,,S. Leacroft & J. Mathews,London,0,242,English,57,,0,,,,,,,,,,,,0,,,,,,,1,218426750,pdf,20226851e7bbf55368eef8e6667c0896,,,Cameron Charles - The baths of the Romans explained and illustrated - 1775.pdf,0,2000-01-01 01:00:00,2017-06-15 14:15:53,1693000/20226851e7bbf55368eef8e6667c0896-g.jpg,,
30239376,The baths of the Romans explained and illustrated ...,,,,"Cameron, Charles",1775,,S. Leacroft & J. Mathews,London,0,242,English,57,,0,,,,,,,,,,,,0,,,,,,,1,218426750,pdf,20226851e7bbf55368eef8e6667c0896,,,Cameron Charles - The baths of the Romans explained and illustrated - 1775.pdf,0,2000-01-01 01:00:00,2017-06-15 14:15:54,,,
30239377,The baths of the Romans explained and illustrated ...,,,,"Cameron, Charles",1775,,S. Leacroft & J. Mathews,London,0,242,English,57,,0,,,,,,,,,,,,0,,,,,,,1,218426750,pdf,20226851e7bbf55368eef8e6667c0896,,,Cameron Charles - The baths of the Romans explained and illustrated - 1775.pdf,0,2000-01-01 01:00:00,2017-06-15 14:15:54,,,
30239378,The baths of the Romans explained and illustrated ...,,,,"Cameron, Charles",1775,,S. Leacroft & J. Mathews,London,0,242,English,57,,0,,,,,,,,,,,,0,,,,,,,1,218426750,pdf,20226851e7bbf55368eef8e6667c0896,,,Cameron Charles - The baths of the Romans explained and illustrated - 1775.pdf,0,2000-01-01 01:00:00,2017-06-15 14:15:55,,,
30239379,The baths of the Romans explained and illustrated ...,,,,"Cameron, Charles",1775,,S. Leacroft & J. Mathews,London,0,242,English,57,,0,,,,,,,,,,,,0,,,,,,,1,218426750,pdf,20226851e7bbf55368eef8e6667c0896,,,Cameron Charles - The baths of the Romans explained and illustrated - 1775.pdf,0,2000-01-01 01:00:00,2017-06-15 14:15:56,,,
30239380,The baths of the Romans explained and illustrated ...,,,,"Cameron, Charles",1775,,S. Leacroft & J. Mathews,London,0,242,English,57,,0,,,,,,,,,,,,0,,,,,,,1,218426750,pdf,20226851e7bbf55368eef8e6667c0896,,,Cameron Charles - The baths of the Romans explained and illustrated - 1775.pdf,0,2000-01-01 01:00:00,2017-06-15 14:15:56,,,
30239381,The baths of the Romans explained and illustrated ...,,,,"Cameron, Charles",1775,,S. Leacroft & J. Mathews,London,0,242,English,57,,0,,,,,,,,,,,,0,,,,,,,1,218426750,pdf,20226851e7bbf55368eef8e6667c0896,,,Cameron Charles - The baths of the Romans explained and illustrated - 1775.pdf,0,2000-01-01 01:00:00,2017-06-15 14:15:56,,,
30239382,The baths of the Romans explained and illustrated ...,,,,"Cameron, Charles",1775,,S. Leacroft & J. Mathews,London,0,242,English,57,,0,,,,,,,,,,,,0,,,,,,,1,218426750,pdf,20226851e7bbf55368eef8e6667c0896,,,Cameron Charles - The baths of the Romans explained and illustrated - 1775.pdf,0,2000-01-01 01:00:00,2017-06-15 14:15:56,1693000/20226851e7bbf55368eef8e6667c0896-g.jpg,,
30239383,The baths of the Romans explained and illustrated ...,,,,"Cameron, Charles",1775,,S. Leacroft & J. Mathews,London,0,242,English,57,,0,,,,,,,,,,,,0,,,,,,,1,218426750,pdf,20226851e7bbf55368eef8e6667c0896,,,Cameron Charles - The baths of the Romans explained and illustrated - 1775.pdf,0,2000-01-01 01:00:00,2017-06-15 14:15:56,1693000/20226851e7bbf55368eef8e6667c0896-g.jpg,,
30239384,The baths of the Romans explained and illustrated ...,,,,"Cameron, Charles",1775,,S. Leacroft & J. Mathews,London,0,242,English,57,,0,,,,,,,,,,,,0,,,,,,,1,218426750,pdf,20226851e7bbf55368eef8e6667c0896,,,Cameron Charles - The baths of the Romans explained and illustrated - 1775.pdf,0,2000-01-01 01:00:00,2017-06-15 14:15:57,1693000/20226851e7bbf55368eef8e6667c0896-g.jpg,,
30239385,The baths of the Romans explained and illustrated ...,,,,"Cameron, Charles",1775,,S. Leacroft & J. Mathews,London,0,242,English,57,,0,,,,,,,,,,,,0,,,,,,,1,218426750,pdf,20226851e7bbf55368eef8e6667c0896,,,Cameron Charles - The baths of the Romans explained and illustrated - 1775.pdf,0,2000-01-01 01:00:00,2017-06-15 14:15:57,1693000/20226851e7bbf55368eef8e6667c0896-g.jpg,,
30239386,The baths of the Romans explained and illustrated ...,,,,"Cameron, Charles",1775,,S. Leacroft & J. Mathews,London,0,242,English,57,,0,,,,,,,,,,,,0,,,,,,,1,218426750,pdf,20226851e7bbf55368eef8e6667c0896,,,Cameron Charles - The baths of the Romans explained and illustrated - 1775.pdf,0,2000-01-01 01:00:00,2017-06-15 14:16:36,1693000/20226851e7bbf55368eef8e6667c0896-g.jpg,,
30239387,The baths of the Romans explained and illustrated ...,,,,"Cameron, Charles",1775,,S. Leacroft & J. Mathews,London,0,242,English,57,,0,,,,,,,,,,,,0,,,,,,,1,218426750,pdf,20226851e7bbf55368eef8e6667c0896,,,Cameron Charles - The baths of the Romans explained and illustrated - 1775.pdf,0,2000-01-01 01:00:00,2017-06-15 14:16:37,g.jpg,,
30239388,Polysituatedness: A Poetics of Displacement,,Angelaki Humanities MUP,,John Kinsella,2017,1,Manchester University Press,,448,448,English,,,0,"1526113341,9781526113344",,,,,,,,,,,0,,,,,,,1,32620280,pdf,fe1377a8aa7cffbd65eefb3840142494,,,polysituatedness：a poetics of displacement.pdf,0,2000-01-01 01:00:00,2017-06-15 14:16:39,https://images-na.ssl-images-amazon.com/images/I/514owHZspwL.jpg,"Criticism & Theory;History & Criticism;Literature & Fiction;Poetry;Genres & Styles;History & Criticism;Literature & Fiction;Literature;American Literature;Creative Writing & Composition;English Literature;Literary Theory;World Literature;Humanities;New, Used & Rental Textbooks;Specialty Boutique","1526113341,9781526113344"
30239389,От Айвза до Адамса.  американская музыка XX века,,,,Макулкина О.Б.,2010,,Изд-во Ивана Лимбаха,,,826,Russian,,,,,,,,,,,,,,,0,,,,,,0,1,59713482,pdf,345ef4e04a1c607b0c79f1da9d9527ba,,,Макулкина О.Б.;От Айвза до Адамса.  американская музыка XX века;;;Изд-во Ивана Лимбаха;2010;;;Russian,0,2000-01-01 01:00:00,2017-06-15 14:17:31,1693000/345ef4e04a1c607b0c79f1da9d9527ba-g.jpg,,
30239390,От Айвза до Адамса.  американская музыка XX века,,,,Манулкина О.Б.,2010,,Изд-во Ивана Лимбаха,,0,826,Russian,,,0,,,,,,,,,,,,0,,,,,,0,1,59713482,pdf,345ef4e04a1c607b0c79f1da9d9527ba,,,Макулкина О.Б.;От Айвза до Адамса.  американская музыка XX века;;;Изд-во Ивана Лимбаха;2010;;;Russian,0,2000-01-01 01:00:00,2017-06-15 14:17:31,1693000/345ef4e04a1c607b0c79f1da9d9527ba-g.jpg,,
30239391,Mixed Reality and Gamification for Cultural Heritage,,,,Marinos Ioannides and Nadia Magnenat-Thalmann,2017,,Springer,,,594,English,,,,,,,,,,,,,,,0,,,,,,0,1,22168968,pdf,ad7bcabcc0e2fa2a01cc87b7ac42fcaf,,,Marinos Ioannides and Nadia Magnenat-Thalmann;Mixed Reality and Gamification for Cultural Heritage;;;Springer;2017;;;English,0,2000-01-01 01:00:00,2017-06-15 14:18:05,1693000/ad7bcabcc0e2fa2a01cc87b7ac42fcaf-g.jpg,,
30239392,Mixed Reality and Gamification for Cultural Heritage,,,,"Marinos Ioannides, Nadia Magnenat-Thalmann, George Papagiannakis (eds.)",2017,,Springer,,0,594,English,,,0,,,,,,,,,,,,0,,,,,,0,1,22168968,pdf,ad7bcabcc0e2fa2a01cc87b7ac42fcaf,,,Marinos Ioannides and Nadia Magnenat-Thalmann;Mixed Reality and Gamification for Cultural Heritage;;;Springer;2017;;;English,0,2000-01-01 01:00:00,2017-06-15 14:18:05,1693000/ad7bcabcc0e2fa2a01cc87b7ac42fcaf-g.jpg,,
30239393,Mixed Reality and Gamification for Cultural Heritage,,,,"Marinos Ioannides, Nadia Magnenat-Thalmann, George Papagiannakis (eds.)",2017,,Springer,,0,594,English,,,0,,,,,,,,,,,,0,,,,,,0,1,22168968,pdf,ad7bcabcc0e2fa2a01cc87b7ac42fcaf,,,Marinos Ioannides and Nadia Magnenat-Thalmann;Mixed Reality and Gamification for Cultural Heritage;;;Springer;2017;;;English,0,2000-01-01 01:00:00,2017-06-15 14:18:22,1693000/ad7bcabcc0e2fa2a01cc87b7ac42fcaf-g.jpg,,
30239394,A casebook of cognitive therapy for psychosis,,Online access with purchase: Taylor & Francis.,,"Morrison, Anthony P.",2014,,Routledge,"London, New York",308,325,English,198,,0,"9781306574983,1306574986,9781315783215,1315783215,9781583912058,1583912053,9781583912065,1583912061",,,,,,,,,,,0,,,,1,0,1,1,2351031,pdf,281a3e6407e962980ae922e49e6bc12a,,,Morrison.pdf,0,2000-01-01 01:00:00,2017-06-15 14:20:33,1693000/281a3e6407e962980ae922e49e6bc12a-d.jpg,Psychoses -- Treatment;Cognitive therapy;Psychoses -- Treatment -- Case studies;Cognitive therapy -- Case studies;Electronic books,"9781306574983,1306574986,9781315783215,1315783215,9781583912058,1583912053,9781583912065,1583912061"
30239395,A casebook of cognitive therapy for psychosis,,,,"Morrison, Anthony P.",2014,,Routledge,"London, New York",308,325,English,198,,0,"9781306574983,1306574986,9781315783215,1315783215,9781583912058,1583912053,9781583912065,1583912061",,,,,,,,,,,0,,,,1,0,1,1,2351031,pdf,281a3e6407e962980ae922e49e6bc12a,,,Morrison.pdf,0,2000-01-01 01:00:00,2017-06-15 14:20:33,1693000/281a3e6407e962980ae922e49e6bc12a-d.jpg,Psychoses -- Treatment;Cognitive therapy;Psychoses -- Treatment -- Case studies;Cognitive therapy -- Case studies;,"9781306574983,1306574986,9781315783215,1315783215,9781583912058,1583912053,9781583912065,1583912061"
30239396,A casebook of cognitive therapy for psychosis,,,,"Morrison, Anthony P.",2014,,Routledge,"London, New York",308,325,English,198,,0,"9781306574983,1306574986,9781315783215,1315783215,9781583912058,1583912053,9781583912065,1583912061",,,,,,,,,,,0,,,,1,0,1,1,2351031,pdf,281a3e6407e962980ae922e49e6bc12a,,,Morrison.pdf,0,2000-01-01 01:00:00,2017-06-15 14:20:40,1693000/281a3e6407e962980ae922e49e6bc12a-d.jpg,Psychoses -- Treatment;Cognitive therapy;Psychoses -- Treatment -- Case studies;Cognitive therapy -- Case studies;,"9781306574983,1306574986,9781315783215,1315783215,9781583912058,1583912053,9781583912065,1583912061"
30239397,A casebook of cognitive therapy for psychosis,,,,"Morrison, Anthony P.",2014,,Routledge,"London, New York",308,325,English,198,,0,"9781306574983,1306574986,9781315783215,1315783215,9781583912058,1583912053,9781583912065,1583912061",,,,,,,,,,,0,,,,1,0,1,1,2351031,pdf,281a3e6407e962980ae922e49e6bc12a,,,Morrison.pdf,0,2000-01-01 01:00:00,2017-06-15 14:20:41,1693000/281a3e6407e962980ae922e49e6bc12a-d.jpg,Psychoses -- Treatment;Cognitive therapy;Psychoses -- Treatment -- Case studies;Cognitive therapy -- Case studies;,"9781306574983,1306574986,9781315783215,1315783215,9781583912058,1583912053,9781583912065,1583912061"
30239398,A casebook of cognitive therapy for psychosis,,,,"Morrison, Anthony P.",2014,,Routledge,"London, New York",308,325,English,198,,0,"9781306574983,1306574986,9781315783215,1315783215,9781583912058,1583912053,9781583912065,1583912061",,,,,,,,,,,0,,,,1,0,1,1,2351031,pdf,281a3e6407e962980ae922e49e6bc12a,,,Morrison.pdf,0,2000-01-01 01:00:00,2017-06-15 14:20:46,1693000/281a3e6407e962980ae922e49e6bc12a-d.jpg,Psychoses -- Treatment;Cognitive therapy;Psychoses -- Treatment -- Case studies;Cognitive therapy -- Case studies;,"9781306574983,1306574986,9781315783215,1315783215,9781583912058,1583912053,9781583912065,1583912061"
30239399,A casebook of cognitive therapy for psychosis,,,,"Morrison, Anthony P.",2014,,Routledge,"London, New York",308,325,English,198,,0,"9781306574983,1306574986,9781315783215,1315783215,9781583912058,1583912053,9781583912065,1583912061",,,,,,,,,,,0,,,,1,0,1,1,2351031,pdf,281a3e6407e962980ae922e49e6bc12a,,,Morrison.pdf,0,2000-01-01 01:00:00,2017-06-15 14:20:46,1693000/281a3e6407e962980ae922e49e6bc12a-d.jpg,Psychoses -- Treatment;Cognitive therapy;Psychoses -- Treatment -- Case studies;Cognitive therapy -- Case studies;,"9781306574983,1306574986,9781315783215,1315783215,9781583912058,1583912053,9781583912065,1583912061"
30239400,"A dictionary of mechanical science, arts, manufactures, and miscellaneous knowledge",1,The Making of the Modern World,,"Jamieson, Alexander",1829,,Printed for H. Fisher,London,0,604,English,,,0,,,,,,,,,,,,0,,,,,,,0,90448592,pdf,cd06a8e7261447820843e7f7633dd8b8,,,"[history][encyclodedia] A dictionary of mech.science, arts, manufactures, and miscellaneous knowledge. v.01 A.Jamieson (London, 1829).pdf",0,2000-01-01 01:00:00,2017-06-15 14:27:20,,Industrial arts -- Dictionaries;Technology -- Dictionaries,
30239401,"A dictionary of mechanical science, arts, manufactures, and miscellaneous knowledge",2,The Making of the Modern World,,"Jamieson, Alexander",1829,,Printed for H. Fisher,London,0,604,English,,,0,,,,,,,,,,,,0,,,,,,,0,101339383,pdf,f686c2bfae6b324ef2701da7a92b44a9,,,"[history][encyclodedia] A dictionary of mech.science, arts, manufactures, and miscellaneous knowledge. v.02 A.Jamieson (London, 1829).pdf",0,2000-01-01 01:00:00,2017-06-15 14:28:25,,Industrial arts -- Dictionaries;Technology -- Dictionaries,
30239402,Bible history.,,Early American imprints. Second series ; no. 36993.,,varios,1816,,Printed by Hori Brown,Leicester Mass.,240,200,English,205,,0,,,,,,,,,,,,0,,,,,,,0,138991478,pdf,6d51e3fbfb4242d16f200aaa4be63f25,,,Итог1.pdf,0,2000-01-01 01:00:00,2017-06-15 14:33:49,,Bible -- History of Biblical events;Bible;History of Biblical events,
30239403,Początki kultury słowiańskiej,,Encyklopedia Polska t. 4 dz. 5 (cz. 2),,"Brückner, Aleksander; Kadlec, Karel; Niederle, Lubor",1912,,Akademia Umiejętności,Kraków,0,226,Polish,,,0,,,,,,,,,,,,0,,,,,,,1,6299767,djvu,28fd165068da85bb4fd1c18b789eeafb,,,"Brükner A., Niederle L., Kadlec K. Początki kultury słowiańskiej. 1912.djvu",0,2000-01-01 01:00:00,2017-06-15 14:36:32,,Słowianie -- do 10 w,
30239404,Philip K. Dick and Philosophy: Do Androids Have Kindred Spirits?,,Popular Culture and Philosophy,,D. E. Wittkower,2011,,Open Court,,288,0,English,,,0,"0812697340,9780812697346",,,,,,,,,,,0,,,,,,,,664233,epub,1f2bad1133333e709df2eddc79583ca2,,,D. E. Wittkower. Philip K. Dick and Philosophy - Do Androids Have Kindred Spirits (2011).epub,0,2000-01-01 01:00:00,2017-06-15 14:37:57,https://images-na.ssl-images-amazon.com/images/I/51YWCBVCvaL.jpg,Philosophy;Aesthetics;Analytic Philosophy;Consciousness & Thought;Criticism;Eastern;Epistemology;Ethics & Morality;Free Will & Determinism;Good & Evil;Greek & Roman;History & Surveys;Individual Philosophers;Logic & Language;Medieval Thought;Metaphysics;Methodology;Modern;Modern Renaissance;Movements;Political;Reference;Religious;Social Philosophy;Politics & Social Sciences;Popular Culture;Social Sciences;Politics & Social Sciences,"0812697340,9780812697346"
30239405,"Le Caucase pittoresque, dessiné d’après nature par le prince G. Gagarine; avec une introduction et un texte explicatif par le comte E. Stackelberg.",,,,"GAGARIN, Grigory Grigor’evich; STACKELBERG, Ernst von",1847,,,Paris,0,81,English,57,,0,,,,,,,,,,,,0,,,,,,,0,41236181,pdf,54ea2d2b33215fbc72afddec3a01b5f5,,,Итог2.pdf,0,2000-01-01 01:00:00,2017-06-15 14:42:45,,,
30239406,Peasant art in Austria and Hungary.,,,,Charles Holme; Drótos László; Góczán Andrea,1911,,"Charles Holme, Drótos László, Góczán Andrea",,0,279,English,,,0,,,,,,,,,,,,0,,,,,,,0,206137074,pdf,64024b27f26adfe92c58cc9a5c5231ab,,,Holme Ch. - Peasant art in Austria and Hungary - 1911.pdf,0,2000-01-01 01:00:00,2017-06-15 14:46:36,,népművészet;néprajz,
30239407,Joseph Conrad: Writing as Rescue,,,,Jeffrey Berman,1977,,Astra Books,,96,96,English,102,,0,,,,,,,,,,,,0,,,,,,,1,8774272,pdf,33a15645904f22f06346dc19f0219008,,,Joseph Conrad Writing as Rescue.pdf,0,2000-01-01 01:00:00,2017-06-15 14:48:48,,"Literary Criticism, Joseph Conrad, Suicide",
30239408,Hitler desafiado en Moscú. Moscu septiembre de 1941,6,La Segunda Guerra Mundial Osprey 6,,Robert Forczyk,2007,1,Osprey RBA,Barcelona,97,97,Spanish,67,,0,978-84-473-5556-3,,,,,,,,,,,300,1,,0,,1,,0,27423434,pdf,1475f3d24330a58aa9e5c2a887a34306,,,Osprey RBA WW2 06 Hitler desafiado en Moscu Moscu septiembre de 1941 R Forczyk 2007.pdf,0,2000-01-01 01:00:00,2017-06-15 14:50:10,,,9788447355563
30239409,Художня культура України: Навч. посіб.,,,,"Л. М. Масол, С. А. Ничкало, Г. І. Веселовська, О. І. Оніщенко",2006,,Вища шк.,Київ,241,241,Ukrainian,57,,0,966-642-297-2,,,008(477)(075.3),85 (4Укр)я721,,,,,,,0,,,,,,,0,344386775,pdf,6fcb909fb4ae5b59bd7092f8d8f0aa26,,,Итог3.pdf,0,2000-01-01 01:00:00,2017-06-15 14:51:40,,,9666422972
30239410,Biedermeier to Bauhaus,,,,Sigrid Sangl,2001,First Edition,Harry N. Abrams,,192,191,English,,,0,"0810957086,9780810957084",,,,,,,,,,,0,,,,,,,0,147083960,pdf,0ac796e76524a34f80d6010a42930077,,,Итог4.pdf,0,2000-01-01 01:00:00,2017-06-15 14:53:34,https://images-na.ssl-images-amazon.com/images/I/51NDH6G9RZL.jpg,"History;Architecture;Arts & Photography;Regional;Architecture;Arts & Photography;Interior Design;Architecture;Arts & Photography;Decorative Arts;Decorative Arts & Design;Arts & Photography;Crafts & Hobbies;Baskets;Candlemaking;Crafts for Children;Decorating;Flower Arranging & Crafts;Folkcrafts;Framing;Glass & Glassware;Jewelry & Beadwork;Metal Work;Mixed-Media;Mosaics;Nature Crafts;Needlecrafts & Textile Crafts;Papercrafts, Stamping & Stenciling;Polymer Clay;Pottery & Ceramics;Puppets & Puppetry","0810957086,9780810957084"
30239411,Skin Shows 4,,,,"Chris Wroblewski, Steve Beard",1996,,Virgin Pub,,112,114,English,,,0,"0863699480,9780863699481",,,,,,,,,,,0,,,,,,,0,62002150,pdf,5aa5e3889dbd14a671622069ce271e59,,,Skin_Shows_IV_by_Chris_Wroblewski.pdf,0,2000-01-01 01:00:00,2017-06-15 14:55:10,https://images-na.ssl-images-amazon.com/images/I/51GGQP38G4L.jpg,"Textile & Costume;Decorative Arts & Design;Arts & Photography;History;History & Criticism;Arts & Photography;Beauty, Grooming, & Style;Cosmetics;Hair;Men’s Grooming & Style;Skin Care;Style & Clothing;Health, Fitness & Dieting","0863699480,9780863699481"
30239412,Античность. Средние Века. Новое время. Проблемы искусства.,,,,Либман М.Я.,1977,,Наука,М.,307,307,Russian,57,,0,,,,,,,,,,,,0,,,,,,,1,133391260,pdf,e920b5e8f892796b4bda44f8ba236586,,,Либман М.Я. - Античность. Средние Века. Новое время - 1977.pdf,0,2000-01-01 01:00:00,2017-06-15 14:57:06,,,
30239413,Культура русских поморов. Историко-культурологический анализ,,,,"Ануфриев В.В., Базарова Э.Л., Бицадзе Н.В., Гончарова Н.Н., Селезнева Е.Н., Черносвитов П.Ю.",2013,,ФОРУМ; Неолит,М.,360,360,Russian,191,,0,978-5-91134-730-7,,,998,63.5,,,,,,,0,,,,,,1,1,141336302,djvu,7975e34dfec68afd97e7e3d05e22390a,,,Ануфриев В.В. и др. - Культура русских поморов. Историко-культурологический анализ - 2013.djvu,0,2000-01-01 01:00:00,2017-06-15 15:02:01,,,9785911347307
30239414,Театрал,,,,Греч Н.И.,1853,,Типография Н. Греча,,,162,Russian,,,,-,,,,,,,,,,,0,,,,,,0,1,37959134,pdf,25c2fd4d768b164089e605624a96fb6a,,,Греч Н.И.;Театрал;;;Типография Н. Греча;1853;-;;Russian,0,2000-01-01 01:00:00,2017-06-15 15:07:37,1573000/25c2fd4d768b164089e605624a96fb6a-g.jpg,,
30239415,Иллюстрированный практический путеводитель по Одессе,,,,Москвич Г.Г.,1904,,Типография Л. Нитче (Одесса),,,193,Russian,,,,-,,,,,,,,,,,0,,,,,,0,1,114294202,pdf,6056c19c1332a4c10e4a7a718155860f,,,Москвич Г.Г.;Иллюстрированный практический путеводитель по Одессе;;;Типография Л. Нитче (Одесса);1904;-;;Russian,0,2000-01-01 01:00:00,2017-06-15 15:07:37,1577000/6056c19c1332a4c10e4a7a718155860f-g.jpg,,
30239416,«Отчизну сердцем защитили»  Стихи поэтов Тейковского района,,,,,2011,,"ОАО «Издательство «Иваново»,",,,64,Russian,,,,-,,,,,,,,,,,0,,,,,,0,1,2010197,pdf,ca229279281b8a331bc80b0e6cfa53f2,,,";«Отчизну сердцем защитили»  Стихи поэтов Тейковского района;;;ОАО «Издательство «Иваново»,;2011;-;;Russian",0,2000-01-01 01:00:00,2017-06-15 15:07:37,1585000/ca229279281b8a331bc80b0e6cfa53f2-g.jpg,,
30239417,Recettes Angéliques. Le bœuf: Le goût d’être ensemble,,,,(Collective),2012,,INTERBEV,,0,32,French,,,0,-,,,,,,,,,,,0,,,,,,0,1,3164060,pdf,be017384eb788f84803d6cf2728a3a68,,,;Recettes Angliques. Le boeuf Le got d’tre ensemble;;;INTERBEV;2012;-;;French,0,2000-01-01 01:00:00,2017-06-15 15:07:37,1585000/be017384eb788f84803d6cf2728a3a68-g.jpg,,
30239418,A World Of Animals Vol. 2,,Painting- Animals,,Ana Bernabe,2002,,Viking folk Art,,,60,English,,,,-,,,,,,,,,,,0,,,,,,0,0,50405079,pdf,857f613ba692b86d043d09c24061c24a,,,Ana Bernabe;A World Of Animals Vol. 2;Painting- Animals;;Viking folk Art;2002;-;;English,0,2000-01-01 01:00:00,2017-06-15 15:07:37,1585000/857f613ba692b86d043d09c24061c24a-g.jpg,,
30239419,A World Of Animals Vol. 3,,Painting- Animals,,Ana Bernabe,2003,,Viking folk Art,,,65,English,,,,-,,,,,,,,,,,0,,,,,,0,0,46544505,pdf,d2dbe9b1e95bf109a85cf033d923f5a2,,,Ana Bernabe;A World Of Animals Vol. 3;Painting- Animals;;Viking folk Art;2003;-;;English,0,2000-01-01 01:00:00,2017-06-15 15:07:37,1585000/d2dbe9b1e95bf109a85cf033d923f5a2-g.jpg,,
30239420,20 Easy DIY Holiday Craft,,,,Collective,2015,,FloraCraft,,0,58,English,,,0,-,,,,,,,,,,,0,,,,,,0,1,19194778,pdf,b5d1f6e32d9acffad14ecfb28dac3ac6,,,"Collective;20 Easy DIY Holiday Craft;;;FloraCraft, Prime Publishing LLC;2015;-;;English",0,2000-01-01 01:00:00,2017-06-15 15:07:37,1585000/b5d1f6e32d9acffad14ecfb28dac3ac6-g.jpg,,
30239421,Описание 3-х линейной винтовки образца 1891 года,,,,,1891,,"Издание Офицерской стрелковой школы, Типография И,Н, Скороходова (СПб",,,16,Russian,,,,-,,,,,,,,,,,0,,,,,,0,1,20685620,pdf,3249fcdc9c40bf854fcfbf1ef55e4d9d,,,";Описание 3-х линейной винтовки образца 1891 года;;;Издание Офицерской стрелковой школы, Типография И,Н, Скороходова (СПб;1891;-;;Russian",0,2000-01-01 01:00:00,2017-06-15 15:07:37,1630000/3249fcdc9c40bf854fcfbf1ef55e4d9d-g.jpg,,
30239422,Третье отделение при Николае I,,,,Троцкий И.М.,1930,,Издательство Всесоюзного общества политкаторжан и ссыльно-поселенцев,,,74,Russian,,,,-,,,,,,,,,,,0,,,,,,0,1,39399144,pdf,e7c5d9cf33dd069059147f4c08996e2b,,,Троцкий И.М.;Третье отделение при Николае I;;;Издательство Всесоюзного общества политкаторжан и ссыльно-поселенцев;1930;-;;Russian,0,2000-01-01 01:00:00,2017-06-15 15:07:37,1630000/e7c5d9cf33dd069059147f4c08996e2b-g.jpg,,
30239423,Занимательные задачи и опыты,,,,Перельман Я.И.,1972,,Детская литература,,,472,Russian,,,,-,,,,,,,,,,,0,,,,,,0,1,167718439,pdf,0fc1642694a8224f1a8df67f677f4c26,,,Перельман Я.И.;Занимательные задачи и опыты;;;Детская литература;1972;-;;Russian,0,2000-01-01 01:00:00,2017-06-15 15:07:37,1630000/0fc1642694a8224f1a8df67f677f4c26-g.jpg,,
30239424,Сад и огород в доме,,,,Попов Е.Б.,1985,,Детская литература,,,120,Russian,,,,-,,,,,,,,,,,0,,,,,,0,1,48066991,pdf,fe06f74051bf5081ef51978cd47a993c,,,Попов Е.Б.;Сад и огород в доме;;;Детская литература;1985;-;;Russian,0,2000-01-01 01:00:00,2017-06-15 15:07:37,1631000/fe06f74051bf5081ef51978cd47a993c-g.jpg,,
30239425,Oceanografie. eseuri,,,,Mircea Eliade,1934,1st edition,Cultura Populara,București,304,304,Romanian,195,,0,-,,,,,,,,,,ocr by epistematic,0,,,,,,,1,17299949,pdf,f5e05a11cfc53acb1e4e292fa66c1bd2,,,Eliade Oceanografie 1934 ocr lipsa.pdf,0,2000-01-01 01:00:00,2017-06-15 15:07:37,1685000/f5e05a11cfc53acb1e4e292fa66c1bd2-g.jpg,,
30239426,Cum ne construim dușmanul: și alte scrieri ocazionale,,,,Umberto Eco,2007,3rd edition,Polirom,Iasi,352,352,Romanian,,,0,-,,,,,,,,,,"ocr by epistematic, scan sdr",300,,,,,,0,1,11499669,pdf,9d2e9c43400588086e983e18322889e4,,,Umberto Eco - Cum ne construim dușmanii ocr.pdf,0,2000-01-01 01:00:00,2017-06-15 15:07:37,1689000/9d2e9c43400588086e983e18322889e4-g.jpg,,
30239427,Зодчество Северо-Восточной Руси XII–XV веков. Т.1. XII столетие,,,,Воронин Н.Н.,1961,,Изд-во АН СССР,,588,588,Russian,58,,0,,,,,,,,,,,,0,,,,,,,0,578125282,pdf,f67f1680e702876519afe8c1d8603038,,,Воронин Н.Н. - Зодчество Северо-Восточной Руси XII–XV веков. Т. 1 (XII столетие) - 1961.pdf,0,2000-01-01 01:00:00,2017-06-15 15:09:02,,,
30239428,Operación Barbarroja II: Hacia Leningrado. Rusia junio de 1941,7,La Segunda Guerra Mundial Osprey 7,,Robert Kirchubel,2007,1,Osprey RBA,Barcelona,97,97,Spanish,67,,0,978-84-473-5557-0,,,,,,,,,,,300,1,,0,,1,,0,27200676,pdf,52afbdbe2e8887401be64124745ce199,,,Osprey RBA WW2 07 Operacion Barbarroja II hacia Leningrado Rusia junio de 1941 R Kirchubel 2007.pdf,0,2000-01-01 01:00:00,2017-06-15 15:09:23,,,9788447355570
30239429,Зодчество Северо-Восточной Руси XII–XV веков. Т.2. XIII-XV столетия,2,,,Воронин Н.Н.,1962,,Изд-во АН СССР,М.,567,567,Russian,58,,0,,,,,,,,,,,,0,,,,,,,0,590230792,pdf,37c543254e6908255dc2f20f85eea347,,,Воронин Н.Н. - Зодчество Северо-Восточной Руси XII–XV веков. Т. 2 (XIII-XV столетия) - 1962.pdf,0,2000-01-01 01:00:00,2017-06-15 15:10:33,,,
30239430,Скульптурные  памятники  Москвы.,,,,Кожевников Р.Ф.,1983,2,Моск. рабочий,М.,324,324,Russian,57,,0,,,,,,,,,,,,0,,,,,,,1,145093063,pdf,8f6172ecfa4d4fbeb5734b8f9adf4f5d,,,Кожевников Р. - Скульптурные памятники Москвы - 1983.pdf,0,2000-01-01 01:00:00,2017-06-15 15:20:15,,,
30239431,El día de la infamia. Pearl Harbor diciembre de 1941,8,La Segunda Guerra Mundial Osprey 8,,Carl Smith,2007,1,Osprey RBA,Barcelona,97,97,Spanish,67,,0,978-84-473-5558-7,,,,,,,,,,,300,1,,0,,1,,0,21874428,pdf,225181a20d37b6b101b21b3ef32573e4,,,Osprey RBA WW2 08 El dia de la infamia Pearl Harbor diciembre de 1941 C Smith 2007.pdf,0,2000-01-01 01:00:00,2017-06-15 15:22:57,,,9788447355587
30239432,Operación Barbarroja III: El invierno ruso. Rusia junio de 1941,9,La Segunda Guerra Mundial Osprey 9,,Robert Kirchubel,2007,1,Osprey RBA,Barcelona,97,97,Spanish,67,,0,978-84-473-5559-4,,,,,,,,,,,300,1,,0,,1,,0,28160839,pdf,b0ed827e2c5c3d9733a83dd54556e780,,,Osprey RBA WW2 09 Operacion Barbarroja III el invierno ruso Rusia junio de 1941 R Kirchubel 2007.pdf,0,2000-01-01 01:00:00,2017-06-15 15:33:14,,,9788447355594
30239433,Contraataque al Japón: Los EE.UU en guerra. Guadalcanal febrero de 1942,10,La Segunda Guerra Mundial Osprey 10,,Joseph N. Mueller,2007,1,Osprey RBA,Barcelona,97,97,Spanish,67,,0,978-84-473-5560-0,,,,,,,,,,,300,1,,0,,1,,0,27704370,pdf,63fac9c09517cbf64a60b532b66c196d,,,Osprey RBA WW2 10 Contraataque al Japon los EEUU en guerra Guadalcanal febrero de 1942 J Mueller 2007.pdf,0,2000-01-01 01:00:00,2017-06-15 15:41:31,,,9788447355600
30239434,"Художественная культура Витебщины. Поозерье, Подвинье, Верхнее Поднепровье.(в контексте восточно-славянских и западно-европейских культурных процессов)",,,,Русецкий А.В. Русецкий Ю.А.,2008,,УО ВГУ им. П.М.Машерова,Витебск,552,552,Russian,191,,0,978-985-425-802-7,,,,,,,,,,,0,,,,,,,0,191309132,pdf,a9ce32f057ed8571c23aa5d5ef670b53,,,"Русецкий А.В. Русецкий Ю.А. Художественная культура Витебщины. Поозерье, Подвинье, Верхнее Поднепровье.pdf",0,2000-01-01 01:00:00,2017-06-15 15:41:55,,,9789854258027
30239435,"От Воскресенских ворот до Трубной площади. Москва, которой нет. Путеводитель",,,,Крупчанский А.В.,2010,,Memories,М.,406,406,Russian,57,,0,,,,,,,,,,,,0,,,,,,1,1,130487439,djvu,a5aa4c377cd040fff74941b0eb111607,,,"Крупчанский А.В. - От Воскресенских ворот до Трубной площади. Москва, которой нет. Путеводитель - 2010.djvu",0,2000-01-01 01:00:00,2017-06-15 15:45:19,,,
30239436,"Легенды московского застолья. Заметки о вкусной, не очень вкусной, здоровой и не совсем здоровой, но все равно удивительно интересной жизни.",,Moskva i Podmoskovʹe. Istorija pamjatniki sudʹby,,Ямской Н.,2012,,Центрполиграф,М.,398 S,405,Russian,191,,0,"9785227034083,5227034087",,,930.85,63.3(2),,,,,,,0,,,,,,,1,77936712,pdf,d1c72373e6e765b436e29371857d01bc,,,Ямской Н. - Легенды московского застолья - 2012.pdf,0,2000-01-01 01:00:00,2017-06-15 15:53:08,,Gaststättengewerbe;Moskau,"9785227034083,5227034087"
30239437,"Живописная Россiя. Том 5. Малороссiя, Подолiя м Волынь. Часть 1.",,,,Семеновъ П.П. (ред.),1898,,Изд. товарищества М.О.Вольфъ,СПбъ.,325,325,Russian (Old),,,0,,,,,,,,,,,,0,,,,,,,0,87285509,pdf,7512c9c70af936f30dac9c72bc38b43a,,,"Живописная Россия. Том 5, часть 1 [1897].pdf",0,2000-01-01 01:00:00,2017-06-15 15:58:16,,История России; Исторические источники,
30239438,Живописная Россiя. Том 5. Малороссiя и Новороссiя. Часть 2.,,,,Семеновъ П.П. (ред.),1898,,Изд. товарищества М.О.Вольфъ,СПбъ.,327,327,Russian (Old),,,0,,,,,,,,,,,,0,,,,,,,0,80828190,pdf,6ac977c5e15fe406502c5a40995b963d,,,"Живописная Россия. Том 5, часть 2 [1898].pdf",0,2000-01-01 01:00:00,2017-06-15 16:00:10,,История России; Исторические источники,
30239439,Русская свадьба. Свадебный обряд на Верхней и Средней Кокшеньге и на Уфтюге (Тарногский район Вологодской области),,,,"Балашов Д.М., Марченко Ю.И., Калмыкова Н.И.",1985,,Современник,М.,402,402,Russian,191,,0,,,,,,,,,,,,0,,,,,,,1,193058843,pdf,150eb3be578694d76a0b18015ccd9e4b,,,"Балашов Д.М., Марченко Ю.И., Калмыкова Н.И. - Русская свадьба - 1985.pdf",0,2000-01-01 01:00:00,2017-06-15 16:05:37,,,
30239440,Театрал,,,,Греч Н.И.,1853,,Типография Н. Греча,,,162,Russian,,,,-,,,,,,,,,,,0,,,,,,0,1,37959134,pdf,25c2fd4d768b164089e605624a96fb6a,,,Греч Н.И.;Театрал;;;Типография Н. Греча;1853;-;;Russian,0,2000-01-01 01:00:00,2017-06-15 16:07:37,1573000/25c2fd4d768b164089e605624a96fb6a-g.jpg,,
30239441,Иллюстрированный практический путеводитель по Одессе,,,,Москвич Г.Г.,1904,,Типография Л. Нитче (Одесса),,,193,Russian,,,,-,,,,,,,,,,,0,,,,,,0,1,114294202,pdf,6056c19c1332a4c10e4a7a718155860f,,,Москвич Г.Г.;Иллюстрированный практический путеводитель по Одессе;;;Типография Л. Нитче (Одесса);1904;-;;Russian,0,2000-01-01 01:00:00,2017-06-15 16:07:37,1577000/6056c19c1332a4c10e4a7a718155860f-g.jpg,,
30239442,«Отчизну сердцем защитили»  Стихи поэтов Тейковского района,,,,,2011,,"ОАО «Издательство «Иваново»,",,,64,Russian,,,,-,,,,,,,,,,,0,,,,,,0,1,2010197,pdf,ca229279281b8a331bc80b0e6cfa53f2,,,";«Отчизну сердцем защитили»  Стихи поэтов Тейковского района;;;ОАО «Издательство «Иваново»,;2011;-;;Russian",0,2000-01-01 01:00:00,2017-06-15 16:07:37,1585000/ca229279281b8a331bc80b0e6cfa53f2-g.jpg,,
30239443,Recettes Angéliques. Le bœuf: Le goût d’être ensemble,,,,(Collective),2012,,INTERBEV,,0,32,French,,,0,-,,,,,,,,,,,0,,,,,,0,1,3164060,pdf,be017384eb788f84803d6cf2728a3a68,,,;Recettes Angliques. Le boeuf Le got d’tre ensemble;;;INTERBEV;2012;-;;French,0,2000-01-01 01:00:00,2017-06-15 16:07:37,1585000/be017384eb788f84803d6cf2728a3a68-g.jpg,,
30239444,A World Of Animals Vol. 2,,Painting- Animals,,Ana Bernabe,2002,,Viking folk Art,,,60,English,,,,-,,,,,,,,,,,0,,,,,,0,0,50405079,pdf,857f613ba692b86d043d09c24061c24a,,,Ana Bernabe;A World Of Animals Vol. 2;Painting- Animals;;Viking folk Art;2002;-;;English,0,2000-01-01 01:00:00,2017-06-15 16:07:37,1585000/857f613ba692b86d043d09c24061c24a-g.jpg,,
30239445,A World Of Animals Vol. 3,,Painting- Animals,,Ana Bernabe,2003,,Viking folk Art,,,65,English,,,,-,,,,,,,,,,,0,,,,,,0,0,46544505,pdf,d2dbe9b1e95bf109a85cf033d923f5a2,,,Ana Bernabe;A World Of Animals Vol. 3;Painting- Animals;;Viking folk Art;2003;-;;English,0,2000-01-01 01:00:00,2017-06-15 16:07:37,1585000/d2dbe9b1e95bf109a85cf033d923f5a2-g.jpg,,
30239446,20 Easy DIY Holiday Craft,,,,Collective,2015,,FloraCraft,,0,58,English,,,0,-,,,,,,,,,,,0,,,,,,0,1,19194778,pdf,b5d1f6e32d9acffad14ecfb28dac3ac6,,,"Collective;20 Easy DIY Holiday Craft;;;FloraCraft, Prime Publishing LLC;2015;-;;English",0,2000-01-01 01:00:00,2017-06-15 16:07:37,1585000/b5d1f6e32d9acffad14ecfb28dac3ac6-g.jpg,,
30239447,Описание 3-х линейной винтовки образца 1891 года,,,,,1891,,"Издание Офицерской стрелковой школы, Типография И,Н, Скороходова (СПб",,,16,Russian,,,,-,,,,,,,,,,,0,,,,,,0,1,20685620,pdf,3249fcdc9c40bf854fcfbf1ef55e4d9d,,,";Описание 3-х линейной винтовки образца 1891 года;;;Издание Офицерской стрелковой школы, Типография И,Н, Скороходова (СПб;1891;-;;Russian",0,2000-01-01 01:00:00,2017-06-15 16:07:37,1630000/3249fcdc9c40bf854fcfbf1ef55e4d9d-g.jpg,,
30239448,Третье отделение при Николае I,,,,Троцкий И.М.,1930,,Издательство Всесоюзного общества политкаторжан и ссыльно-поселенцев,,,74,Russian,,,,-,,,,,,,,,,,0,,,,,,0,1,39399144,pdf,e7c5d9cf33dd069059147f4c08996e2b,,,Троцкий И.М.;Третье отделение при Николае I;;;Издательство Всесоюзного общества политкаторжан и ссыльно-поселенцев;1930;-;;Russian,0,2000-01-01 01:00:00,2017-06-15 16:07:37,1630000/e7c5d9cf33dd069059147f4c08996e2b-g.jpg,,
30239449,Занимательные задачи и опыты,,,,Перельман Я.И.,1972,,Детская литература,,,472,Russian,,,,-,,,,,,,,,,,0,,,,,,0,1,167718439,pdf,0fc1642694a8224f1a8df67f677f4c26,,,Перельман Я.И.;Занимательные задачи и опыты;;;Детская литература;1972;-;;Russian,0,2000-01-01 01:00:00,2017-06-15 16:07:37,1630000/0fc1642694a8224f1a8df67f677f4c26-g.jpg,,
30239450,Сад и огород в доме,,,,Попов Е.Б.,1985,,Детская литература,,,120,Russian,,,,-,,,,,,,,,,,0,,,,,,0,1,48066991,pdf,fe06f74051bf5081ef51978cd47a993c,,,Попов Е.Б.;Сад и огород в доме;;;Детская литература;1985;-;;Russian,0,2000-01-01 01:00:00,2017-06-15 16:07:37,1631000/fe06f74051bf5081ef51978cd47a993c-g.jpg,,
30239451,Oceanografie. eseuri,,,,Mircea Eliade,1934,1st edition,Cultura Populara,București,304,304,Romanian,195,,0,-,,,,,,,,,,ocr by epistematic,0,,,,,,,1,17299949,pdf,f5e05a11cfc53acb1e4e292fa66c1bd2,,,Eliade Oceanografie 1934 ocr lipsa.pdf,0,2000-01-01 01:00:00,2017-06-15 16:07:37,1685000/f5e05a11cfc53acb1e4e292fa66c1bd2-g.jpg,,
30239452,Cum ne construim dușmanul: și alte scrieri ocazionale,,,,Umberto Eco,2007,3rd edition,Polirom,Iasi,352,352,Romanian,,,0,-,,,,,,,,,,"ocr by epistematic, scan sdr",300,,,,,,0,1,11499669,pdf,9d2e9c43400588086e983e18322889e4,,,Umberto Eco - Cum ne construim dușmanii ocr.pdf,0,2000-01-01 01:00:00,2017-06-15 16:07:37,1689000/9d2e9c43400588086e983e18322889e4-g.jpg,,
30239453,A casebook of cognitive therapy for psychosis,,,,"Morrison, Anthony P.",2014,,Routledge,"London, New York",308,325,English,198,,0,"9781306574983,1306574986,9781315783215,1315783215,9781583912058,1583912053,9781583912065,1583912061",,,,,,,,,,,0,,,,1,0,1,1,2351031,pdf,281a3e6407e962980ae922e49e6bc12a,,,Morrison.pdf,0,2000-01-01 01:00:00,2017-06-15 16:07:46,1693000/281a3e6407e962980ae922e49e6bc12a-d.jpg,Psychoses -- Treatment;Cognitive therapy;Psychoses -- Treatment -- Case studies;Cognitive therapy -- Case studies;,"9781306574983,1306574986,9781315783215,1315783215,9781583912058,1583912053,9781583912065,1583912061"
30239454,A casebook of cognitive therapy for psychosis,,,,"Morrison, Anthony P.",2014,,Routledge,"London, New York",308,325,English,198,,0,"9781306574983,1306574986,9781315783215,1315783215,9781583912058,1583912053,9781583912065,1583912061",,,,,,,,,,,0,,,,1,0,1,1,2351031,pdf,281a3e6407e962980ae922e49e6bc12a,,,Morrison.pdf,0,2000-01-01 01:00:00,2017-06-15 16:08:29,1693000/281a3e6407e962980ae922e49e6bc12a-d.jpg,Psychoses -- Treatment;Cognitive therapy;Psychoses -- Treatment -- Case studies;Cognitive therapy -- Case studies;,"9781306574983,1306574986,9781315783215,1315783215,9781583912058,1583912053,9781583912065,1583912061"
30239455,"Прихожу на свиданье с тобой: избранные очерки, статьи, ре­ цензии и рассказы о Чайковском муниципальном театре дра­мы и комедии",,,,Бедерман В.Г.,2015,,Бон Анца,Ижевск,256,256,Russian,57,,0,978-5-905883-37-8,,,792.2,85.334.3(235.55),,,,,,,0,,,,,,,0,135220675,pdf,134edc9f6c3604a3ef94f1a8be7a0a0d,,,"Бедерман В.Г. - Прихожу на свиданье с тобой. Избранные очерки, статьи... о Чайковском муниципальном театре драмы и комедии - 2015.pdf",0,2000-01-01 01:00:00,2017-06-15 16:08:45,,,9785905883378
30239456,"Le Caucase pittoresque, dessiné d’après nature par le prince G. Gagarine; avec une introduction et un texte explicatif par le comte E. Stackelberg.",,,,"GAGARIN, Grigory Grigor’evich; STACKELBERG, Ernst von",1847,,,Paris,0,81,English,57,,0,,,,,,,,,,,,0,,,,,,,0,41236181,pdf,54ea2d2b33215fbc72afddec3a01b5f5,,,Итог2.pdf,0,2000-01-01 01:00:00,2017-06-15 16:11:16,1693000/54ea2d2b33215fbc72afddec3a01b5f5-g.jpg,,
30239457,Stick and Rudder: An Explanation of the Art of Flying,,,,Wolfgang Langewiesche,1990,1,McGraw-Hill Education,,400,398,English,,,0,"0070362408,9780070362406",,,,,,,,,,,0,,,,,,,1,46093114,pdf,a8b3743790d313d3f30e5feb77e4d0d0,,,Stick and Rudder - An Explanation of the Art of Flying by Wolfgang Langewiesche.pdf,0,2000-01-01 01:00:00,2017-06-15 16:13:55,https://images-na.ssl-images-amazon.com/images/I/51%2Bz7RNeZIL.jpg,Piloting & Flight Instruction;Aviation;Transportation;Engineering & Transportation;History;Aviation;Transportation;Engineering & Transportation;Aerospace;Aerodynamics;Aircraft Design & Construction;Astronautics & Space Flight;Avionics;Gas Dynamics;Propulsion Technology;Engineering;Engineering & Transportation;Reference;Almanacs & Yearbooks;Atlases & Maps;Careers;Catalogs & Directories;Consumer Guides;Dictionaries & Thesauruses;Encyclopedias & Subject Guides;English as a Second Language;Etiquette,"0070362408,9780070362406"
30239458,Искусство современной карикатуры,,,,Казаневский В.,2004,,Альтерпресс,Київ,154,154,Russian,191,,0,,,,,,,,,,,,0,,,,,,,0,103459065,pdf,52c1e3c8ada92d5f4267f86e19654f60,,,Казаневский В. - Искусство современной карикатуры - 2004.pdf,0,2000-01-01 01:00:00,2017-06-15 16:16:07,,,
30239459,В память Священнаго Коронования Их Императорских Величеств Николая Александровича и Александры Федоровны 14 мая 1896 года.,,,,Эдуард Гоппе,1896,,Типографiа Эдуарда Гоппе,СПбъ.,317,317,Russian (Old),,,0,,,,,,,,,,,,0,,,,,,,0,519888492,pdf,b9ab5519f1ceb4a6d83d164f3bf67ffb,,,В память Священнаго Коронования Их Императорских Величеств Николая Александровича и Александры Федоровны 14 мая 1896 года..pdf,0,2000-01-01 01:00:00,2017-06-15 16:20:04,,История России; Исторические источники; Политология,
30239460,Народное искусство Тверской земли,,,,Калмыкова Л.Э.,1995,,,Тверь,388,388,Russian,57,,0,5-85543-011-1,,,,,,,,,,,0,,,,,,,1,108667518,pdf,f76ebadcdf6015972d713e21232c7b8e,,,Калмыкова Л.Э. - Народное искусство Тверской земли - 1995.pdf,0,2000-01-01 01:00:00,2017-06-15 16:22:48,,,5855430111
30239461,Очерки по истории древнерусского зодчества,,,,Суслов В.В.,1889,,Типографiа А.Ф.Макса,СПбъ.,133,133,Russian (Old),58,,0,,,,,,,,,,,,0,,,,,,,1,140588123,pdf,cf3c923c2564f529da6737695b098ac5,,,Суслов - Очерки по истории древнерусского зодчества. (1889).pdf,0,2000-01-01 01:00:00,2017-06-15 16:25:11,,,
30239462,Народное искусство. Исследования и материалы,,,,Богуславская И.Я. (сост. и научн. ред.),1995,,Palace Edition,,210,210,Russian,57,,0,5-900872-17-3,,,,,,,,,,,0,,,,,,,1,115499418,pdf,d714f6598324bdba5888f9d86eab5733,,,Богуславская И.Я. (сост. и научн. ред.) - Народное искусство. Исследования и материалы - 1995.pdf,0,2000-01-01 01:00:00,2017-06-15 16:29:32,,,5900872173
30239463,Пинежский народный костюм XVIII -  начала XX века.,,,,Пашкова З.Г.,2008,,,Карпогоры,168,168,Russian,191,,0,978-5-85879-539-1,,,,,,,,,,,0,,,,,,,1,118029089,pdf,4ef133f8f4e99125e3e69b52d2a24cf0,,,Пашкова З.Г. - Пинежский народный костюм XVIII - начала XX века - 2008.pdf,0,2000-01-01 01:00:00,2017-06-15 16:32:29,,,9785858795391
30239464,Winning the Brain Game. Fixing the 7 Fatal Flaws of Thinking,,,,Matthew E. May,2016,,McGraw-Hill,,188,188,english,,,0,978-1-259-64240-1,,,,,,,,,,,0,,,,,,,1,1128045,pdf,afc67e63a079db45138d70bbc12e1d16,,,MGH - Winning the Brain Game.pdf,0,2000-01-01 01:00:00,2017-06-15 16:47:31,,,9781259642401
30239465,Shame in the Therapy Hour,,,,"Ronda L. Dearing, June Price Tangney",2011,1,Amer Psychological Assn,,428,438,English,,,0,"1433809672,9781433809675",,,,,,,,,,,0,,,,,,,1,14790233,pdf,58665c559b3ebb5e28d83005830d4494,,,Dearing _amp; Tangney (2011). Shame in the Therapy Hour.pdf,0,2000-01-01 01:00:00,2017-06-15 16:48:56,https://images-na.ssl-images-amazon.com/images/I/419CfbiFQNL.jpg,"Counseling;Psychology & Counseling;Health, Fitness & Dieting;Clinical Psychology;Psychology;Counseling;Psychology;Clinical Psychology;Psychology;Social Sciences;New, Used & Rental Textbooks;Specialty Boutique;Psychotherapy;Psychology;Social Sciences;New, Used & Rental Textbooks;Specialty Boutique","1433809672,9781433809675"
30239466,Complications: A Surgeon’s Notes on an Imperfect Science,,,,Atul Gawande,2003,1st,Picador,,269,0,English,,,0,"0312421702,9780312421700",,,,,,,,,,,0,,,,,,,,437058,azw3,261df2266cc48c67db301ce646f12cd3,,,0312421702.azw3,0,2000-01-01 01:00:00,2017-06-15 16:52:10,https://images-na.ssl-images-amazon.com/images/I/51HPLIENyVL.jpg,Diseases & Physical Ailments;AIDS;Abdominal;Allergies;Alzheimer’s Disease;Asthma;Backache;Cancer;Candida;Chronic Fatigue Syndrome & Fibromyalgia;Chronic Pain;Cystic Fibrosis;Diabetes;Endocrine System;Endometriosis;Epilepsy;Eye Problems;Genetic;Genitourinary & STDs;Headaches;Hearing Problems;Heart Disease;Hepatitis;Herpes;High Blood Pressure;Immune Systems;Infertility;Irritable Bowel Syndrome;Lung & Respiratory Diseases;Lupus;Multiple Sclerosis;Musculoskeletal Diseases;Nervous System;Organ Tran,"0312421702,9780312421700"
30239467,Better: A Surgeon’s Notes on Performance,,,,Atul Gawande,2007,1st,Metropolitan Books,,288,0,English,,,0,"0805082115,9780805082111",,,,,,,,,,,0,,,,,,,,320318,azw3,c94465b714047ea94b479813a1c7c23c,,,0805082115.azw3,0,2000-01-01 01:00:00,2017-06-15 16:54:01,https://images-na.ssl-images-amazon.com/images/I/41H9k9xAK1L.jpg,"Health, Fitness & Dieting;Addiction & Recovery;Aging;Alternative Medicine;Beauty, Grooming, & Style;Children’s Health;Diets & Weight Loss;Diseases & Physical Ailments;Exercise & Fitness;Men’s Health;Mental Health;Nutrition;Psychology & Counseling;Reference;Safety & First Aid;Sexual Health;Sports Health & Safety;Teen Health;Vaccinations;Women’s Health;Reference;Dictionaries & Terminology;Drug Guides;Education & Training;Instruments & Supplies;Medical Atlases;Medicine;General Surgery;Surgery","0805082115,9780805082111"
30239468,The Checklist Manifesto: How to Get Things Right,,,,Atul Gawande,2009,1,Metropolitan Books,,224,0,English,,,0,"0805091742,9780805091748",,,,,,,,,,,0,,,,,,,,292054,azw3,f9af16d70651d591973270c20de6ddec,,,0805091742.azw3,0,2000-01-01 01:00:00,2017-06-15 16:56:37,https://images-na.ssl-images-amazon.com/images/I/413UOf2sjDL.jpg,Family Practice;Internal Medicine;Medicine;General Surgery;Surgery;Medicine;Social Sciences;Children’s Studies;Communication & Media Studies;Criminology;Customs & Traditions;Demography;Disaster Relief;Emigration & Immigration;Folklore & Mythology;Gender Studies;Gerontology;Holidays;Human Geography;Human Sexuality;Library & Information Science;Linguistics;Methodology;Museum Studies & Museology;Philanthropy & Charity;Popular Culture;Pornography;Poverty;Privacy & Surveillance;Reference;Research;S,"0805091742,9780805091748"
30239469,Being Mortal: Medicine and What Matters in the End,,,,Atul Gawande,2014,1,Metropolitan Books,,304,0,English,,,0,"0805095152,9780805095159",,,,,,,,,,,0,,,,,,,,392282,azw3,9a0f794e4726ffabf89b225ec294bca5,,,0805095152.azw3,0,2000-01-01 01:00:00,2017-06-15 17:02:15,https://images-na.ssl-images-amazon.com/images/I/51C9yK9VzzL.jpg,Health Care Delivery;Administration & Medicine Economics;Health Policy;Administration & Medicine Economics;Hospice Care;Medicine;Death;Sociology;Politics & Social Sciences,"0805095152,9780805095159"
30239470,Pedagogia do oprimido,,,,Paulo Freire,1974,1,Paz e Terra,Rio de Janeiro,220,115,Portuguese,183,,0,,,,,,,,,,,,0,0,,1,1,1,0,1,8794063,pdf,9634abdbc466f76f72d5867277d18315,,,"FREIRE, Paulo. Pedagogia do oprimido.pdf",0,2000-01-01 01:00:00,2017-06-15 17:02:46,,,
30239471,Театрал,,,,Греч Н.И.,1853,,Типография Н. Греча,,,162,Russian,,,,-,,,,,,,,,,,0,,,,,,0,1,37959134,pdf,25c2fd4d768b164089e605624a96fb6a,,,Греч Н.И.;Театрал;;;Типография Н. Греча;1853;-;;Russian,0,2000-01-01 01:00:00,2017-06-15 17:07:36,1573000/25c2fd4d768b164089e605624a96fb6a-g.jpg,,
30239472,Иллюстрированный практический путеводитель по Одессе,,,,Москвич Г.Г.,1904,,Типография Л. Нитче (Одесса),,,193,Russian,,,,-,,,,,,,,,,,0,,,,,,0,1,114294202,pdf,6056c19c1332a4c10e4a7a718155860f,,,Москвич Г.Г.;Иллюстрированный практический путеводитель по Одессе;;;Типография Л. Нитче (Одесса);1904;-;;Russian,0,2000-01-01 01:00:00,2017-06-15 17:07:36,1577000/6056c19c1332a4c10e4a7a718155860f-g.jpg,,
30239473,«Отчизну сердцем защитили»  Стихи поэтов Тейковского района,,,,,2011,,"ОАО «Издательство «Иваново»,",,,64,Russian,,,,-,,,,,,,,,,,0,,,,,,0,1,2010197,pdf,ca229279281b8a331bc80b0e6cfa53f2,,,";«Отчизну сердцем защитили»  Стихи поэтов Тейковского района;;;ОАО «Издательство «Иваново»,;2011;-;;Russian",0,2000-01-01 01:00:00,2017-06-15 17:07:36,1585000/ca229279281b8a331bc80b0e6cfa53f2-g.jpg,,
30239474,Recettes Angéliques. Le bœuf: Le goût d’être ensemble,,,,(Collective),2012,,INTERBEV,,0,32,French,,,0,-,,,,,,,,,,,0,,,,,,0,1,3164060,pdf,be017384eb788f84803d6cf2728a3a68,,,;Recettes Angliques. Le boeuf Le got d’tre ensemble;;;INTERBEV;2012;-;;French,0,2000-01-01 01:00:00,2017-06-15 17:07:36,1585000/be017384eb788f84803d6cf2728a3a68-g.jpg,,
30239475,A World Of Animals Vol. 2,,Painting- Animals,,Ana Bernabe,2002,,Viking folk Art,,,60,English,,,,-,,,,,,,,,,,0,,,,,,0,0,50405079,pdf,857f613ba692b86d043d09c24061c24a,,,Ana Bernabe;A World Of Animals Vol. 2;Painting- Animals;;Viking folk Art;2002;-;;English,0,2000-01-01 01:00:00,2017-06-15 17:07:36,1585000/857f613ba692b86d043d09c24061c24a-g.jpg,,
30239476,A World Of Animals Vol. 3,,Painting- Animals,,Ana Bernabe,2003,,Viking folk Art,,,65,English,,,,-,,,,,,,,,,,0,,,,,,0,0,46544505,pdf,d2dbe9b1e95bf109a85cf033d923f5a2,,,Ana Bernabe;A World Of Animals Vol. 3;Painting- Animals;;Viking folk Art;2003;-;;English,0,2000-01-01 01:00:00,2017-06-15 17:07:36,1585000/d2dbe9b1e95bf109a85cf033d923f5a2-g.jpg,,
30239477,20 Easy DIY Holiday Craft,,,,Collective,2015,,FloraCraft,,0,58,English,,,0,-,,,,,,,,,,,0,,,,,,0,1,19194778,pdf,b5d1f6e32d9acffad14ecfb28dac3ac6,,,"Collective;20 Easy DIY Holiday Craft;;;FloraCraft, Prime Publishing LLC;2015;-;;English",0,2000-01-01 01:00:00,2017-06-15 17:07:36,1585000/b5d1f6e32d9acffad14ecfb28dac3ac6-g.jpg,,
30239478,Описание 3-х линейной винтовки образца 1891 года,,,,,1891,,"Издание Офицерской стрелковой школы, Типография И,Н, Скороходова (СПб",,,16,Russian,,,,-,,,,,,,,,,,0,,,,,,0,1,20685620,pdf,3249fcdc9c40bf854fcfbf1ef55e4d9d,,,";Описание 3-х линейной винтовки образца 1891 года;;;Издание Офицерской стрелковой школы, Типография И,Н, Скороходова (СПб;1891;-;;Russian",0,2000-01-01 01:00:00,2017-06-15 17:07:36,1630000/3249fcdc9c40bf854fcfbf1ef55e4d9d-g.jpg,,
30239479,Третье отделение при Николае I,,,,Троцкий И.М.,1930,,Издательство Всесоюзного общества политкаторжан и ссыльно-поселенцев,,,74,Russian,,,,-,,,,,,,,,,,0,,,,,,0,1,39399144,pdf,e7c5d9cf33dd069059147f4c08996e2b,,,Троцкий И.М.;Третье отделение при Николае I;;;Издательство Всесоюзного общества политкаторжан и ссыльно-поселенцев;1930;-;;Russian,0,2000-01-01 01:00:00,2017-06-15 17:07:36,1630000/e7c5d9cf33dd069059147f4c08996e2b-g.jpg,,
30239480,Занимательные задачи и опыты,,,,Перельман Я.И.,1972,,Детская литература,,,472,Russian,,,,-,,,,,,,,,,,0,,,,,,0,1,167718439,pdf,0fc1642694a8224f1a8df67f677f4c26,,,Перельман Я.И.;Занимательные задачи и опыты;;;Детская литература;1972;-;;Russian,0,2000-01-01 01:00:00,2017-06-15 17:07:36,1630000/0fc1642694a8224f1a8df67f677f4c26-g.jpg,,
30239481,Сад и огород в доме,,,,Попов Е.Б.,1985,,Детская литература,,,120,Russian,,,,-,,,,,,,,,,,0,,,,,,0,1,48066991,pdf,fe06f74051bf5081ef51978cd47a993c,,,Попов Е.Б.;Сад и огород в доме;;;Детская литература;1985;-;;Russian,0,2000-01-01 01:00:00,2017-06-15 17:07:36,1631000/fe06f74051bf5081ef51978cd47a993c-g.jpg,,
30239482,Oceanografie. eseuri,,,,Mircea Eliade,1934,1st edition,Cultura Populara,București,304,304,Romanian,195,,0,-,,,,,,,,,,ocr by epistematic,0,,,,,,,1,17299949,pdf,f5e05a11cfc53acb1e4e292fa66c1bd2,,,Eliade Oceanografie 1934 ocr lipsa.pdf,0,2000-01-01 01:00:00,2017-06-15 17:07:36,1685000/f5e05a11cfc53acb1e4e292fa66c1bd2-g.jpg,,
30239483,Cum ne construim dușmanul: și alte scrieri ocazionale,,,,Umberto Eco,2007,3rd edition,Polirom,Iasi,352,352,Romanian,,,0,-,,,,,,,,,,"ocr by epistematic, scan sdr",300,,,,,,0,1,11499669,pdf,9d2e9c43400588086e983e18322889e4,,,Umberto Eco - Cum ne construim dușmanii ocr.pdf,0,2000-01-01 01:00:00,2017-06-15 17:07:36,1689000/9d2e9c43400588086e983e18322889e4-g.jpg,,
30239484,A História do Século XX,,,,Martin Gilbert,2017,1,Planeta - Crítica,,830,0,Portuguese,,,0,"8542209648, 9788542209648",,,,,,,,oqUBDgAAQBAJ&q,,Tradução de: History of the twentieth century,0,,,,,,,,7949121,epub,58f8d7688319afb7548e802ca87ddd2d,,,A Historia do Seculo XX - Martin Gilbert.epub,0,2000-01-01 01:00:00,2017-06-15 17:11:11,1693000/58f8d7688319afb7548e802ca87ddd2d-g.jpg,,"8542209648,9788542209648"
30239485,Lange Clinical Neurology and Neuroanatomy: A Localization-Based Approach,,,,Aaron Berkowitz,2016,1,McGraw-Hill Education / Medical,,336,337,English,,,0,"1259834409,9781259834400",,,,,,,,,,,0,,,,,,,1,119821098,pdf,cbaf78ca8015111a54776469d9d29632,,,Lange Clinical Neurology and Neuroanatomy.pdf,0,2000-01-01 01:00:00,2017-06-15 17:20:02,https://images-na.ssl-images-amazon.com/images/I/51DzsIzVLOL.jpg,"Anatomy;Basic Sciences;Neuroscience;Neurology;Internal Medicine;Medicine;Anatomy;Basic Sciences;Medicine;Medicine & Health Sciences;New, Used & Rental Textbooks;Specialty Boutique;Neuroscience;Basic Sciences;Medicine;Medicine & Health Sciences;New, Used & Rental Textbooks;Specialty Boutique;Neurology;Clinical;Medicine;Medicine & Health Sciences;New, Used & Rental Textbooks;Specialty Boutique","1259834409,9781259834400"
30239486,Af menníngarástandi,,,,Halldór Laxness,0,,,,187,187,Icelandic,,,0,,,,,,,,,,,,0,,,,,,,1,6995876,pdf,cbe22dec5eee5971d05bb7faf7416996,,,Halldór Laxness - Af menníngarástandi cs.pdf,0,2000-01-01 01:00:00,2017-06-15 17:26:11,,,
30239487,"Les romans de Chrétien de Troyes édités d’après la copie de Guiot (Bibl. nat., fr. 794). I. Erec et Enide",1,Les classiques français du Moyen Âge 80,,Chrétien de Troyes; Mario Roques,1966,,Champion,Paris,352,352,French,102,,0,,,,,,,,,,,publié par Mario Roques,0,,,,,,,0,7854479,pdf,b0ec6e0be101a0e945e9d27a042ebccb,,,Erec et Enide.pdf,0,2000-01-01 01:00:00,2017-06-15 17:31:51,,,
30239488,ADO ActiveX data objects,,,,Jason T. Roff,2001,,O’Reilly & Associates,,634,634,English,,,0,9781565924154,,,,,,,,,,,0,,,,,,,1,5094352,pdf,63e765aecc9a2cdbd9bac78dc9ffc661,,,(ISBN 9781565924154).pdf,0,2000-01-01 01:00:00,2017-06-15 17:34:50,,,9781565924154
30239489,LE CHRIST ET LA TRINITÉ SELON MAXIME LE CONFESSEUR,,Théologie Historique  69,,Pierre PIRET,0,,,,208,208,French,205,,0,,,,,,,,,,,,0,,,,,,,1,14350140,pdf,bb4a5bac68bd8ddc3cc5301b2bf0d1b5,,,Maximus vs Le Christ et la Trinite selon Maxime le Confesseur.pdf,0,2000-01-01 01:00:00,2017-06-15 17:40:09,,,
30239490,Trú í sögum - Um heiðni og kristni í sögum og samtíma Gunnars Gunnarssonar,,,,Halla Kjartansdóttir,0,,,,166,166,Icelandic,,,0,,,,,,,,,,,,0,,,,,,,1,11338595,pdf,a9c46027ea025b0a60855b8c85957b83,,,Trú í sögum - Um heiðni og kristni í sögum og samtíma Gunnars Gunnarssonar - Halla Kjartansdóttir cs.pdf,0,2000-01-01 01:00:00,2017-06-15 17:40:51,,,
30239491,UNE CHAIR POUR LA GLOIRE. L’ANTHROPOLOGIE RÉALISTE ET MYSTIQUE DE TERTULLIEN,,Théologie Historique 115,,Jérôme ALEXANDRE,0,,,,287,287,French,205,,0,,,,,,,,,,,,0,,,,,,,1,20620899,pdf,784f16d31cd9cfb0dcf19b0e999f3007,,,Tertullien vs Une Chair pur la Gloire.pdf,0,2000-01-01 01:00:00,2017-06-15 17:49:33,,,
30239492,L’ÉGLISE PRIMITIVE FACE AU DIVORCE,,Théologie Historique  13,,Henri Crouzel,0,,,,208,208,French,205,,0,,,,,,,,,,,,0,,,,,,,1,16978993,pdf,3d0785fc52f520d8aaab79bdc9ccdcd1,,,L__039;Eglise primitive face au divorce Henri Crouzel.pdf,0,2000-01-01 01:00:00,2017-06-15 17:56:53,,,
30239493,Театрал,,,,Греч Н.И.,1853,,Типография Н. Греча,,,162,Russian,,,,-,,,,,,,,,,,0,,,,,,0,1,37959134,pdf,25c2fd4d768b164089e605624a96fb6a,,,Греч Н.И.;Театрал;;;Типография Н. Греча;1853;-;;Russian,0,2000-01-01 01:00:00,2017-06-15 18:07:37,1573000/25c2fd4d768b164089e605624a96fb6a-g.jpg,,
30239494,Иллюстрированный практический путеводитель по Одессе,,,,Москвич Г.Г.,1904,,Типография Л. Нитче (Одесса),,,193,Russian,,,,-,,,,,,,,,,,0,,,,,,0,1,114294202,pdf,6056c19c1332a4c10e4a7a718155860f,,,Москвич Г.Г.;Иллюстрированный практический путеводитель по Одессе;;;Типография Л. Нитче (Одесса);1904;-;;Russian,0,2000-01-01 01:00:00,2017-06-15 18:07:37,1577000/6056c19c1332a4c10e4a7a718155860f-g.jpg,,
30239495,«Отчизну сердцем защитили»  Стихи поэтов Тейковского района,,,,,2011,,"ОАО «Издательство «Иваново»,",,,64,Russian,,,,-,,,,,,,,,,,0,,,,,,0,1,2010197,pdf,ca229279281b8a331bc80b0e6cfa53f2,,,";«Отчизну сердцем защитили»  Стихи поэтов Тейковского района;;;ОАО «Издательство «Иваново»,;2011;-;;Russian",0,2000-01-01 01:00:00,2017-06-15 18:07:37,1585000/ca229279281b8a331bc80b0e6cfa53f2-g.jpg,,
30239496,Recettes Angéliques. Le bœuf: Le goût d’être ensemble,,,,(Collective),2012,,INTERBEV,,0,32,French,,,0,-,,,,,,,,,,,0,,,,,,0,1,3164060,pdf,be017384eb788f84803d6cf2728a3a68,,,;Recettes Angliques. Le boeuf Le got d’tre ensemble;;;INTERBEV;2012;-;;French,0,2000-01-01 01:00:00,2017-06-15 18:07:37,1585000/be017384eb788f84803d6cf2728a3a68-g.jpg,,
30239497,A World Of Animals Vol. 2,,Painting- Animals,,Ana Bernabe,2002,,Viking folk Art,,,60,English,,,,-,,,,,,,,,,,0,,,,,,0,0,50405079,pdf,857f613ba692b86d043d09c24061c24a,,,Ana Bernabe;A World Of Animals Vol. 2;Painting- Animals;;Viking folk Art;2002;-;;English,0,2000-01-01 01:00:00,2017-06-15 18:07:37,1585000/857f613ba692b86d043d09c24061c24a-g.jpg,,
30239498,A World Of Animals Vol. 3,,Painting- Animals,,Ana Bernabe,2003,,Viking folk Art,,,65,English,,,,-,,,,,,,,,,,0,,,,,,0,0,46544505,pdf,d2dbe9b1e95bf109a85cf033d923f5a2,,,Ana Bernabe;A World Of Animals Vol. 3;Painting- Animals;;Viking folk Art;2003;-;;English,0,2000-01-01 01:00:00,2017-06-15 18:07:37,1585000/d2dbe9b1e95bf109a85cf033d923f5a2-g.jpg,,
30239499,20 Easy DIY Holiday Craft,,,,Collective,2015,,FloraCraft,,0,58,English,,,0,-,,,,,,,,,,,0,,,,,,0,1,19194778,pdf,b5d1f6e32d9acffad14ecfb28dac3ac6,,,"Collective;20 Easy DIY Holiday Craft;;;FloraCraft, Prime Publishing LLC;2015;-;;English",0,2000-01-01 01:00:00,2017-06-15 18:07:37,1585000/b5d1f6e32d9acffad14ecfb28dac3ac6-g.jpg,,
30239500,Описание 3-х линейной винтовки образца 1891 года,,,,,1891,,"Издание Офицерской стрелковой школы, Типография И,Н, Скороходова (СПб",,,16,Russian,,,,-,,,,,,,,,,,0,,,,,,0,1,20685620,pdf,3249fcdc9c40bf854fcfbf1ef55e4d9d,,,";Описание 3-х линейной винтовки образца 1891 года;;;Издание Офицерской стрелковой школы, Типография И,Н, Скороходова (СПб;1891;-;;Russian",0,2000-01-01 01:00:00,2017-06-15 18:07:37,1630000/3249fcdc9c40bf854fcfbf1ef55e4d9d-g.jpg,,
30239501,Третье отделение при Николае I,,,,Троцкий И.М.,1930,,Издательство Всесоюзного общества политкаторжан и ссыльно-поселенцев,,,74,Russian,,,,-,,,,,,,,,,,0,,,,,,0,1,39399144,pdf,e7c5d9cf33dd069059147f4c08996e2b,,,Троцкий И.М.;Третье отделение при Николае I;;;Издательство Всесоюзного общества политкаторжан и ссыльно-поселенцев;1930;-;;Russian,0,2000-01-01 01:00:00,2017-06-15 18:07:37,1630000/e7c5d9cf33dd069059147f4c08996e2b-g.jpg,,
30239502,Занимательные задачи и опыты,,,,Перельман Я.И.,1972,,Детская литература,,,472,Russian,,,,-,,,,,,,,,,,0,,,,,,0,1,167718439,pdf,0fc1642694a8224f1a8df67f677f4c26,,,Перельман Я.И.;Занимательные задачи и опыты;;;Детская литература;1972;-;;Russian,0,2000-01-01 01:00:00,2017-06-15 18:07:37,1630000/0fc1642694a8224f1a8df67f677f4c26-g.jpg,,
30239503,Сад и огород в доме,,,,Попов Е.Б.,1985,,Детская литература,,,120,Russian,,,,-,,,,,,,,,,,0,,,,,,0,1,48066991,pdf,fe06f74051bf5081ef51978cd47a993c,,,Попов Е.Б.;Сад и огород в доме;;;Детская литература;1985;-;;Russian,0,2000-01-01 01:00:00,2017-06-15 18:07:37,1631000/fe06f74051bf5081ef51978cd47a993c-g.jpg,,
30239504,Oceanografie. eseuri,,,,Mircea Eliade,1934,1st edition,Cultura Populara,București,304,304,Romanian,195,,0,-,,,,,,,,,,ocr by epistematic,0,,,,,,,1,17299949,pdf,f5e05a11cfc53acb1e4e292fa66c1bd2,,,Eliade Oceanografie 1934 ocr lipsa.pdf,0,2000-01-01 01:00:00,2017-06-15 18:07:37,1685000/f5e05a11cfc53acb1e4e292fa66c1bd2-g.jpg,,
30239505,Cum ne construim dușmanul: și alte scrieri ocazionale,,,,Umberto Eco,2007,3rd edition,Polirom,Iasi,352,352,Romanian,,,0,-,,,,,,,,,,"ocr by epistematic, scan sdr",300,,,,,,0,1,11499669,pdf,9d2e9c43400588086e983e18322889e4,,,Umberto Eco - Cum ne construim dușmanii ocr.pdf,0,2000-01-01 01:00:00,2017-06-15 18:07:37,1689000/9d2e9c43400588086e983e18322889e4-g.jpg,,
30239506,"LITURGIE, FOI ET VIE DES PREMIERS CHRÉTIENS",,Théologie Historique  75,,Willy RORDORF,0,,,,265,265,French,205,,0,,,,,,,,,,,,0,,,,,,,1,21097959,pdf,9841a640b175588840f03f298966bd9c,,,Liturgie foi et vie des premiers Chretiens.pdf,0,2000-01-01 01:00:00,2017-06-15 18:16:55,,,
30239507,A Lexicon of the Homeric Dialect,,,,"Cunliffe, Richard John",1963,,University of Oklahoma Press,Norman,453,453,Ancient Greek,322,,0,0806114304 / 9780806114309,,,,,,,,,,,0,,,,,,,0,18154450,pdf,97764fa171f9145c1988b8ebdfc43fa1,,,"Cunliffe, A Lexicon of the Homeric Dialect.pdf",0,2000-01-01 01:00:00,2017-06-15 18:20:26,,,0806114304/9780806114309
30239508,Le roman de Renart le contrefait,1,,,Gaston Raynaud; Henri Lemaître,1975,,Slatkine Reprints,Genève,402,402,French,102,,0,,,,,,,,,,,publié par Gaston Raynaud et Henri Lemaître,0,,,,,,,0,31805796,pdf,18c52146b97028efbf2bbe2281ebff24,,,contrefait1.pdf,0,2000-01-01 01:00:00,2017-06-15 18:29:39,,,
30239509,Le roman de Renart le contrefait,2,,,Gaston Raynaud; Henri Lemaître,1975,,Slatkine Reprints,Genève,364,364,French,102,,0,,,,,,,,,,,publié par Gaston Raynaud et Henri Lemaître,0,,,,,,,0,21202525,pdf,c5ce87f3d0d5c7e031918b8148b3a892,,,contrefait2.pdf,0,2000-01-01 01:00:00,2017-06-15 18:32:47,,,
30239510,"LITURGIE, FOI ET VIE DES PREMIERS CHRÉTIENS",,Théologie Historique  75,,Willy RORDORF,0,,,,265,265,French,205,,0,,,,,,,,,,,,0,,,,,,,1,21097959,pdf,9841a640b175588840f03f298966bd9c,,,Liturgie foi et vie des premiers Chretiens.pdf,0,2000-01-01 01:00:00,2017-06-15 18:34:47,1693000/9841a640b175588840f03f298966bd9c-g.jpg,,
30239511,Mekanın poetikası = La Poétique de l’espace.,,,,"Bachelard, Gaston; Derman, Aykut",1996,,Kesit,İstanbul,263,260,Turkish,,,0,"9789758008025,9758008021",,,,,,,,,,,0,0,1,1,0,1,0,0,5953944,pdf,bbcec0606a56a60080861a367e70db5b,,,Gaston Bachelard - Mekanın Poetikası.pdf,0,2000-01-01 01:00:00,2017-06-15 18:46:54,,Space and time;Imagination;Poetry;Mekan ve zaman;Şiir;Hayal gücü,"9789758008025,9758008021"
30239512,Peixe-elétrico Bob Dylan - Edição especial,,,,Bob Dylan & Alcir Pécora & Perry Anderson & Ricardo Lísias & Victor Heringer & Walnice Nogueira Galvão,2017,,e-galáxia,,0,0,Portuguese,,,0,9788584741496,,,,,,,,,,,0,,,,,,,,525654,epub,489cd0977bcef70e10cde7dd274b342c,,,"DYLAN, Bob - Peixe-elétrico especial (retail).epub",0,2000-01-01 01:00:00,2017-06-15 19:03:12,,,9788584741496
30239513,Declaração dos Direitos da Mulher e da Cidadã,,,,Olympe de Gouges,2010,,Nova Delphi,Funchal,0,0,Portuguese,,,0,9789898407238,,,,,,,,,,,0,,,,,,,,95769,epub,134b7e3001479bdca9981a976e6e62ca,,,"GOUGES, Olympe - Declaração dos Direitos da Mulher e da Cidadã (retail).epub",0,2000-01-01 01:00:00,2017-06-15 19:03:51,,,9789898407238
30239514,Os Limites da Interpretação,,,,Umberto Eco,2016,,Editora Perspectiva,São Paulo,0,0,Portuguese,,,0,,,,,,,,,,,,0,,,,,,,,876261,epub,f86ef1e583eeedbb313148db9d42388a,,,"ECO, Umberto - Os limites da interpretação (retail).epub",0,2000-01-01 01:00:00,2017-06-15 19:04:01,,,
30239515,História da menina perdida - Maturidade e Velhice (Série Napolitana),,,,Elena Ferrante,2017,,Biblioteca Azul,São Paulo,0,0,Portuguese,,,0,,,,,,,,,,,,0,,,,,,,,566150,epub,119a817665e86335f40c568cedd3b38e,,,"FERRANTE, Elena - História da menina perdida (retail).epub",0,2000-01-01 01:00:00,2017-06-15 19:05:29,,,
30239516,Obra Aberta - Forma e Indeterminação nas Poéticas Contemporâneas,,,,Umberto Eco,2016,,Editora Perspectiva,São Paulo,0,0,Portuguese,,,0,,,,,,,,,,,,0,,,,,,,,716976,epub,c5949220d73f22450ac4ef2d225dcfb1,,,"ECO, Umberto - Obra aberta (retail).epub",0,2000-01-01 01:00:00,2017-06-15 19:06:12,,,
30239517,Театрал,,,,Греч Н.И.,1853,,Типография Н. Греча,,,162,Russian,,,,-,,,,,,,,,,,0,,,,,,0,1,37959134,pdf,25c2fd4d768b164089e605624a96fb6a,,,Греч Н.И.;Театрал;;;Типография Н. Греча;1853;-;;Russian,0,2000-01-01 01:00:00,2017-06-15 19:07:36,1573000/25c2fd4d768b164089e605624a96fb6a-g.jpg,,
30239518,Иллюстрированный практический путеводитель по Одессе,,,,Москвич Г.Г.,1904,,Типография Л. Нитче (Одесса),,,193,Russian,,,,-,,,,,,,,,,,0,,,,,,0,1,114294202,pdf,6056c19c1332a4c10e4a7a718155860f,,,Москвич Г.Г.;Иллюстрированный практический путеводитель по Одессе;;;Типография Л. Нитче (Одесса);1904;-;;Russian,0,2000-01-01 01:00:00,2017-06-15 19:07:36,1577000/6056c19c1332a4c10e4a7a718155860f-g.jpg,,
30239519,«Отчизну сердцем защитили»  Стихи поэтов Тейковского района,,,,,2011,,"ОАО «Издательство «Иваново»,",,,64,Russian,,,,-,,,,,,,,,,,0,,,,,,0,1,2010197,pdf,ca229279281b8a331bc80b0e6cfa53f2,,,";«Отчизну сердцем защитили»  Стихи поэтов Тейковского района;;;ОАО «Издательство «Иваново»,;2011;-;;Russian",0,2000-01-01 01:00:00,2017-06-15 19:07:36,1585000/ca229279281b8a331bc80b0e6cfa53f2-g.jpg,,
30239520,Recettes Angéliques. Le bœuf: Le goût d’être ensemble,,,,(Collective),2012,,INTERBEV,,0,32,French,,,0,-,,,,,,,,,,,0,,,,,,0,1,3164060,pdf,be017384eb788f84803d6cf2728a3a68,,,;Recettes Angliques. Le boeuf Le got d’tre ensemble;;;INTERBEV;2012;-;;French,0,2000-01-01 01:00:00,2017-06-15 19:07:36,1585000/be017384eb788f84803d6cf2728a3a68-g.jpg,,
30239521,A World Of Animals Vol. 2,,Painting- Animals,,Ana Bernabe,2002,,Viking folk Art,,,60,English,,,,-,,,,,,,,,,,0,,,,,,0,0,50405079,pdf,857f613ba692b86d043d09c24061c24a,,,Ana Bernabe;A World Of Animals Vol. 2;Painting- Animals;;Viking folk Art;2002;-;;English,0,2000-01-01 01:00:00,2017-06-15 19:07:36,1585000/857f613ba692b86d043d09c24061c24a-g.jpg,,
30239522,A World Of Animals Vol. 3,,Painting- Animals,,Ana Bernabe,2003,,Viking folk Art,,,65,English,,,,-,,,,,,,,,,,0,,,,,,0,0,46544505,pdf,d2dbe9b1e95bf109a85cf033d923f5a2,,,Ana Bernabe;A World Of Animals Vol. 3;Painting- Animals;;Viking folk Art;2003;-;;English,0,2000-01-01 01:00:00,2017-06-15 19:07:36,1585000/d2dbe9b1e95bf109a85cf033d923f5a2-g.jpg,,
30239523,20 Easy DIY Holiday Craft,,,,Collective,2015,,FloraCraft,,0,58,English,,,0,-,,,,,,,,,,,0,,,,,,0,1,19194778,pdf,b5d1f6e32d9acffad14ecfb28dac3ac6,,,"Collective;20 Easy DIY Holiday Craft;;;FloraCraft, Prime Publishing LLC;2015;-;;English",0,2000-01-01 01:00:00,2017-06-15 19:07:36,1585000/b5d1f6e32d9acffad14ecfb28dac3ac6-g.jpg,,
30239524,Описание 3-х линейной винтовки образца 1891 года,,,,,1891,,"Издание Офицерской стрелковой школы, Типография И,Н, Скороходова (СПб",,,16,Russian,,,,-,,,,,,,,,,,0,,,,,,0,1,20685620,pdf,3249fcdc9c40bf854fcfbf1ef55e4d9d,,,";Описание 3-х линейной винтовки образца 1891 года;;;Издание Офицерской стрелковой школы, Типография И,Н, Скороходова (СПб;1891;-;;Russian",0,2000-01-01 01:00:00,2017-06-15 19:07:36,1630000/3249fcdc9c40bf854fcfbf1ef55e4d9d-g.jpg,,
30239525,Третье отделение при Николае I,,,,Троцкий И.М.,1930,,Издательство Всесоюзного общества политкаторжан и ссыльно-поселенцев,,,74,Russian,,,,-,,,,,,,,,,,0,,,,,,0,1,39399144,pdf,e7c5d9cf33dd069059147f4c08996e2b,,,Троцкий И.М.;Третье отделение при Николае I;;;Издательство Всесоюзного общества политкаторжан и ссыльно-поселенцев;1930;-;;Russian,0,2000-01-01 01:00:00,2017-06-15 19:07:36,1630000/e7c5d9cf33dd069059147f4c08996e2b-g.jpg,,
30239526,Занимательные задачи и опыты,,,,Перельман Я.И.,1972,,Детская литература,,,472,Russian,,,,-,,,,,,,,,,,0,,,,,,0,1,167718439,pdf,0fc1642694a8224f1a8df67f677f4c26,,,Перельман Я.И.;Занимательные задачи и опыты;;;Детская литература;1972;-;;Russian,0,2000-01-01 01:00:00,2017-06-15 19:07:36,1630000/0fc1642694a8224f1a8df67f677f4c26-g.jpg,,
30239527,Сад и огород в доме,,,,Попов Е.Б.,1985,,Детская литература,,,120,Russian,,,,-,,,,,,,,,,,0,,,,,,0,1,48066991,pdf,fe06f74051bf5081ef51978cd47a993c,,,Попов Е.Б.;Сад и огород в доме;;;Детская литература;1985;-;;Russian,0,2000-01-01 01:00:00,2017-06-15 19:07:36,1631000/fe06f74051bf5081ef51978cd47a993c-g.jpg,,
30239528,Oceanografie. eseuri,,,,Mircea Eliade,1934,1st edition,Cultura Populara,București,304,304,Romanian,195,,0,-,,,,,,,,,,ocr by epistematic,0,,,,,,,1,17299949,pdf,f5e05a11cfc53acb1e4e292fa66c1bd2,,,Eliade Oceanografie 1934 ocr lipsa.pdf,0,2000-01-01 01:00:00,2017-06-15 19:07:36,1685000/f5e05a11cfc53acb1e4e292fa66c1bd2-g.jpg,,
30239529,Cum ne construim dușmanul: și alte scrieri ocazionale,,,,Umberto Eco,2007,3rd edition,Polirom,Iasi,352,352,Romanian,,,0,-,,,,,,,,,,"ocr by epistematic, scan sdr",300,,,,,,0,1,11499669,pdf,9d2e9c43400588086e983e18322889e4,,,Umberto Eco - Cum ne construim dușmanii ocr.pdf,0,2000-01-01 01:00:00,2017-06-15 19:07:36,1689000/9d2e9c43400588086e983e18322889e4-g.jpg,,
30239530,"A Byzantine Government in Exile: Government and Society Under the Laskarids of Nicaea, 1204-1261",,,,"Angold, Michael",1975,,Oxford University Press,Oxford,"xx, 332",178,English,64,,0,0198218540,,0198218540,,JC93 .A54 1975,320.9/561/01,75315953,,T_0cAAAAYAAJ,OL5244193M,,0,,,1,0,1,0,0,30927165,pdf,432c067ca7142b1ba53957e219412e6c,,,"Angold, __039;A Byzantine Government in Exile__039;.pdf",0,2000-01-01 01:00:00,2017-06-15 19:25:45,"https://images-na.ssl-images-amazon.com/images/I/41c7g6ZWByL._SX307_BO1,204,203,200_.jpg","byzantium, byzantine history, laskarids, nicaea, turks, asia minor, thirteenth century, john iii vatatzes, theodore i lascaris, theodore ii lascaris",0198218540
30239531,To empolemo Vyzantio Byzantium at War (9-12th c.),,Diethnē symposia 4,,Kostas Tsiknakes (ed.),1997,,Idryma Goulandrē-Chorn,Athens,281,141,Greek,64,,0,960-371-001-6,1106-1448,9603710016,,,,,,8EVoAAAAMAAJ,OL9159350M,,0,,,1,0,1,0,0,14202813,pdf,87bc0ef51f22d52c94e14641a62b8d49,,,"ed. Tsiknakis, __039;Byzantium at War 9-12th c.__039;.pdf",0,2000-01-01 01:00:00,2017-06-15 19:34:48,https://cdn.ianos.gr/media/catalog/product/cache/1/image/650x650/17f82f742ffe127f42dca9de82fb58b1/b/1/b1742b75-0e32-4ea9-b509-d34a2b987f65_3.jpg,"byzantium, byzantine history, medieval history, military history",9603710016
30239532,"Liturgie, foi et vie des premiers chrétiens : Etudes patristiques",,Théologie Historique  75,,Willy Rordorf,1997,,Beauchesne Editions,Paris,265,530,French,205,,0,2701011221 978270101122,,,,,,,,,,,0,,,,,,,1,24120445,pdf,6a5447f3474b317ba1515d58c35f3f42,,,Theologie_Historique_75.pdf,0,2000-01-01 01:00:00,2017-06-15 19:35:34,,,2701011221978270101122
30239533,"Liturgie, foi et vie des premiers chrétiens : Etudes patristiques",,Théologie Historique  75,,Willy Rordorf,1997,,Beauchesne Editions,Paris,265,265,French,205,,0,2701011221 978270101122,,,,,,,,,,,0,,,,,,,1,21097959,pdf,9841a640b175588840f03f298966bd9c,,,Liturgie foi et vie des premiers Chretiens.pdf,0,2000-01-01 01:00:00,2017-06-15 19:35:56,1693000/9841a640b175588840f03f298966bd9c-g.jpg,,2701011221978270101122
30239534,L’Eglise primitive face au divorce,,Théologie Historique 13,,Henri Crouzel,1997,,Editions Beauchesne,Paris,416,416,French,205,,0,2701000475 9782701000473,,,,,,,,,,,0,,,,,,,1,24643838,pdf,a93bb5bd7b4e6a50cabbdd8b59da529e,,,Theologie_Historique_13.pdf,0,2000-01-01 01:00:00,2017-06-15 19:38:35,,,27010004759782701000473
30239535,L’ÉGLISE PRIMITIVE FACE AU DIVORCE,,Théologie Historique  13,,Henri Crouzel,0,,,,208,208,French,205,,0,,,,,,,,,,,,0,,,,,,,1,16978993,pdf,3d0785fc52f520d8aaab79bdc9ccdcd1,,,L__039;Eglise primitive face au divorce Henri Crouzel.pdf,0,2000-01-01 01:00:00,2017-06-15 19:38:51,1693000/3d0785fc52f520d8aaab79bdc9ccdcd1-g.jpg,,
30239536,MORTS MARTYRS RELIQUES EN AFRIQUE CHRÉTIENNE AUX PREMIERS SIÈCLES,,Théologie Historique 55,,Victor SAXER,0,,,,173,173,English,205,,0,,,,,,,,,,,,0,,,,,,,1,11962705,pdf,38d74eaba315932e52a56d0430ac6e39,,,"Morts Martyrs Reliques, Tertullie, Cyprien, Augustin.pdf",0,2000-01-01 01:00:00,2017-06-15 19:45:00,,,
30239537,Cosmic Rays and Particle Physics,,,,"Thomas K. Gaisser, Ralph Engel, Elisa Resconi",2016,2,Cambridge University Press,,458,458,English,266,,0,"9780521016469,  0521016460",,,,,,,,,,,0,,,,,,,1,14098463,pdf,b770b109338ab083411efacb72dd48f5,,,"Cosmic Rays and Particle Physics, 2nd Edition.pdf",0,2000-01-01 01:00:00,2017-06-15 19:50:32,http://www.cambridge.org/gb/academic/subjects/physics/cosmology-relativity-and-gravitation/cosmic-rays-and-particle-physics-2nd-edition?format=HB#XDoB80QZROgxsIwX.97,"Cosmic Rays, Particle Physics, Astrophysics","9780521016469,0521016460"
30239538,Une chair pour la gloire : L’anthropologie réaliste et mystique de Tertullien,,Théologie Historique 115,,Jérôme Alexandre,2001,,Editions Beauchesne,Paris,574,574,French,205,,0,2701014220 9782701014227,,,,,,,,,,,0,,,,,,,1,31001531,pdf,c8e212e4602dc870c75f40885bff42bd,,,Theologie_Historique_115.pdf,0,2000-01-01 01:00:00,2017-06-15 19:52:22,,,27010142209782701014227
30239539,UNE CHAIR POUR LA GLOIRE. L’ANTHROPOLOGIE RÉALISTE ET MYSTIQUE DE TERTULLIEN,,Théologie Historique 115,,Jérôme ALEXANDRE,0,,,,287,287,French,205,,0,,,,,,,,,,,,0,,,,,,,1,20620899,pdf,784f16d31cd9cfb0dcf19b0e999f3007,,,Tertullien vs Une Chair pur la Gloire.pdf,0,2000-01-01 01:00:00,2017-06-15 19:52:33,1693000/784f16d31cd9cfb0dcf19b0e999f3007-g.jpg,,
30239540,The Cambridge Companion to Mahler,,Cambridge Companions to Music,,Jeremy Barham (Editor),2007,First Edition,Cambridge University Press,,473,0,English,61,,0,9780521540339 / 052154033X,,B00AA8JTV8,,,,,,,,,0,,,,,,,,3551787,epub,bd6059edaf7f7b11c8b3207d02306140,,,The Cambridge Companion to Mahler (Cambridge Companions to Music).epub,0,2000-01-01 01:00:00,2017-06-15 19:57:02,,#Mahler #Gustav Mahler #The Cambridge Companion to Mahler #Cambridge Companions to Music,9780521540339/052154033X
30239541,Le Christ et la Trinité selon Maxime le Confesseur,,Théologie Historique 69,,Pierre Piret,2000,,Editions Beauchesne,Paris,416,416,French,205,,0,2701010691 9782701010694,,,,,,,,,,,0,,,,,,,1,16304789,pdf,4c4280a728afcca00166b3f24a17ce82,,,Theologie_Historique_69.pdf,0,2000-01-01 01:00:00,2017-06-15 19:57:23,,,27010106919782701010694
30239542,LE CHRIST ET LA TRINITÉ SELON MAXIME LE CONFESSEUR,,Théologie Historique  69,,Pierre PIRET,0,,,,208,208,French,205,,0,,,,,,,,,,,,0,,,,,,,1,14350140,pdf,bb4a5bac68bd8ddc3cc5301b2bf0d1b5,,,Maximus vs Le Christ et la Trinite selon Maxime le Confesseur.pdf,0,2000-01-01 01:00:00,2017-06-15 19:57:36,1693000/bb4a5bac68bd8ddc3cc5301b2bf0d1b5-g.jpg,,
30239543,Театрал,,,,Греч Н.И.,1853,,Типография Н. Греча,,,162,Russian,,,,-,,,,,,,,,,,0,,,,,,0,1,37959134,pdf,25c2fd4d768b164089e605624a96fb6a,,,Греч Н.И.;Театрал;;;Типография Н. Греча;1853;-;;Russian,0,2000-01-01 01:00:00,2017-06-15 20:07:37,1573000/25c2fd4d768b164089e605624a96fb6a-g.jpg,,
30239544,Иллюстрированный практический путеводитель по Одессе,,,,Москвич Г.Г.,1904,,Типография Л. Нитче (Одесса),,,193,Russian,,,,-,,,,,,,,,,,0,,,,,,0,1,114294202,pdf,6056c19c1332a4c10e4a7a718155860f,,,Москвич Г.Г.;Иллюстрированный практический путеводитель по Одессе;;;Типография Л. Нитче (Одесса);1904;-;;Russian,0,2000-01-01 01:00:00,2017-06-15 20:07:37,1577000/6056c19c1332a4c10e4a7a718155860f-g.jpg,,
30239545,«Отчизну сердцем защитили»  Стихи поэтов Тейковского района,,,,,2011,,"ОАО «Издательство «Иваново»,",,,64,Russian,,,,-,,,,,,,,,,,0,,,,,,0,1,2010197,pdf,ca229279281b8a331bc80b0e6cfa53f2,,,";«Отчизну сердцем защитили»  Стихи поэтов Тейковского района;;;ОАО «Издательство «Иваново»,;2011;-;;Russian",0,2000-01-01 01:00:00,2017-06-15 20:07:37,1585000/ca229279281b8a331bc80b0e6cfa53f2-g.jpg,,
30239546,Recettes Angéliques. Le bœuf: Le goût d’être ensemble,,,,(Collective),2012,,INTERBEV,,0,32,French,,,0,-,,,,,,,,,,,0,,,,,,0,1,3164060,pdf,be017384eb788f84803d6cf2728a3a68,,,;Recettes Angliques. Le boeuf Le got d’tre ensemble;;;INTERBEV;2012;-;;French,0,2000-01-01 01:00:00,2017-06-15 20:07:37,1585000/be017384eb788f84803d6cf2728a3a68-g.jpg,,
30239547,A World Of Animals Vol. 2,,Painting- Animals,,Ana Bernabe,2002,,Viking folk Art,,,60,English,,,,-,,,,,,,,,,,0,,,,,,0,0,50405079,pdf,857f613ba692b86d043d09c24061c24a,,,Ana Bernabe;A World Of Animals Vol. 2;Painting- Animals;;Viking folk Art;2002;-;;English,0,2000-01-01 01:00:00,2017-06-15 20:07:37,1585000/857f613ba692b86d043d09c24061c24a-g.jpg,,
30239548,A World Of Animals Vol. 3,,Painting- Animals,,Ana Bernabe,2003,,Viking folk Art,,,65,English,,,,-,,,,,,,,,,,0,,,,,,0,0,46544505,pdf,d2dbe9b1e95bf109a85cf033d923f5a2,,,Ana Bernabe;A World Of Animals Vol. 3;Painting- Animals;;Viking folk Art;2003;-;;English,0,2000-01-01 01:00:00,2017-06-15 20:07:37,1585000/d2dbe9b1e95bf109a85cf033d923f5a2-g.jpg,,
30239549,20 Easy DIY Holiday Craft,,,,Collective,2015,,FloraCraft,,0,58,English,,,0,-,,,,,,,,,,,0,,,,,,0,1,19194778,pdf,b5d1f6e32d9acffad14ecfb28dac3ac6,,,"Collective;20 Easy DIY Holiday Craft;;;FloraCraft, Prime Publishing LLC;2015;-;;English",0,2000-01-01 01:00:00,2017-06-15 20:07:37,1585000/b5d1f6e32d9acffad14ecfb28dac3ac6-g.jpg,,
30239550,Описание 3-х линейной винтовки образца 1891 года,,,,,1891,,"Издание Офицерской стрелковой школы, Типография И,Н, Скороходова (СПб",,,16,Russian,,,,-,,,,,,,,,,,0,,,,,,0,1,20685620,pdf,3249fcdc9c40bf854fcfbf1ef55e4d9d,,,";Описание 3-х линейной винтовки образца 1891 года;;;Издание Офицерской стрелковой школы, Типография И,Н, Скороходова (СПб;1891;-;;Russian",0,2000-01-01 01:00:00,2017-06-15 20:07:37,1630000/3249fcdc9c40bf854fcfbf1ef55e4d9d-g.jpg,,
30239551,Третье отделение при Николае I,,,,Троцкий И.М.,1930,,Издательство Всесоюзного общества политкаторжан и ссыльно-поселенцев,,,74,Russian,,,,-,,,,,,,,,,,0,,,,,,0,1,39399144,pdf,e7c5d9cf33dd069059147f4c08996e2b,,,Троцкий И.М.;Третье отделение при Николае I;;;Издательство Всесоюзного общества политкаторжан и ссыльно-поселенцев;1930;-;;Russian,0,2000-01-01 01:00:00,2017-06-15 20:07:37,1630000/e7c5d9cf33dd069059147f4c08996e2b-g.jpg,,
30239552,Занимательные задачи и опыты,,,,Перельман Я.И.,1972,,Детская литература,,,472,Russian,,,,-,,,,,,,,,,,0,,,,,,0,1,167718439,pdf,0fc1642694a8224f1a8df67f677f4c26,,,Перельман Я.И.;Занимательные задачи и опыты;;;Детская литература;1972;-;;Russian,0,2000-01-01 01:00:00,2017-06-15 20:07:37,1630000/0fc1642694a8224f1a8df67f677f4c26-g.jpg,,
30239553,Сад и огород в доме,,,,Попов Е.Б.,1985,,Детская литература,,,120,Russian,,,,-,,,,,,,,,,,0,,,,,,0,1,48066991,pdf,fe06f74051bf5081ef51978cd47a993c,,,Попов Е.Б.;Сад и огород в доме;;;Детская литература;1985;-;;Russian,0,2000-01-01 01:00:00,2017-06-15 20:07:37,1631000/fe06f74051bf5081ef51978cd47a993c-g.jpg,,
30239554,Oceanografie. eseuri,,,,Mircea Eliade,1934,1st edition,Cultura Populara,București,304,304,Romanian,195,,0,-,,,,,,,,,,ocr by epistematic,0,,,,,,,1,17299949,pdf,f5e05a11cfc53acb1e4e292fa66c1bd2,,,Eliade Oceanografie 1934 ocr lipsa.pdf,0,2000-01-01 01:00:00,2017-06-15 20:07:37,1685000/f5e05a11cfc53acb1e4e292fa66c1bd2-g.jpg,,
30239555,Cum ne construim dușmanul: și alte scrieri ocazionale,,,,Umberto Eco,2007,3rd edition,Polirom,Iasi,352,352,Romanian,,,0,-,,,,,,,,,,"ocr by epistematic, scan sdr",300,,,,,,0,1,11499669,pdf,9d2e9c43400588086e983e18322889e4,,,Umberto Eco - Cum ne construim dușmanii ocr.pdf,0,2000-01-01 01:00:00,2017-06-15 20:07:37,1689000/9d2e9c43400588086e983e18322889e4-g.jpg,,
30239556,"Morts, martyrs, reliques en Afrique chrétienne aux premiers siècles",,Théologie Historique 55,,Victor Saxer,1997,,Beauchesne,Paris,173,346,French,205,,0,,,,,,,,,,,,0,,,,,,,1,17531465,pdf,6ce72b49624f23babe360fe2d87bc736,,,Theologie_Historique_55x.pdf,0,2000-01-01 01:00:00,2017-06-15 20:10:50,,,
30239557,MORTS MARTYRS RELIQUES EN AFRIQUE CHRÉTIENNE AUX PREMIERS SIÈCLES,,Théologie Historique 55,,Victor SAXER,0,,,,173,173,English,205,,0,,,,,,,,,,,,0,,,,,,,1,11962705,pdf,38d74eaba315932e52a56d0430ac6e39,,,"Morts Martyrs Reliques, Tertullie, Cyprien, Augustin.pdf",0,2000-01-01 01:00:00,2017-06-15 20:11:06,1693000/38d74eaba315932e52a56d0430ac6e39-g.jpg,,
30239558,"Morts, martyrs, reliques en Afrique chrétienne aux premiers siècles",,Théologie Historique 55,,Victor Saxer,1997,,Beauchesne,Paris,173,346,French,205,,0,,,,,,,,,,,,0,,,,,,,1,17531465,pdf,6ce72b49624f23babe360fe2d87bc736,,,Theologie_Historique_55x.pdf,0,2000-01-01 01:00:00,2017-06-15 20:12:16,1693000/6ce72b49624f23babe360fe2d87bc736-g.jpg,,
30239559,"Morts, martyrs, reliques en Afrique chrétienne aux premiers siècles",,Théologie Historique 55,,Victor Saxer,1997,,Beauchesne,Paris,346,346,French,205,,0,,,,,,,,,,,,0,,,,,,,1,17531465,pdf,6ce72b49624f23babe360fe2d87bc736,,,Theologie_Historique_55x.pdf,0,2000-01-01 01:00:00,2017-06-15 20:12:50,1693000/6ce72b49624f23babe360fe2d87bc736-g.jpg,,
30239560,"Liturgie, foi et vie des premiers chrétiens : Etudes patristiques",,Théologie Historique  75,,Willy Rordorf,1997,,Beauchesne Editions,Paris,265,530,French,205,,0,2701011221 978270101122,,,,,,,,,,,0,,,,,,,1,24120445,pdf,6a5447f3474b317ba1515d58c35f3f42,,,Theologie_Historique_75.pdf,0,2000-01-01 01:00:00,2017-06-15 20:13:36,1693000/6a5447f3474b317ba1515d58c35f3f42-g.jpg,,2701011221978270101122
30239561,The Cambridge Companion to Medieval Music,,Cambridge Companions to Music,,Mark Everist (Editor),2011,First,Cambridge University Press,,611,0,English,61,,0,9780521608619 / 0521608619,,B00FF76USY,,,,,,,,,0,,,,,,,,3120704,epub,06a517e5a3471075b161ad306cdbe711,,,The Cambridge Companion to Medieval Music (Cambridge Companions to Music).epub,0,2000-01-01 01:00:00,2017-06-15 20:36:51,,#Medieval Music  #The Cambridge Companion to Medieval Music #Cambridge Companions to Music #Mark Everist,9780521608619/0521608619
30239562,The Cambridge Companion to Mendelssohn,,Cambridge Companions to Music,,Peter Mercer-Taylor (Editor),2004,First,Cambridge University Press,,393,0,English,61,,0,9780521533423 / 0521533422,,B00FF76T8A,,,,,,,,,0,,,,,,,,5483488,epub,554b14e8e7f86df6fe84fd1a0448c869,,,The Cambridge Companion to Mendelssohn (Cambridge Companions to Music).epub,0,2000-01-01 01:00:00,2017-06-15 20:53:48,,#Mendelssohn #Felix Mendelssohn Bartholdy  #Felix Mendelssohn #Cambridge Companions to Music #The Cambridge Companion to Mendelssohn #Peter Mercer-Taylor,9780521533423/0521533422
30239563,The Cambridge Companion to Monteverdi,,Cambridge Companions to Music,,John Whenham and Richard Wistreich (Editors),2007,First,Cambridge University Press,,476,0,English,61,,0,9780521697989 / 0521697980,,B00AA8JTWC,,,,,,,,,0,,,,,,,,5308397,epub,4f6650c3f23de7753d302d0d298d5e30,,,The Cambridge Companion to Monteverdi (Cambridge Companions to Music).epub,0,2000-01-01 01:00:00,2017-06-15 21:00:59,,#Monteverdi  #Claudio Monteverdi  #The Cambridge Companion to Monteverdi  #Cambridge Companions to Music #John Whenham  #Richard Wistreich,9780521697989/0521697980
30239564,Театрал,,,,Греч Н.И.,1853,,Типография Н. Греча,,,162,Russian,,,,-,,,,,,,,,,,0,,,,,,0,1,37959134,pdf,25c2fd4d768b164089e605624a96fb6a,,,Греч Н.И.;Театрал;;;Типография Н. Греча;1853;-;;Russian,0,2000-01-01 01:00:00,2017-06-15 21:07:41,1573000/25c2fd4d768b164089e605624a96fb6a-g.jpg,,
30239565,Иллюстрированный практический путеводитель по Одессе,,,,Москвич Г.Г.,1904,,Типография Л. Нитче (Одесса),,,193,Russian,,,,-,,,,,,,,,,,0,,,,,,0,1,114294202,pdf,6056c19c1332a4c10e4a7a718155860f,,,Москвич Г.Г.;Иллюстрированный практический путеводитель по Одессе;;;Типография Л. Нитче (Одесса);1904;-;;Russian,0,2000-01-01 01:00:00,2017-06-15 21:07:41,1577000/6056c19c1332a4c10e4a7a718155860f-g.jpg,,
30239566,«Отчизну сердцем защитили»  Стихи поэтов Тейковского района,,,,,2011,,"ОАО «Издательство «Иваново»,",,,64,Russian,,,,-,,,,,,,,,,,0,,,,,,0,1,2010197,pdf,ca229279281b8a331bc80b0e6cfa53f2,,,";«Отчизну сердцем защитили»  Стихи поэтов Тейковского района;;;ОАО «Издательство «Иваново»,;2011;-;;Russian",0,2000-01-01 01:00:00,2017-06-15 21:07:41,1585000/ca229279281b8a331bc80b0e6cfa53f2-g.jpg,,
30239567,Recettes Angéliques. Le bœuf: Le goût d’être ensemble,,,,(Collective),2012,,INTERBEV,,0,32,French,,,0,-,,,,,,,,,,,0,,,,,,0,1,3164060,pdf,be017384eb788f84803d6cf2728a3a68,,,;Recettes Angliques. Le boeuf Le got d’tre ensemble;;;INTERBEV;2012;-;;French,0,2000-01-01 01:00:00,2017-06-15 21:07:41,1585000/be017384eb788f84803d6cf2728a3a68-g.jpg,,
30239568,A World Of Animals Vol. 2,,Painting- Animals,,Ana Bernabe,2002,,Viking folk Art,,,60,English,,,,-,,,,,,,,,,,0,,,,,,0,0,50405079,pdf,857f613ba692b86d043d09c24061c24a,,,Ana Bernabe;A World Of Animals Vol. 2;Painting- Animals;;Viking folk Art;2002;-;;English,0,2000-01-01 01:00:00,2017-06-15 21:07:41,1585000/857f613ba692b86d043d09c24061c24a-g.jpg,,
30239569,A World Of Animals Vol. 3,,Painting- Animals,,Ana Bernabe,2003,,Viking folk Art,,,65,English,,,,-,,,,,,,,,,,0,,,,,,0,0,46544505,pdf,d2dbe9b1e95bf109a85cf033d923f5a2,,,Ana Bernabe;A World Of Animals Vol. 3;Painting- Animals;;Viking folk Art;2003;-;;English,0,2000-01-01 01:00:00,2017-06-15 21:07:41,1585000/d2dbe9b1e95bf109a85cf033d923f5a2-g.jpg,,
30239570,20 Easy DIY Holiday Craft,,,,Collective,2015,,FloraCraft,,0,58,English,,,0,-,,,,,,,,,,,0,,,,,,0,1,19194778,pdf,b5d1f6e32d9acffad14ecfb28dac3ac6,,,"Collective;20 Easy DIY Holiday Craft;;;FloraCraft, Prime Publishing LLC;2015;-;;English",0,2000-01-01 01:00:00,2017-06-15 21:07:41,1585000/b5d1f6e32d9acffad14ecfb28dac3ac6-g.jpg,,
30239571,Описание 3-х линейной винтовки образца 1891 года,,,,,1891,,"Издание Офицерской стрелковой школы, Типография И,Н, Скороходова (СПб",,,16,Russian,,,,-,,,,,,,,,,,0,,,,,,0,1,20685620,pdf,3249fcdc9c40bf854fcfbf1ef55e4d9d,,,";Описание 3-х линейной винтовки образца 1891 года;;;Издание Офицерской стрелковой школы, Типография И,Н, Скороходова (СПб;1891;-;;Russian",0,2000-01-01 01:00:00,2017-06-15 21:07:41,1630000/3249fcdc9c40bf854fcfbf1ef55e4d9d-g.jpg,,
30239572,Третье отделение при Николае I,,,,Троцкий И.М.,1930,,Издательство Всесоюзного общества политкаторжан и ссыльно-поселенцев,,,74,Russian,,,,-,,,,,,,,,,,0,,,,,,0,1,39399144,pdf,e7c5d9cf33dd069059147f4c08996e2b,,,Троцкий И.М.;Третье отделение при Николае I;;;Издательство Всесоюзного общества политкаторжан и ссыльно-поселенцев;1930;-;;Russian,0,2000-01-01 01:00:00,2017-06-15 21:07:41,1630000/e7c5d9cf33dd069059147f4c08996e2b-g.jpg,,
30239573,Занимательные задачи и опыты,,,,Перельман Я.И.,1972,,Детская литература,,,472,Russian,,,,-,,,,,,,,,,,0,,,,,,0,1,167718439,pdf,0fc1642694a8224f1a8df67f677f4c26,,,Перельман Я.И.;Занимательные задачи и опыты;;;Детская литература;1972;-;;Russian,0,2000-01-01 01:00:00,2017-06-15 21:07:41,1630000/0fc1642694a8224f1a8df67f677f4c26-g.jpg,,
30239574,Сад и огород в доме,,,,Попов Е.Б.,1985,,Детская литература,,,120,Russian,,,,-,,,,,,,,,,,0,,,,,,0,1,48066991,pdf,fe06f74051bf5081ef51978cd47a993c,,,Попов Е.Б.;Сад и огород в доме;;;Детская литература;1985;-;;Russian,0,2000-01-01 01:00:00,2017-06-15 21:07:41,1631000/fe06f74051bf5081ef51978cd47a993c-g.jpg,,
30239575,Oceanografie. eseuri,,,,Mircea Eliade,1934,1st edition,Cultura Populara,București,304,304,Romanian,195,,0,-,,,,,,,,,,ocr by epistematic,0,,,,,,,1,17299949,pdf,f5e05a11cfc53acb1e4e292fa66c1bd2,,,Eliade Oceanografie 1934 ocr lipsa.pdf,0,2000-01-01 01:00:00,2017-06-15 21:07:41,1685000/f5e05a11cfc53acb1e4e292fa66c1bd2-g.jpg,,
30239576,Cum ne construim dușmanul: și alte scrieri ocazionale,,,,Umberto Eco,2007,3rd edition,Polirom,Iasi,352,352,Romanian,,,0,-,,,,,,,,,,"ocr by epistematic, scan sdr",300,,,,,,0,1,11499669,pdf,9d2e9c43400588086e983e18322889e4,,,Umberto Eco - Cum ne construim dușmanii ocr.pdf,0,2000-01-01 01:00:00,2017-06-15 21:07:41,1689000/9d2e9c43400588086e983e18322889e4-g.jpg,,
30239577,Panpsychism: Contemporary Perspectives,,Philosophy of Mind Series,,"Godehard Bruntrup, Ludwig Jaskolla",2016,1,Oxford University Press,,424,425,English,,,0,"0199359946,9780199359943",,,,,,,,,,,0,,,,,,,1,34705665,pdf,515038894e89e380510baf72f6485de5,,,panpsychism-output.pdf,0,2000-01-01 01:00:00,2017-06-15 21:22:39,https://images-na.ssl-images-amazon.com/images/I/51RcOmAnM9L.jpg,"Cognitive Psychology;Behavioral Sciences;Science & Math;Cognitive;Psychology;Consciousness & Thought;Philosophy;Politics & Social Sciences;Metaphysics;Philosophy;Politics & Social Sciences;Metaphysics;Philosophy;Humanities;New, Used & Rental Textbooks;Specialty Boutique;Cognitive Psychology;Psychology;Social Sciences;New, Used & Rental Textbooks;Specialty Boutique","0199359946,9780199359943"
30239578,The Routledge Companion to Intangible Cultural Heritage,,Routledge Companions,,"Peter Davis, Michelle L. Stefano",2016,,Routledge,,526,527,English,,,0,"1138860557,9781138860551",,,,,,,,,,,0,,,,1,,1,1,5394332,pdf,64df4c36f68b25383d471547145dfb36,,,The Routledge Companion to Intangible Cultural Heritage 978-1-138-86055-1.pdf,0,2000-01-01 01:00:00,2017-06-15 21:25:43,https://images-na.ssl-images-amazon.com/images/I/51bAwvjOpBL.jpg,Social Sciences;Children’s Studies;Communication & Media Studies;Criminology;Customs & Traditions;Demography;Disaster Relief;Emigration & Immigration;Folklore & Mythology;Gender Studies;Gerontology;Holidays;Human Geography;Human Sexuality;Library & Information Science;Linguistics;Methodology;Museum Studies & Museology;Philanthropy & Charity;Popular Culture;Pornography;Poverty;Privacy & Surveillance;Reference;Research;Social Work;Specific Demographics;Urban Planning & Development;Violence in So,"1138860557,9781138860551"
30239579,The Cambridge Companion to Rossini,,Cambridge Companions to Music,,Emanuele Senici (Editor),2004,First,Cambridge University Press,,373,0,English,61,,0,9780521001953 / 0521001951,,B00AA8JTRC,,,,,,,,,0,,,,,,,,3184813,epub,8a95f460769d23ba839516490ffa25f5,,,The Cambridge Companion to Rossini (Cambridge Companions to Music).epub,0,2000-01-01 01:00:00,2017-06-15 21:27:28,,#Rossini #Gioachino Rossini #The Cambridge Companion to Rossini #Cambridge Companions to Music #Emanuele Senici,9780521001953/0521001951
30239580,Religious Scholars and the Umayyads: Piety-Minded Supporters of the Marwanid Caliphate,,Culture and Civilization in the Middle East,,Steven Judd,2013,,Routledge,,208,0,English,,,0,"0415844975,9780415844970",,,,,,,,,,,0,,,,,,1,,2360587,epub,d66933bef392d98b94dda40294584e1c,,,Religious Scholars and the Umayyads 978-0-415-84497-0.epub,0,2000-01-01 01:00:00,2017-06-15 21:28:36,https://images-na.ssl-images-amazon.com/images/I/41R3Y6wTpWL.jpg,"Middle East;Bahrain;Egypt;Iran;Iraq;Israel & Palestine;Jordan;Kuwait;Lebanon;Oman;Qatar;Saudi Arabia;Syria;Turkey;United Arab Emirates;Yemen;History;Islam;Hadith;History;Law;Mecca;Muhammed;Quran;Rituals & Practice;Shi’ism;Sufism;Sunnism;Theology;Women in Islam;Religion & Spirituality;Human Geography;Social Sciences;Politics & Social Sciences;Middle East;History;Humanities;New, Used & Rental Textbooks;Specialty Boutique;Islam;Religious Studies;Humanities;New, Used & Rental Textbooks;Specialty B","0415844975,9780415844970"
30239581,Religious Scholars and the Umayyads: Piety-Minded Supporters of the Marwanid Caliphate,,Culture and Civilization in the Middle East,,Steven Judd,2013,,Routledge,,208,208,English,,,0,"0415844975,9780415844970",,,,,,,,,,,0,,,,1,,1,1,1450598,pdf,0554f172d63be61fdd313af7c63177b4,,,Religious Scholars and the Umayyads-978-0-415-84497-0.pdf,0,2000-01-01 01:00:00,2017-06-15 21:30:10,https://images-na.ssl-images-amazon.com/images/I/41R3Y6wTpWL.jpg,"Middle East;Bahrain;Egypt;Iran;Iraq;Israel & Palestine;Jordan;Kuwait;Lebanon;Oman;Qatar;Saudi Arabia;Syria;Turkey;United Arab Emirates;Yemen;History;Islam;Hadith;History;Law;Mecca;Muhammed;Quran;Rituals & Practice;Shi’ism;Sufism;Sunnism;Theology;Women in Islam;Religion & Spirituality;Human Geography;Social Sciences;Politics & Social Sciences;Middle East;History;Humanities;New, Used & Rental Textbooks;Specialty Boutique;Islam;Religious Studies;Humanities;New, Used & Rental Textbooks;Specialty B","0415844975,9780415844970"
30239582,Staging the World: Chinese Nationalism at the Turn of the Twentieth Century,,"Asia-Pacific: Culture, Politics, and Society",,Rebecca E. Karl,2002,,Duke University Press Books,,320,329,English,,,0,"0822328526,9780822328520",,,,,,,,,,,0,,,,1,,1,1,1178810,pdf,5bc77fcbb3aa3eedebd95aed54357308,,,Staging the World Chinese Nationalism at the Turn of the Twentie-0-8223-2852-6.pdf,0,2000-01-01 01:00:00,2017-06-15 21:31:47,https://images-na.ssl-images-amazon.com/images/I/2164vzoispL.jpg,History;Africa;Americas;Arctic & Antarctica;Asia;Australia & Oceania;Europe;Middle East;Russia;United States;World;Ancient Civilizations;Military;Historical Study & Educational Resources;Nationalism;Ideologies & Doctrines;Politics & Government;Politics & Social Sciences;Asian;International & World Politics;Politics & Government;Politics & Social Sciences;Political Science;Comparative Politics;Constitutions;History & Theory;Reference;Politics & Government;Politics & Social Sciences,"0822328526,9780822328520"
30239583,The Cambridge Companion to Ravel,,Cambridge Companions to Music,,Deborah Mawer (Editor),2000,First,Cambridge University Press,,347,0,English,61,,0,9780521648561 / 0521648564,,,,,,,,,,,0,,,,,,,,8033202,epub,7cc7c063b17682dbc3b8c8cdc661fe54,,,The Cambridge Companion to Ravel (Cambridge Companions to Music).epub,0,2000-01-01 01:00:00,2017-06-15 21:33:31,,#Ravel #Maurice Ravel #The Cambridge Companion to Ravel #Cambridge Companions to Music #Deborah Mawer,9780521648561/0521648564
30239584,A Theory of Phonological Features,,,,San Duanmu,2016,1,Oxford University Press,,192,193,English,,,0,"019966496X,9780199664962",,,,,,,,,,,0,,,,1,,1,1,3684164,pdf,cfa3a6d0d6897c84e5e9b2dc95ee10f1,,,A Theory of Phonological Features 9780199664962.pdf,0,2000-01-01 01:00:00,2017-06-15 21:34:17,https://images-na.ssl-images-amazon.com/images/I/41Ao7Ses5IL.jpg,"Linguistics;Words, Language & Grammar;Reference;Phonetics & Phonics;Words, Language & Grammar;Reference;Cognitive Psychology;Behavioral Sciences;Science & Math;Cognitive;Psychology;Linguistics;Humanities;New, Used & Rental Textbooks;Specialty Boutique;Cognitive Psychology;Psychology;Social Sciences;New, Used & Rental Textbooks;Specialty Boutique","019966496X,9780199664962"
30239585,La variation pluridimensionnelle: Une analyse de la négation en français (Sciences pour la communication) (French Edition),,,,Charlotte Meisner,2016,New,"Peter Lang AG, Internationaler Verlag der Wissenschaften",,334,350,French,,,0,"303432085X,9783034320856",,,,,,,,,,,0,,,,1,,1,1,5597199,pdf,ff0cf73d714168729e3b39440ecaac65,,,La variation pluridimensionnelle-978-3-0343-2085-6.pdf,0,2000-01-01 01:00:00,2017-06-15 21:37:03,https://images-na.ssl-images-amazon.com/images/I/41tAyQPPZ3L.jpg,"Instruction;Foreign Language Study & Reference;Reference;Grammar;Words, Language & Grammar;Reference;Linguistics;Words, Language & Grammar;Reference;Speech;Words, Language & Grammar;Reference;Sociology;Abuse;Class;Death;Marriage & Family;Medicine;Race Relations;Rural;Social Theory;Urban;Politics & Social Sciences;Linguistics;Humanities;New, Used & Rental Textbooks;Specialty Boutique;German;Foreign Languages;Humanities;New, Used & Rental Textbooks;Specialty Boutique;Sociology;Social Sciences;New,","303432085X,9783034320856"
30239586,Past Lives: Discover and Connect with Your Past Lives to Create Positive Change,,Hay House Basics,,Atasha Fyfe,2015,,Hay House UK,,224,0,English,,,0,"1781802653,9781781802656",,,,,,,,,,,0,,,,,,1,,1054544,epub,8a55f9240b9162fea677127a7fa0d804,,,Past Lives 978-1-78180-265-6.epub,0,2000-01-01 01:00:00,2017-06-15 21:39:17,https://images-na.ssl-images-amazon.com/images/I/41wX1myHAyL.jpg,Reincarnation;New Age & Spirituality;Religion & Spirituality;Spiritualism;New Age & Spirituality;Religion & Spirituality,"1781802653,9781781802656"
30239587,The Miracle of the Kurds: A Remarkable Story of Hope Reborn in Northern Iraq,,,,Stephen Mansfield,2014,"Complete Numbers Starting with 1, 1st Ed",Worthy Publishing,,272,273,English,,,0,"1617950793,9781617950797",,,,,,,,,,,0,,,,1,,1,1,1558057,pdf,f6ebba38e1f44190ac85913e52030f70,,,The Miracle of the Kurds-978-1-61795-376-7.pdf,0,2000-01-01 01:00:00,2017-06-15 21:43:15,https://images-na.ssl-images-amazon.com/images/I/5133d4VFmvL.jpg,Iraq;Middle East;History;Human Geography;Social Sciences;Politics & Social Sciences;Middle Eastern;International & World Politics;Politics & Government;Politics & Social Sciences,"1617950793,9781617950797"
30239588,Verbundbau-Praxis Berechnung und Konstruktion nach Eurocode 4,,,,"Minnert, Jens",2013,2. basım.,Beuth Verlag,Berlin,339 sa,350,German,,,0,"9783410223467,3410223460",,,,,,,,,,,0,,,,1,,1,1,4132155,pdf,af4d2268e1447d2de4748767fd49b2fd,,,Verbundbau-Praxis Berechnung und Konstruktion nach Eurocode 4 978-3-410-22346-7.pdf,0,2000-01-01 01:00:00,2017-06-15 21:48:50,,Composite construction;Verbundkonstruktion;Kompozit inşaat,"9783410223467,3410223460"
30239589,The Cambridge Companion to Wagner,,Cambridge Companions to Music,,Thomas S. Grey (Editor),2008,First,Cambridge University Press,,476,0,English,61,,0,9780521644396 / 0521644399,,B009T0K5RU,,,,,,,,,0,,,,,,,,1075265,epub,fc5a975366ae0870d4cdd7fc8677b018,,,The Cambridge Companion to Wagner (Cambridge Companions to Music).epub,0,2000-01-01 01:00:00,2017-06-15 21:57:39,,#Wagner #Richard Wagner #The Cambridge Companion to Wagner #Cambridge Companions to Music #Thomas S. Grey,9780521644396/0521644399
30239590,Театрал,,,,Греч Н.И.,1853,,Типография Н. Греча,,,162,Russian,,,,-,,,,,,,,,,,0,,,,,,0,1,37959134,pdf,25c2fd4d768b164089e605624a96fb6a,,,Греч Н.И.;Театрал;;;Типография Н. Греча;1853;-;;Russian,0,2000-01-01 01:00:00,2017-06-15 22:07:36,1573000/25c2fd4d768b164089e605624a96fb6a-g.jpg,,
30239591,Иллюстрированный практический путеводитель по Одессе,,,,Москвич Г.Г.,1904,,Типография Л. Нитче (Одесса),,,193,Russian,,,,-,,,,,,,,,,,0,,,,,,0,1,114294202,pdf,6056c19c1332a4c10e4a7a718155860f,,,Москвич Г.Г.;Иллюстрированный практический путеводитель по Одессе;;;Типография Л. Нитче (Одесса);1904;-;;Russian,0,2000-01-01 01:00:00,2017-06-15 22:07:36,1577000/6056c19c1332a4c10e4a7a718155860f-g.jpg,,
30239592,«Отчизну сердцем защитили»  Стихи поэтов Тейковского района,,,,,2011,,"ОАО «Издательство «Иваново»,",,,64,Russian,,,,-,,,,,,,,,,,0,,,,,,0,1,2010197,pdf,ca229279281b8a331bc80b0e6cfa53f2,,,";«Отчизну сердцем защитили»  Стихи поэтов Тейковского района;;;ОАО «Издательство «Иваново»,;2011;-;;Russian",0,2000-01-01 01:00:00,2017-06-15 22:07:36,1585000/ca229279281b8a331bc80b0e6cfa53f2-g.jpg,,
30239593,Recettes Angéliques. Le bœuf: Le goût d’être ensemble,,,,(Collective),2012,,INTERBEV,,0,32,French,,,0,-,,,,,,,,,,,0,,,,,,0,1,3164060,pdf,be017384eb788f84803d6cf2728a3a68,,,;Recettes Angliques. Le boeuf Le got d’tre ensemble;;;INTERBEV;2012;-;;French,0,2000-01-01 01:00:00,2017-06-15 22:07:36,1585000/be017384eb788f84803d6cf2728a3a68-g.jpg,,
30239594,A World Of Animals Vol. 2,,Painting- Animals,,Ana Bernabe,2002,,Viking folk Art,,,60,English,,,,-,,,,,,,,,,,0,,,,,,0,0,50405079,pdf,857f613ba692b86d043d09c24061c24a,,,Ana Bernabe;A World Of Animals Vol. 2;Painting- Animals;;Viking folk Art;2002;-;;English,0,2000-01-01 01:00:00,2017-06-15 22:07:36,1585000/857f613ba692b86d043d09c24061c24a-g.jpg,,
30239595,A World Of Animals Vol. 3,,Painting- Animals,,Ana Bernabe,2003,,Viking folk Art,,,65,English,,,,-,,,,,,,,,,,0,,,,,,0,0,46544505,pdf,d2dbe9b1e95bf109a85cf033d923f5a2,,,Ana Bernabe;A World Of Animals Vol. 3;Painting- Animals;;Viking folk Art;2003;-;;English,0,2000-01-01 01:00:00,2017-06-15 22:07:36,1585000/d2dbe9b1e95bf109a85cf033d923f5a2-g.jpg,,
30239596,20 Easy DIY Holiday Craft,,,,Collective,2015,,FloraCraft,,0,58,English,,,0,-,,,,,,,,,,,0,,,,,,0,1,19194778,pdf,b5d1f6e32d9acffad14ecfb28dac3ac6,,,"Collective;20 Easy DIY Holiday Craft;;;FloraCraft, Prime Publishing LLC;2015;-;;English",0,2000-01-01 01:00:00,2017-06-15 22:07:36,1585000/b5d1f6e32d9acffad14ecfb28dac3ac6-g.jpg,,
30239597,Описание 3-х линейной винтовки образца 1891 года,,,,,1891,,"Издание Офицерской стрелковой школы, Типография И,Н, Скороходова (СПб",,,16,Russian,,,,-,,,,,,,,,,,0,,,,,,0,1,20685620,pdf,3249fcdc9c40bf854fcfbf1ef55e4d9d,,,";Описание 3-х линейной винтовки образца 1891 года;;;Издание Офицерской стрелковой школы, Типография И,Н, Скороходова (СПб;1891;-;;Russian",0,2000-01-01 01:00:00,2017-06-15 22:07:36,1630000/3249fcdc9c40bf854fcfbf1ef55e4d9d-g.jpg,,
30239598,Третье отделение при Николае I,,,,Троцкий И.М.,1930,,Издательство Всесоюзного общества политкаторжан и ссыльно-поселенцев,,,74,Russian,,,,-,,,,,,,,,,,0,,,,,,0,1,39399144,pdf,e7c5d9cf33dd069059147f4c08996e2b,,,Троцкий И.М.;Третье отделение при Николае I;;;Издательство Всесоюзного общества политкаторжан и ссыльно-поселенцев;1930;-;;Russian,0,2000-01-01 01:00:00,2017-06-15 22:07:36,1630000/e7c5d9cf33dd069059147f4c08996e2b-g.jpg,,
30239599,Занимательные задачи и опыты,,,,Перельман Я.И.,1972,,Детская литература,,,472,Russian,,,,-,,,,,,,,,,,0,,,,,,0,1,167718439,pdf,0fc1642694a8224f1a8df67f677f4c26,,,Перельман Я.И.;Занимательные задачи и опыты;;;Детская литература;1972;-;;Russian,0,2000-01-01 01:00:00,2017-06-15 22:07:36,1630000/0fc1642694a8224f1a8df67f677f4c26-g.jpg,,
30239600,Сад и огород в доме,,,,Попов Е.Б.,1985,,Детская литература,,,120,Russian,,,,-,,,,,,,,,,,0,,,,,,0,1,48066991,pdf,fe06f74051bf5081ef51978cd47a993c,,,Попов Е.Б.;Сад и огород в доме;;;Детская литература;1985;-;;Russian,0,2000-01-01 01:00:00,2017-06-15 22:07:36,1631000/fe06f74051bf5081ef51978cd47a993c-g.jpg,,
30239601,Oceanografie. eseuri,,,,Mircea Eliade,1934,1st edition,Cultura Populara,București,304,304,Romanian,195,,0,-,,,,,,,,,,ocr by epistematic,0,,,,,,,1,17299949,pdf,f5e05a11cfc53acb1e4e292fa66c1bd2,,,Eliade Oceanografie 1934 ocr lipsa.pdf,0,2000-01-01 01:00:00,2017-06-15 22:07:36,1685000/f5e05a11cfc53acb1e4e292fa66c1bd2-g.jpg,,
30239602,Cum ne construim dușmanul: și alte scrieri ocazionale,,,,Umberto Eco,2007,3rd edition,Polirom,Iasi,352,352,Romanian,,,0,-,,,,,,,,,,"ocr by epistematic, scan sdr",300,,,,,,0,1,11499669,pdf,9d2e9c43400588086e983e18322889e4,,,Umberto Eco - Cum ne construim dușmanii ocr.pdf,0,2000-01-01 01:00:00,2017-06-15 22:07:36,1689000/9d2e9c43400588086e983e18322889e4-g.jpg,,
30239603,Pelo espaço: uma nova política da espacialidade,1,9788528613070,,"MASSEY, Doreen B",2008,,Bertrand Brasil,,312,157,Portuguese,32,,0,,2178-729,,,,,,,9788528613070,,"Traduzido por Hilda Pareto Maciel, Rogério Haesbaert",0,0,,1,1,1,,0,14945855,pdf,6dda655c938e8036dc4040aadb7245ec,,,"2008 - MASSEY, Doreen - Pelo Espaço - Uma nova política da espacialidade.pdf",0,2000-01-01 01:00:00,2017-06-15 22:11:42,http://books.google.com/books?id=9788528613070&printsec=frontcover&img=1&zoom=1,,
30239604,"Comprehensive Medicinal Chemistry III, Third Edition",,,,"Samuel Chackalamannil, David Rotella, Simon Ward",2017,3,Elsevier,,4536,4611,English,,,0,"0128032006,9780128032008",,,,,,,,,,,0,,,,1,,1,1,134640144,pdf,07d37450bef523401d522c0d0a5945c5,,,Comprehensive Medicinal Chemistry III_978-0-12-803200-8.pdf,0,2000-01-01 01:00:00,2017-06-15 22:11:56,https://images-na.ssl-images-amazon.com/images/I/51hX%2BF5OhfL.jpg,"Chemical;Coatings, Ceramics & Glass;Cosmetics;Fluid Dynamics;Plant Design;Plastics;Unit Operations & Transport Phenomena;Engineering;Engineering & Transportation;Reference;Almanacs & Yearbooks;Atlases & Maps;Careers;Catalogs & Directories;Consumer Guides;Dictionaries & Thesauruses;Encyclopedias & Subject Guides;English as a Second Language;Etiquette;Foreign Language Study & Reference;Genealogy;Quotations;Survival & Emergency Preparedness;Test Preparation;Words, Language & Grammar;Writing, Resear","0128032006,9780128032008"
30239605,The Cambridge Companion to Schumann,,Cambridge Companions to Music,,Beate Perrey (Editor),2007,First,Cambridge University Press,,405,0,English,61,,0,9780521789509 / 0521789508,,B00AA8JTRW,,,,,,,,,0,,,,,,,,5491386,epub,2609bab384e935a573b29e24eb2b0327,,,The Cambridge Companion to Schumann (Cambridge Companions to Music).epub,0,2000-01-01 01:00:00,2017-06-15 22:13:53,,#Schumann #Robert Schumann #The Cambridge Companion to Schumann #Cambridge Companions to Music #Beate Perrey,9780521789509/0521789508
30239606,Pelo espaço: uma nova política da espacialidade,1,9788528613070,,"MASSEY, Doreen B",2008,,Bertrand Brasil,,312,157,Portuguese,32,,0,,2178-729,,,,,,,9788528613070,,"Traduzido por Hilda Pareto Maciel, Rogério Haesbaert",0,0,,1,1,1,,0,14945855,pdf,6dda655c938e8036dc4040aadb7245ec,,,"2008 - MASSEY, Doreen - Pelo Espaço - Uma nova política da espacialidade.pdf",0,2000-01-01 01:00:00,2017-06-15 22:21:13,,,
30239607,Pelo espaço: uma nova política da espacialidade,1,,,Doreen B Massey,2008,,Bertrand Brasil,,312,157,Portuguese,32,,0,9788528613070,2178-729,,,,,,,9788528613070,,"Traduzido por Hilda Pareto Maciel, Rogério Haesbaert",0,0,,1,1,1,,0,14945855,pdf,6dda655c938e8036dc4040aadb7245ec,,,"2008 - MASSEY, Doreen - Pelo Espaço - Uma nova política da espacialidade.pdf",0,2000-01-01 01:00:00,2017-06-15 22:21:20,,,9788528613070
30239608,The Cambridge Companion to Schubert,,Cambridge Companions to Music,,Christopher H. Gibbs (Editor),1997,First,Cambridge University Press,,375,0,English,61,,0,9780521484244 / 0521484243,,B00AA8JUKI,,,,,,,,,0,,,,,,,,4110308,epub,49a9233ab737c1b7dd8be26fb9cc1bb2,,,The Cambridge Companion to Schubert (Cambridge Companions to Music).epub,0,2000-01-01 01:00:00,2017-06-15 22:32:00,,#Schubert #Franz Schubert #The Cambridge Companion to Bach #Cambridge Companions to Music #Christopher H. Gibbs,9780521484244/0521484243
30239609,The Science of Facial Expression,,Social Cognition and Social Neuroscience,,"José-Miguel Fernández-Dols, James A. Russell",2017,1,Oxford University Press,,552,553,English,,,0,"0190613505,9780190613501",,,,,,,,,,,0,,,,,,,1,39918840,pdf,6fefb8b43a59acad6658313a931cfa21,,,science facial expression 2017-output.pdf,0,2000-01-01 01:00:00,2017-06-15 22:44:20,https://images-na.ssl-images-amazon.com/images/I/414lKN%2BFuXL.jpg,"Cognitive Psychology;Behavioral Sciences;Science & Math;Psychiatry;Adolescent;Child;Internal Medicine;Medicine;Cognitive;Psychology;Psychiatry;Clinical;Medicine;Medicine & Health Sciences;New, Used & Rental Textbooks;Specialty Boutique;Cognitive Psychology;Psychology;Social Sciences;New, Used & Rental Textbooks;Specialty Boutique","0190613505,9780190613501"
30239610,Театрал,,,,Греч Н.И.,1853,,Типография Н. Греча,,,162,Russian,,,,-,,,,,,,,,,,0,,,,,,0,1,37959134,pdf,25c2fd4d768b164089e605624a96fb6a,,,Греч Н.И.;Театрал;;;Типография Н. Греча;1853;-;;Russian,0,2000-01-01 01:00:00,2017-06-15 23:07:36,1573000/25c2fd4d768b164089e605624a96fb6a-g.jpg,,
30239611,Иллюстрированный практический путеводитель по Одессе,,,,Москвич Г.Г.,1904,,Типография Л. Нитче (Одесса),,,193,Russian,,,,-,,,,,,,,,,,0,,,,,,0,1,114294202,pdf,6056c19c1332a4c10e4a7a718155860f,,,Москвич Г.Г.;Иллюстрированный практический путеводитель по Одессе;;;Типография Л. Нитче (Одесса);1904;-;;Russian,0,2000-01-01 01:00:00,2017-06-15 23:07:36,1577000/6056c19c1332a4c10e4a7a718155860f-g.jpg,,
30239612,«Отчизну сердцем защитили»  Стихи поэтов Тейковского района,,,,,2011,,"ОАО «Издательство «Иваново»,",,,64,Russian,,,,-,,,,,,,,,,,0,,,,,,0,1,2010197,pdf,ca229279281b8a331bc80b0e6cfa53f2,,,";«Отчизну сердцем защитили»  Стихи поэтов Тейковского района;;;ОАО «Издательство «Иваново»,;2011;-;;Russian",0,2000-01-01 01:00:00,2017-06-15 23:07:36,1585000/ca229279281b8a331bc80b0e6cfa53f2-g.jpg,,
30239613,Recettes Angéliques. Le bœuf: Le goût d’être ensemble,,,,(Collective),2012,,INTERBEV,,0,32,French,,,0,-,,,,,,,,,,,0,,,,,,0,1,3164060,pdf,be017384eb788f84803d6cf2728a3a68,,,;Recettes Angliques. Le boeuf Le got d’tre ensemble;;;INTERBEV;2012;-;;French,0,2000-01-01 01:00:00,2017-06-15 23:07:36,1585000/be017384eb788f84803d6cf2728a3a68-g.jpg,,
30239614,A World Of Animals Vol. 2,,Painting- Animals,,Ana Bernabe,2002,,Viking folk Art,,,60,English,,,,-,,,,,,,,,,,0,,,,,,0,0,50405079,pdf,857f613ba692b86d043d09c24061c24a,,,Ana Bernabe;A World Of Animals Vol. 2;Painting- Animals;;Viking folk Art;2002;-;;English,0,2000-01-01 01:00:00,2017-06-15 23:07:36,1585000/857f613ba692b86d043d09c24061c24a-g.jpg,,
30239615,A World Of Animals Vol. 3,,Painting- Animals,,Ana Bernabe,2003,,Viking folk Art,,,65,English,,,,-,,,,,,,,,,,0,,,,,,0,0,46544505,pdf,d2dbe9b1e95bf109a85cf033d923f5a2,,,Ana Bernabe;A World Of Animals Vol. 3;Painting- Animals;;Viking folk Art;2003;-;;English,0,2000-01-01 01:00:00,2017-06-15 23:07:36,1585000/d2dbe9b1e95bf109a85cf033d923f5a2-g.jpg,,
30239616,20 Easy DIY Holiday Craft,,,,Collective,2015,,FloraCraft,,0,58,English,,,0,-,,,,,,,,,,,0,,,,,,0,1,19194778,pdf,b5d1f6e32d9acffad14ecfb28dac3ac6,,,"Collective;20 Easy DIY Holiday Craft;;;FloraCraft, Prime Publishing LLC;2015;-;;English",0,2000-01-01 01:00:00,2017-06-15 23:07:36,1585000/b5d1f6e32d9acffad14ecfb28dac3ac6-g.jpg,,
30239617,Описание 3-х линейной винтовки образца 1891 года,,,,,1891,,"Издание Офицерской стрелковой школы, Типография И,Н, Скороходова (СПб",,,16,Russian,,,,-,,,,,,,,,,,0,,,,,,0,1,20685620,pdf,3249fcdc9c40bf854fcfbf1ef55e4d9d,,,";Описание 3-х линейной винтовки образца 1891 года;;;Издание Офицерской стрелковой школы, Типография И,Н, Скороходова (СПб;1891;-;;Russian",0,2000-01-01 01:00:00,2017-06-15 23:07:36,1630000/3249fcdc9c40bf854fcfbf1ef55e4d9d-g.jpg,,
30239618,Третье отделение при Николае I,,,,Троцкий И.М.,1930,,Издательство Всесоюзного общества политкаторжан и ссыльно-поселенцев,,,74,Russian,,,,-,,,,,,,,,,,0,,,,,,0,1,39399144,pdf,e7c5d9cf33dd069059147f4c08996e2b,,,Троцкий И.М.;Третье отделение при Николае I;;;Издательство Всесоюзного общества политкаторжан и ссыльно-поселенцев;1930;-;;Russian,0,2000-01-01 01:00:00,2017-06-15 23:07:36,1630000/e7c5d9cf33dd069059147f4c08996e2b-g.jpg,,
30239619,Занимательные задачи и опыты,,,,Перельман Я.И.,1972,,Детская литература,,,472,Russian,,,,-,,,,,,,,,,,0,,,,,,0,1,167718439,pdf,0fc1642694a8224f1a8df67f677f4c26,,,Перельман Я.И.;Занимательные задачи и опыты;;;Детская литература;1972;-;;Russian,0,2000-01-01 01:00:00,2017-06-15 23:07:36,1630000/0fc1642694a8224f1a8df67f677f4c26-g.jpg,,
30239620,Сад и огород в доме,,,,Попов Е.Б.,1985,,Детская литература,,,120,Russian,,,,-,,,,,,,,,,,0,,,,,,0,1,48066991,pdf,fe06f74051bf5081ef51978cd47a993c,,,Попов Е.Б.;Сад и огород в доме;;;Детская литература;1985;-;;Russian,0,2000-01-01 01:00:00,2017-06-15 23:07:36,1631000/fe06f74051bf5081ef51978cd47a993c-g.jpg,,
30239621,Oceanografie. eseuri,,,,Mircea Eliade,1934,1st edition,Cultura Populara,București,304,304,Romanian,195,,0,-,,,,,,,,,,ocr by epistematic,0,,,,,,,1,17299949,pdf,f5e05a11cfc53acb1e4e292fa66c1bd2,,,Eliade Oceanografie 1934 ocr lipsa.pdf,0,2000-01-01 01:00:00,2017-06-15 23:07:36,1685000/f5e05a11cfc53acb1e4e292fa66c1bd2-g.jpg,,
30239622,Cum ne construim dușmanul: și alte scrieri ocazionale,,,,Umberto Eco,2007,3rd edition,Polirom,Iasi,352,352,Romanian,,,0,-,,,,,,,,,,"ocr by epistematic, scan sdr",300,,,,,,0,1,11499669,pdf,9d2e9c43400588086e983e18322889e4,,,Umberto Eco - Cum ne construim dușmanii ocr.pdf,0,2000-01-01 01:00:00,2017-06-15 23:07:36,1689000/9d2e9c43400588086e983e18322889e4-g.jpg,,
30239623,"The mathematics of mathematics : thinking with the late, Spinozist Vygotsky",,New directions in mathematics and science education 32.,,"Roth, Wolff-Michael; Vygotskiĭ, Lev Semenovich",2017,,Sense Publishers,,238,244,English,,,0,"9789463009249,9463009248,9789463009256,9463009256",,,,,,,,,,,0,,,,,,,1,30841015,pdf,ec7028c43b3934f8986655a07bc69d66,,,wholff 2017-output.pdf,0,2000-01-01 01:00:00,2017-06-15 23:42:22,,"Vygotskiĭ, L S -- (Lev Semenovich), -- 1896-1934;Mathematics -- Study and teaching;Mathematics -- Study and teaching -- Philosophy","9789463009249,9463009248,9789463009256,9463009256"
30239624,Театрал,,,,Греч Н.И.,1853,,Типография Н. Греча,,,162,Russian,,,,-,,,,,,,,,,,0,,,,,,0,1,37959134,pdf,25c2fd4d768b164089e605624a96fb6a,,,Греч Н.И.;Театрал;;;Типография Н. Греча;1853;-;;Russian,0,2000-01-01 01:00:00,2017-06-16 00:07:36,1573000/25c2fd4d768b164089e605624a96fb6a-g.jpg,,
30239625,Иллюстрированный практический путеводитель по Одессе,,,,Москвич Г.Г.,1904,,Типография Л. Нитче (Одесса),,,193,Russian,,,,-,,,,,,,,,,,0,,,,,,0,1,114294202,pdf,6056c19c1332a4c10e4a7a718155860f,,,Москвич Г.Г.;Иллюстрированный практический путеводитель по Одессе;;;Типография Л. Нитче (Одесса);1904;-;;Russian,0,2000-01-01 01:00:00,2017-06-16 00:07:36,1577000/6056c19c1332a4c10e4a7a718155860f-g.jpg,,
30239626,«Отчизну сердцем защитили»  Стихи поэтов Тейковского района,,,,,2011,,"ОАО «Издательство «Иваново»,",,,64,Russian,,,,-,,,,,,,,,,,0,,,,,,0,1,2010197,pdf,ca229279281b8a331bc80b0e6cfa53f2,,,";«Отчизну сердцем защитили»  Стихи поэтов Тейковского района;;;ОАО «Издательство «Иваново»,;2011;-;;Russian",0,2000-01-01 01:00:00,2017-06-16 00:07:36,1585000/ca229279281b8a331bc80b0e6cfa53f2-g.jpg,,
30239627,Recettes Angéliques. Le bœuf: Le goût d’être ensemble,,,,(Collective),2012,,INTERBEV,,0,32,French,,,0,-,,,,,,,,,,,0,,,,,,0,1,3164060,pdf,be017384eb788f84803d6cf2728a3a68,,,;Recettes Angliques. Le boeuf Le got d’tre ensemble;;;INTERBEV;2012;-;;French,0,2000-01-01 01:00:00,2017-06-16 00:07:36,1585000/be017384eb788f84803d6cf2728a3a68-g.jpg,,
30239628,A World Of Animals Vol. 2,,Painting- Animals,,Ana Bernabe,2002,,Viking folk Art,,,60,English,,,,-,,,,,,,,,,,0,,,,,,0,0,50405079,pdf,857f613ba692b86d043d09c24061c24a,,,Ana Bernabe;A World Of Animals Vol. 2;Painting- Animals;;Viking folk Art;2002;-;;English,0,2000-01-01 01:00:00,2017-06-16 00:07:36,1585000/857f613ba692b86d043d09c24061c24a-g.jpg,,
30239629,A World Of Animals Vol. 3,,Painting- Animals,,Ana Bernabe,2003,,Viking folk Art,,,65,English,,,,-,,,,,,,,,,,0,,,,,,0,0,46544505,pdf,d2dbe9b1e95bf109a85cf033d923f5a2,,,Ana Bernabe;A World Of Animals Vol. 3;Painting- Animals;;Viking folk Art;2003;-;;English,0,2000-01-01 01:00:00,2017-06-16 00:07:36,1585000/d2dbe9b1e95bf109a85cf033d923f5a2-g.jpg,,
30239630,20 Easy DIY Holiday Craft,,,,Collective,2015,,FloraCraft,,0,58,English,,,0,-,,,,,,,,,,,0,,,,,,0,1,19194778,pdf,b5d1f6e32d9acffad14ecfb28dac3ac6,,,"Collective;20 Easy DIY Holiday Craft;;;FloraCraft, Prime Publishing LLC;2015;-;;English",0,2000-01-01 01:00:00,2017-06-16 00:07:36,1585000/b5d1f6e32d9acffad14ecfb28dac3ac6-g.jpg,,
30239631,Описание 3-х линейной винтовки образца 1891 года,,,,,1891,,"Издание Офицерской стрелковой школы, Типография И,Н, Скороходова (СПб",,,16,Russian,,,,-,,,,,,,,,,,0,,,,,,0,1,20685620,pdf,3249fcdc9c40bf854fcfbf1ef55e4d9d,,,";Описание 3-х линейной винтовки образца 1891 года;;;Издание Офицерской стрелковой школы, Типография И,Н, Скороходова (СПб;1891;-;;Russian",0,2000-01-01 01:00:00,2017-06-16 00:07:36,1630000/3249fcdc9c40bf854fcfbf1ef55e4d9d-g.jpg,,
30239632,Третье отделение при Николае I,,,,Троцкий И.М.,1930,,Издательство Всесоюзного общества политкаторжан и ссыльно-поселенцев,,,74,Russian,,,,-,,,,,,,,,,,0,,,,,,0,1,39399144,pdf,e7c5d9cf33dd069059147f4c08996e2b,,,Троцкий И.М.;Третье отделение при Николае I;;;Издательство Всесоюзного общества политкаторжан и ссыльно-поселенцев;1930;-;;Russian,0,2000-01-01 01:00:00,2017-06-16 00:07:36,1630000/e7c5d9cf33dd069059147f4c08996e2b-g.jpg,,
30239633,Занимательные задачи и опыты,,,,Перельман Я.И.,1972,,Детская литература,,,472,Russian,,,,-,,,,,,,,,,,0,,,,,,0,1,167718439,pdf,0fc1642694a8224f1a8df67f677f4c26,,,Перельман Я.И.;Занимательные задачи и опыты;;;Детская литература;1972;-;;Russian,0,2000-01-01 01:00:00,2017-06-16 00:07:36,1630000/0fc1642694a8224f1a8df67f677f4c26-g.jpg,,
30239634,Сад и огород в доме,,,,Попов Е.Б.,1985,,Детская литература,,,120,Russian,,,,-,,,,,,,,,,,0,,,,,,0,1,48066991,pdf,fe06f74051bf5081ef51978cd47a993c,,,Попов Е.Б.;Сад и огород в доме;;;Детская литература;1985;-;;Russian,0,2000-01-01 01:00:00,2017-06-16 00:07:36,1631000/fe06f74051bf5081ef51978cd47a993c-g.jpg,,
30239635,Oceanografie. eseuri,,,,Mircea Eliade,1934,1st edition,Cultura Populara,București,304,304,Romanian,195,,0,-,,,,,,,,,,ocr by epistematic,0,,,,,,,1,17299949,pdf,f5e05a11cfc53acb1e4e292fa66c1bd2,,,Eliade Oceanografie 1934 ocr lipsa.pdf,0,2000-01-01 01:00:00,2017-06-16 00:07:36,1685000/f5e05a11cfc53acb1e4e292fa66c1bd2-g.jpg,,
30239636,Cum ne construim dușmanul: și alte scrieri ocazionale,,,,Umberto Eco,2007,3rd edition,Polirom,Iasi,352,352,Romanian,,,0,-,,,,,,,,,,"ocr by epistematic, scan sdr",300,,,,,,0,1,11499669,pdf,9d2e9c43400588086e983e18322889e4,,,Umberto Eco - Cum ne construim dușmanii ocr.pdf,0,2000-01-01 01:00:00,2017-06-16 00:07:36,1689000/9d2e9c43400588086e983e18322889e4-g.jpg,,
30239637,Театрал,,,,Греч Н.И.,1853,,Типография Н. Греча,,,162,Russian,,,,-,,,,,,,,,,,0,,,,,,0,1,37959134,pdf,25c2fd4d768b164089e605624a96fb6a,,,Греч Н.И.;Театрал;;;Типография Н. Греча;1853;-;;Russian,0,2000-01-01 01:00:00,2017-06-16 01:07:36,1573000/25c2fd4d768b164089e605624a96fb6a-g.jpg,,
30239638,Иллюстрированный практический путеводитель по Одессе,,,,Москвич Г.Г.,1904,,Типография Л. Нитче (Одесса),,,193,Russian,,,,-,,,,,,,,,,,0,,,,,,0,1,114294202,pdf,6056c19c1332a4c10e4a7a718155860f,,,Москвич Г.Г.;Иллюстрированный практический путеводитель по Одессе;;;Типография Л. Нитче (Одесса);1904;-;;Russian,0,2000-01-01 01:00:00,2017-06-16 01:07:36,1577000/6056c19c1332a4c10e4a7a718155860f-g.jpg,,
30239639,«Отчизну сердцем защитили»  Стихи поэтов Тейковского района,,,,,2011,,"ОАО «Издательство «Иваново»,",,,64,Russian,,,,-,,,,,,,,,,,0,,,,,,0,1,2010197,pdf,ca229279281b8a331bc80b0e6cfa53f2,,,";«Отчизну сердцем защитили»  Стихи поэтов Тейковского района;;;ОАО «Издательство «Иваново»,;2011;-;;Russian",0,2000-01-01 01:00:00,2017-06-16 01:07:36,1585000/ca229279281b8a331bc80b0e6cfa53f2-g.jpg,,
30239640,Recettes Angéliques. Le bœuf: Le goût d’être ensemble,,,,(Collective),2012,,INTERBEV,,0,32,French,,,0,-,,,,,,,,,,,0,,,,,,0,1,3164060,pdf,be017384eb788f84803d6cf2728a3a68,,,;Recettes Angliques. Le boeuf Le got d’tre ensemble;;;INTERBEV;2012;-;;French,0,2000-01-01 01:00:00,2017-06-16 01:07:36,1585000/be017384eb788f84803d6cf2728a3a68-g.jpg,,
30239641,A World Of Animals Vol. 2,,Painting- Animals,,Ana Bernabe,2002,,Viking folk Art,,,60,English,,,,-,,,,,,,,,,,0,,,,,,0,0,50405079,pdf,857f613ba692b86d043d09c24061c24a,,,Ana Bernabe;A World Of Animals Vol. 2;Painting- Animals;;Viking folk Art;2002;-;;English,0,2000-01-01 01:00:00,2017-06-16 01:07:36,1585000/857f613ba692b86d043d09c24061c24a-g.jpg,,
30239642,A World Of Animals Vol. 3,,Painting- Animals,,Ana Bernabe,2003,,Viking folk Art,,,65,English,,,,-,,,,,,,,,,,0,,,,,,0,0,46544505,pdf,d2dbe9b1e95bf109a85cf033d923f5a2,,,Ana Bernabe;A World Of Animals Vol. 3;Painting- Animals;;Viking folk Art;2003;-;;English,0,2000-01-01 01:00:00,2017-06-16 01:07:36,1585000/d2dbe9b1e95bf109a85cf033d923f5a2-g.jpg,,
30239643,20 Easy DIY Holiday Craft,,,,Collective,2015,,FloraCraft,,0,58,English,,,0,-,,,,,,,,,,,0,,,,,,0,1,19194778,pdf,b5d1f6e32d9acffad14ecfb28dac3ac6,,,"Collective;20 Easy DIY Holiday Craft;;;FloraCraft, Prime Publishing LLC;2015;-;;English",0,2000-01-01 01:00:00,2017-06-16 01:07:36,1585000/b5d1f6e32d9acffad14ecfb28dac3ac6-g.jpg,,
30239644,Описание 3-х линейной винтовки образца 1891 года,,,,,1891,,"Издание Офицерской стрелковой школы, Типография И,Н, Скороходова (СПб",,,16,Russian,,,,-,,,,,,,,,,,0,,,,,,0,1,20685620,pdf,3249fcdc9c40bf854fcfbf1ef55e4d9d,,,";Описание 3-х линейной винтовки образца 1891 года;;;Издание Офицерской стрелковой школы, Типография И,Н, Скороходова (СПб;1891;-;;Russian",0,2000-01-01 01:00:00,2017-06-16 01:07:36,1630000/3249fcdc9c40bf854fcfbf1ef55e4d9d-g.jpg,,
30239645,Третье отделение при Николае I,,,,Троцкий И.М.,1930,,Издательство Всесоюзного общества политкаторжан и ссыльно-поселенцев,,,74,Russian,,,,-,,,,,,,,,,,0,,,,,,0,1,39399144,pdf,e7c5d9cf33dd069059147f4c08996e2b,,,Троцкий И.М.;Третье отделение при Николае I;;;Издательство Всесоюзного общества политкаторжан и ссыльно-поселенцев;1930;-;;Russian,0,2000-01-01 01:00:00,2017-06-16 01:07:36,1630000/e7c5d9cf33dd069059147f4c08996e2b-g.jpg,,
30239646,Занимательные задачи и опыты,,,,Перельман Я.И.,1972,,Детская литература,,,472,Russian,,,,-,,,,,,,,,,,0,,,,,,0,1,167718439,pdf,0fc1642694a8224f1a8df67f677f4c26,,,Перельман Я.И.;Занимательные задачи и опыты;;;Детская литература;1972;-;;Russian,0,2000-01-01 01:00:00,2017-06-16 01:07:36,1630000/0fc1642694a8224f1a8df67f677f4c26-g.jpg,,
30239647,Сад и огород в доме,,,,Попов Е.Б.,1985,,Детская литература,,,120,Russian,,,,-,,,,,,,,,,,0,,,,,,0,1,48066991,pdf,fe06f74051bf5081ef51978cd47a993c,,,Попов Е.Б.;Сад и огород в доме;;;Детская литература;1985;-;;Russian,0,2000-01-01 01:00:00,2017-06-16 01:07:36,1631000/fe06f74051bf5081ef51978cd47a993c-g.jpg,,
30239648,Oceanografie. eseuri,,,,Mircea Eliade,1934,1st edition,Cultura Populara,București,304,304,Romanian,195,,0,-,,,,,,,,,,ocr by epistematic,0,,,,,,,1,17299949,pdf,f5e05a11cfc53acb1e4e292fa66c1bd2,,,Eliade Oceanografie 1934 ocr lipsa.pdf,0,2000-01-01 01:00:00,2017-06-16 01:07:36,1685000/f5e05a11cfc53acb1e4e292fa66c1bd2-g.jpg,,
30239649,Cum ne construim dușmanul: și alte scrieri ocazionale,,,,Umberto Eco,2007,3rd edition,Polirom,Iasi,352,352,Romanian,,,0,-,,,,,,,,,,"ocr by epistematic, scan sdr",300,,,,,,0,1,11499669,pdf,9d2e9c43400588086e983e18322889e4,,,Umberto Eco - Cum ne construim dușmanii ocr.pdf,0,2000-01-01 01:00:00,2017-06-16 01:07:36,1689000/9d2e9c43400588086e983e18322889e4-g.jpg,,
30239650,AOSpine Masters Series Vol 8 Back Pain,,Series 8,,Luiz Roberto Vialle,2017,,,,232,232,English,147,,0,,,,,,,,,,,,0,,,,,,,1,14121068,pdf,c2b975171d334a9ddf22b84c914c1428,,,"AOSpine Masters Series, Volume 8 Back Pain.pdf",0,2000-01-01 01:00:00,2017-06-16 01:11:01,,,
30239651,Театрал,,,,Греч Н.И.,1853,,Типография Н. Греча,,,162,Russian,,,,-,,,,,,,,,,,0,,,,,,0,1,37959134,pdf,25c2fd4d768b164089e605624a96fb6a,,,Греч Н.И.;Театрал;;;Типография Н. Греча;1853;-;;Russian,0,2000-01-01 01:00:00,2017-06-16 02:07:36,1573000/25c2fd4d768b164089e605624a96fb6a-g.jpg,,
30239652,Иллюстрированный практический путеводитель по Одессе,,,,Москвич Г.Г.,1904,,Типография Л. Нитче (Одесса),,,193,Russian,,,,-,,,,,,,,,,,0,,,,,,0,1,114294202,pdf,6056c19c1332a4c10e4a7a718155860f,,,Москвич Г.Г.;Иллюстрированный практический путеводитель по Одессе;;;Типография Л. Нитче (Одесса);1904;-;;Russian,0,2000-01-01 01:00:00,2017-06-16 02:07:36,1577000/6056c19c1332a4c10e4a7a718155860f-g.jpg,,
30239653,«Отчизну сердцем защитили»  Стихи поэтов Тейковского района,,,,,2011,,"ОАО «Издательство «Иваново»,",,,64,Russian,,,,-,,,,,,,,,,,0,,,,,,0,1,2010197,pdf,ca229279281b8a331bc80b0e6cfa53f2,,,";«Отчизну сердцем защитили»  Стихи поэтов Тейковского района;;;ОАО «Издательство «Иваново»,;2011;-;;Russian",0,2000-01-01 01:00:00,2017-06-16 02:07:36,1585000/ca229279281b8a331bc80b0e6cfa53f2-g.jpg,,
30239654,Recettes Angéliques. Le bœuf: Le goût d’être ensemble,,,,(Collective),2012,,INTERBEV,,0,32,French,,,0,-,,,,,,,,,,,0,,,,,,0,1,3164060,pdf,be017384eb788f84803d6cf2728a3a68,,,;Recettes Angliques. Le boeuf Le got d’tre ensemble;;;INTERBEV;2012;-;;French,0,2000-01-01 01:00:00,2017-06-16 02:07:36,1585000/be017384eb788f84803d6cf2728a3a68-g.jpg,,
30239655,A World Of Animals Vol. 2,,Painting- Animals,,Ana Bernabe,2002,,Viking folk Art,,,60,English,,,,-,,,,,,,,,,,0,,,,,,0,0,50405079,pdf,857f613ba692b86d043d09c24061c24a,,,Ana Bernabe;A World Of Animals Vol. 2;Painting- Animals;;Viking folk Art;2002;-;;English,0,2000-01-01 01:00:00,2017-06-16 02:07:36,1585000/857f613ba692b86d043d09c24061c24a-g.jpg,,
30239656,A World Of Animals Vol. 3,,Painting- Animals,,Ana Bernabe,2003,,Viking folk Art,,,65,English,,,,-,,,,,,,,,,,0,,,,,,0,0,46544505,pdf,d2dbe9b1e95bf109a85cf033d923f5a2,,,Ana Bernabe;A World Of Animals Vol. 3;Painting- Animals;;Viking folk Art;2003;-;;English,0,2000-01-01 01:00:00,2017-06-16 02:07:36,1585000/d2dbe9b1e95bf109a85cf033d923f5a2-g.jpg,,
30239657,20 Easy DIY Holiday Craft,,,,Collective,2015,,FloraCraft,,0,58,English,,,0,-,,,,,,,,,,,0,,,,,,0,1,19194778,pdf,b5d1f6e32d9acffad14ecfb28dac3ac6,,,"Collective;20 Easy DIY Holiday Craft;;;FloraCraft, Prime Publishing LLC;2015;-;;English",0,2000-01-01 01:00:00,2017-06-16 02:07:36,1585000/b5d1f6e32d9acffad14ecfb28dac3ac6-g.jpg,,
30239658,Описание 3-х линейной винтовки образца 1891 года,,,,,1891,,"Издание Офицерской стрелковой школы, Типография И,Н, Скороходова (СПб",,,16,Russian,,,,-,,,,,,,,,,,0,,,,,,0,1,20685620,pdf,3249fcdc9c40bf854fcfbf1ef55e4d9d,,,";Описание 3-х линейной винтовки образца 1891 года;;;Издание Офицерской стрелковой школы, Типография И,Н, Скороходова (СПб;1891;-;;Russian",0,2000-01-01 01:00:00,2017-06-16 02:07:36,1630000/3249fcdc9c40bf854fcfbf1ef55e4d9d-g.jpg,,
30239659,Третье отделение при Николае I,,,,Троцкий И.М.,1930,,Издательство Всесоюзного общества политкаторжан и ссыльно-поселенцев,,,74,Russian,,,,-,,,,,,,,,,,0,,,,,,0,1,39399144,pdf,e7c5d9cf33dd069059147f4c08996e2b,,,Троцкий И.М.;Третье отделение при Николае I;;;Издательство Всесоюзного общества политкаторжан и ссыльно-поселенцев;1930;-;;Russian,0,2000-01-01 01:00:00,2017-06-16 02:07:36,1630000/e7c5d9cf33dd069059147f4c08996e2b-g.jpg,,
30239660,Занимательные задачи и опыты,,,,Перельман Я.И.,1972,,Детская литература,,,472,Russian,,,,-,,,,,,,,,,,0,,,,,,0,1,167718439,pdf,0fc1642694a8224f1a8df67f677f4c26,,,Перельман Я.И.;Занимательные задачи и опыты;;;Детская литература;1972;-;;Russian,0,2000-01-01 01:00:00,2017-06-16 02:07:36,1630000/0fc1642694a8224f1a8df67f677f4c26-g.jpg,,
30239661,Сад и огород в доме,,,,Попов Е.Б.,1985,,Детская литература,,,120,Russian,,,,-,,,,,,,,,,,0,,,,,,0,1,48066991,pdf,fe06f74051bf5081ef51978cd47a993c,,,Попов Е.Б.;Сад и огород в доме;;;Детская литература;1985;-;;Russian,0,2000-01-01 01:00:00,2017-06-16 02:07:36,1631000/fe06f74051bf5081ef51978cd47a993c-g.jpg,,
30239662,Oceanografie. eseuri,,,,Mircea Eliade,1934,1st edition,Cultura Populara,București,304,304,Romanian,195,,0,-,,,,,,,,,,ocr by epistematic,0,,,,,,,1,17299949,pdf,f5e05a11cfc53acb1e4e292fa66c1bd2,,,Eliade Oceanografie 1934 ocr lipsa.pdf,0,2000-01-01 01:00:00,2017-06-16 02:07:36,1685000/f5e05a11cfc53acb1e4e292fa66c1bd2-g.jpg,,
30239663,Cum ne construim dușmanul: și alte scrieri ocazionale,,,,Umberto Eco,2007,3rd edition,Polirom,Iasi,352,352,Romanian,,,0,-,,,,,,,,,,"ocr by epistematic, scan sdr",300,,,,,,0,1,11499669,pdf,9d2e9c43400588086e983e18322889e4,,,Umberto Eco - Cum ne construim dușmanii ocr.pdf,0,2000-01-01 01:00:00,2017-06-16 02:07:36,1689000/9d2e9c43400588086e983e18322889e4-g.jpg,,
30239664,Театрал,,,,Греч Н.И.,1853,,Типография Н. Греча,,,162,Russian,,,,-,,,,,,,,,,,0,,,,,,0,1,37959134,pdf,25c2fd4d768b164089e605624a96fb6a,,,Греч Н.И.;Театрал;;;Типография Н. Греча;1853;-;;Russian,0,2000-01-01 01:00:00,2017-06-16 03:07:36,1573000/25c2fd4d768b164089e605624a96fb6a-g.jpg,,
30239665,Иллюстрированный практический путеводитель по Одессе,,,,Москвич Г.Г.,1904,,Типография Л. Нитче (Одесса),,,193,Russian,,,,-,,,,,,,,,,,0,,,,,,0,1,114294202,pdf,6056c19c1332a4c10e4a7a718155860f,,,Москвич Г.Г.;Иллюстрированный практический путеводитель по Одессе;;;Типография Л. Нитче (Одесса);1904;-;;Russian,0,2000-01-01 01:00:00,2017-06-16 03:07:36,1577000/6056c19c1332a4c10e4a7a718155860f-g.jpg,,
30239666,«Отчизну сердцем защитили»  Стихи поэтов Тейковского района,,,,,2011,,"ОАО «Издательство «Иваново»,",,,64,Russian,,,,-,,,,,,,,,,,0,,,,,,0,1,2010197,pdf,ca229279281b8a331bc80b0e6cfa53f2,,,";«Отчизну сердцем защитили»  Стихи поэтов Тейковского района;;;ОАО «Издательство «Иваново»,;2011;-;;Russian",0,2000-01-01 01:00:00,2017-06-16 03:07:36,1585000/ca229279281b8a331bc80b0e6cfa53f2-g.jpg,,
30239667,Recettes Angéliques. Le bœuf: Le goût d’être ensemble,,,,(Collective),2012,,INTERBEV,,0,32,French,,,0,-,,,,,,,,,,,0,,,,,,0,1,3164060,pdf,be017384eb788f84803d6cf2728a3a68,,,;Recettes Angliques. Le boeuf Le got d’tre ensemble;;;INTERBEV;2012;-;;French,0,2000-01-01 01:00:00,2017-06-16 03:07:36,1585000/be017384eb788f84803d6cf2728a3a68-g.jpg,,
30239668,A World Of Animals Vol. 2,,Painting- Animals,,Ana Bernabe,2002,,Viking folk Art,,,60,English,,,,-,,,,,,,,,,,0,,,,,,0,0,50405079,pdf,857f613ba692b86d043d09c24061c24a,,,Ana Bernabe;A World Of Animals Vol. 2;Painting- Animals;;Viking folk Art;2002;-;;English,0,2000-01-01 01:00:00,2017-06-16 03:07:36,1585000/857f613ba692b86d043d09c24061c24a-g.jpg,,
30239669,A World Of Animals Vol. 3,,Painting- Animals,,Ana Bernabe,2003,,Viking folk Art,,,65,English,,,,-,,,,,,,,,,,0,,,,,,0,0,46544505,pdf,d2dbe9b1e95bf109a85cf033d923f5a2,,,Ana Bernabe;A World Of Animals Vol. 3;Painting- Animals;;Viking folk Art;2003;-;;English,0,2000-01-01 01:00:00,2017-06-16 03:07:36,1585000/d2dbe9b1e95bf109a85cf033d923f5a2-g.jpg,,
30239670,20 Easy DIY Holiday Craft,,,,Collective,2015,,FloraCraft,,0,58,English,,,0,-,,,,,,,,,,,0,,,,,,0,1,19194778,pdf,b5d1f6e32d9acffad14ecfb28dac3ac6,,,"Collective;20 Easy DIY Holiday Craft;;;FloraCraft, Prime Publishing LLC;2015;-;;English",0,2000-01-01 01:00:00,2017-06-16 03:07:36,1585000/b5d1f6e32d9acffad14ecfb28dac3ac6-g.jpg,,
30239671,Описание 3-х линейной винтовки образца 1891 года,,,,,1891,,"Издание Офицерской стрелковой школы, Типография И,Н, Скороходова (СПб",,,16,Russian,,,,-,,,,,,,,,,,0,,,,,,0,1,20685620,pdf,3249fcdc9c40bf854fcfbf1ef55e4d9d,,,";Описание 3-х линейной винтовки образца 1891 года;;;Издание Офицерской стрелковой школы, Типография И,Н, Скороходова (СПб;1891;-;;Russian",0,2000-01-01 01:00:00,2017-06-16 03:07:36,1630000/3249fcdc9c40bf854fcfbf1ef55e4d9d-g.jpg,,
30239672,Третье отделение при Николае I,,,,Троцкий И.М.,1930,,Издательство Всесоюзного общества политкаторжан и ссыльно-поселенцев,,,74,Russian,,,,-,,,,,,,,,,,0,,,,,,0,1,39399144,pdf,e7c5d9cf33dd069059147f4c08996e2b,,,Троцкий И.М.;Третье отделение при Николае I;;;Издательство Всесоюзного общества политкаторжан и ссыльно-поселенцев;1930;-;;Russian,0,2000-01-01 01:00:00,2017-06-16 03:07:36,1630000/e7c5d9cf33dd069059147f4c08996e2b-g.jpg,,
30239673,Занимательные задачи и опыты,,,,Перельман Я.И.,1972,,Детская литература,,,472,Russian,,,,-,,,,,,,,,,,0,,,,,,0,1,167718439,pdf,0fc1642694a8224f1a8df67f677f4c26,,,Перельман Я.И.;Занимательные задачи и опыты;;;Детская литература;1972;-;;Russian,0,2000-01-01 01:00:00,2017-06-16 03:07:36,1630000/0fc1642694a8224f1a8df67f677f4c26-g.jpg,,
30239674,Сад и огород в доме,,,,Попов Е.Б.,1985,,Детская литература,,,120,Russian,,,,-,,,,,,,,,,,0,,,,,,0,1,48066991,pdf,fe06f74051bf5081ef51978cd47a993c,,,Попов Е.Б.;Сад и огород в доме;;;Детская литература;1985;-;;Russian,0,2000-01-01 01:00:00,2017-06-16 03:07:36,1631000/fe06f74051bf5081ef51978cd47a993c-g.jpg,,
30239675,Oceanografie. eseuri,,,,Mircea Eliade,1934,1st edition,Cultura Populara,București,304,304,Romanian,195,,0,-,,,,,,,,,,ocr by epistematic,0,,,,,,,1,17299949,pdf,f5e05a11cfc53acb1e4e292fa66c1bd2,,,Eliade Oceanografie 1934 ocr lipsa.pdf,0,2000-01-01 01:00:00,2017-06-16 03:07:36,1685000/f5e05a11cfc53acb1e4e292fa66c1bd2-g.jpg,,
30239676,Cum ne construim dușmanul: și alte scrieri ocazionale,,,,Umberto Eco,2007,3rd edition,Polirom,Iasi,352,352,Romanian,,,0,-,,,,,,,,,,"ocr by epistematic, scan sdr",300,,,,,,0,1,11499669,pdf,9d2e9c43400588086e983e18322889e4,,,Umberto Eco - Cum ne construim dușmanii ocr.pdf,0,2000-01-01 01:00:00,2017-06-16 03:07:36,1689000/9d2e9c43400588086e983e18322889e4-g.jpg,,
30239677,"Karmayoga. Studije o genezi ideje \praktičkog\"" u ranoj indijskoj filozofiji""",,,,Borislav Mikulić,1988,,"\Veselin Masleša\""""",Sarajevo,224,224,Croatian,,,0,86-21-00192-6,,,,,,,,,,,0,,,,,,,1,5233368,pdf,8507e808db84a690c2a3af7103dd9d52,,,Mikulic_Karmayoga_1988.pdf,0,2000-01-01 01:00:00,2017-06-16 03:37:43,,,8621001926
30239678,"Karmayoga. Studije o genezi ideje \praktičkog\"" u ranoj indijskoj filozofiji""",,,,Borislav Mikulić,1988,,"\Veselin Masleša\""""",Sarajevo,224,224,Croatian,,,0,86-21-00192-6,,,,,,,,,,,0,,,,,,,1,5233368,pdf,8507e808db84a690c2a3af7103dd9d52,,,Mikulic_Karmayoga_1988.pdf,0,2000-01-01 01:00:00,2017-06-16 03:39:00,1693000/8507e808db84a690c2a3af7103dd9d52-g.jpg,,8621001926
30239679,El pensamiento y lo movible,,Ensayos y Conferencias,,Henri Bergson,1936,,Ediciones Ercilla,Santiago,212,212,Spanish,196,,0,,,,,,,,,,,,0,,,,,1,,1,30929154,pdf,07ecc3d31c08705dba0a0c552627b9be,,,Henri Bergson - El pensamiento y lo movible.pdf,0,2000-01-01 01:00:00,2017-06-16 03:53:15,,,
30239680,"Sein, Physis, Aletheia. Zur Vermittlung und Unmittelbarkeit im ‘ursprünglichen’ Seinsdenken Martin Heideggers",,,,Borislav Mikulić,1987,,Konigshausen und Neumann,Würzburg,453,453,Croatian,,,0,3-88479-320-9,,,,,,,,,,,0,,,,,,,1,11353993,pdf,6e9bcfb075ec460935475e203f9baa20,,,Mikulic_SeinPhysisAletheia_1987.pdf,0,2000-01-01 01:00:00,2017-06-16 03:55:16,,,3884793209
30239681,Театрал,,,,Греч Н.И.,1853,,Типография Н. Греча,,,162,Russian,,,,-,,,,,,,,,,,0,,,,,,0,1,37959134,pdf,25c2fd4d768b164089e605624a96fb6a,,,Греч Н.И.;Театрал;;;Типография Н. Греча;1853;-;;Russian,0,2000-01-01 01:00:00,2017-06-16 04:07:37,1573000/25c2fd4d768b164089e605624a96fb6a-g.jpg,,
30239682,Иллюстрированный практический путеводитель по Одессе,,,,Москвич Г.Г.,1904,,Типография Л. Нитче (Одесса),,,193,Russian,,,,-,,,,,,,,,,,0,,,,,,0,1,114294202,pdf,6056c19c1332a4c10e4a7a718155860f,,,Москвич Г.Г.;Иллюстрированный практический путеводитель по Одессе;;;Типография Л. Нитче (Одесса);1904;-;;Russian,0,2000-01-01 01:00:00,2017-06-16 04:07:37,1577000/6056c19c1332a4c10e4a7a718155860f-g.jpg,,
30239683,«Отчизну сердцем защитили»  Стихи поэтов Тейковского района,,,,,2011,,"ОАО «Издательство «Иваново»,",,,64,Russian,,,,-,,,,,,,,,,,0,,,,,,0,1,2010197,pdf,ca229279281b8a331bc80b0e6cfa53f2,,,";«Отчизну сердцем защитили»  Стихи поэтов Тейковского района;;;ОАО «Издательство «Иваново»,;2011;-;;Russian",0,2000-01-01 01:00:00,2017-06-16 04:07:37,1585000/ca229279281b8a331bc80b0e6cfa53f2-g.jpg,,
30239684,Recettes Angéliques. Le bœuf: Le goût d’être ensemble,,,,(Collective),2012,,INTERBEV,,0,32,French,,,0,-,,,,,,,,,,,0,,,,,,0,1,3164060,pdf,be017384eb788f84803d6cf2728a3a68,,,;Recettes Angliques. Le boeuf Le got d’tre ensemble;;;INTERBEV;2012;-;;French,0,2000-01-01 01:00:00,2017-06-16 04:07:37,1585000/be017384eb788f84803d6cf2728a3a68-g.jpg,,
30239685,A World Of Animals Vol. 2,,Painting- Animals,,Ana Bernabe,2002,,Viking folk Art,,,60,English,,,,-,,,,,,,,,,,0,,,,,,0,0,50405079,pdf,857f613ba692b86d043d09c24061c24a,,,Ana Bernabe;A World Of Animals Vol. 2;Painting- Animals;;Viking folk Art;2002;-;;English,0,2000-01-01 01:00:00,2017-06-16 04:07:37,1585000/857f613ba692b86d043d09c24061c24a-g.jpg,,
30239686,A World Of Animals Vol. 3,,Painting- Animals,,Ana Bernabe,2003,,Viking folk Art,,,65,English,,,,-,,,,,,,,,,,0,,,,,,0,0,46544505,pdf,d2dbe9b1e95bf109a85cf033d923f5a2,,,Ana Bernabe;A World Of Animals Vol. 3;Painting- Animals;;Viking folk Art;2003;-;;English,0,2000-01-01 01:00:00,2017-06-16 04:07:37,1585000/d2dbe9b1e95bf109a85cf033d923f5a2-g.jpg,,
30239687,20 Easy DIY Holiday Craft,,,,Collective,2015,,FloraCraft,,0,58,English,,,0,-,,,,,,,,,,,0,,,,,,0,1,19194778,pdf,b5d1f6e32d9acffad14ecfb28dac3ac6,,,"Collective;20 Easy DIY Holiday Craft;;;FloraCraft, Prime Publishing LLC;2015;-;;English",0,2000-01-01 01:00:00,2017-06-16 04:07:37,1585000/b5d1f6e32d9acffad14ecfb28dac3ac6-g.jpg,,
30239688,Описание 3-х линейной винтовки образца 1891 года,,,,,1891,,"Издание Офицерской стрелковой школы, Типография И,Н, Скороходова (СПб",,,16,Russian,,,,-,,,,,,,,,,,0,,,,,,0,1,20685620,pdf,3249fcdc9c40bf854fcfbf1ef55e4d9d,,,";Описание 3-х линейной винтовки образца 1891 года;;;Издание Офицерской стрелковой школы, Типография И,Н, Скороходова (СПб;1891;-;;Russian",0,2000-01-01 01:00:00,2017-06-16 04:07:37,1630000/3249fcdc9c40bf854fcfbf1ef55e4d9d-g.jpg,,
30239689,Третье отделение при Николае I,,,,Троцкий И.М.,1930,,Издательство Всесоюзного общества политкаторжан и ссыльно-поселенцев,,,74,Russian,,,,-,,,,,,,,,,,0,,,,,,0,1,39399144,pdf,e7c5d9cf33dd069059147f4c08996e2b,,,Троцкий И.М.;Третье отделение при Николае I;;;Издательство Всесоюзного общества политкаторжан и ссыльно-поселенцев;1930;-;;Russian,0,2000-01-01 01:00:00,2017-06-16 04:07:37,1630000/e7c5d9cf33dd069059147f4c08996e2b-g.jpg,,
30239690,Занимательные задачи и опыты,,,,Перельман Я.И.,1972,,Детская литература,,,472,Russian,,,,-,,,,,,,,,,,0,,,,,,0,1,167718439,pdf,0fc1642694a8224f1a8df67f677f4c26,,,Перельман Я.И.;Занимательные задачи и опыты;;;Детская литература;1972;-;;Russian,0,2000-01-01 01:00:00,2017-06-16 04:07:37,1630000/0fc1642694a8224f1a8df67f677f4c26-g.jpg,,
30239691,Сад и огород в доме,,,,Попов Е.Б.,1985,,Детская литература,,,120,Russian,,,,-,,,,,,,,,,,0,,,,,,0,1,48066991,pdf,fe06f74051bf5081ef51978cd47a993c,,,Попов Е.Б.;Сад и огород в доме;;;Детская литература;1985;-;;Russian,0,2000-01-01 01:00:00,2017-06-16 04:07:37,1631000/fe06f74051bf5081ef51978cd47a993c-g.jpg,,
30239692,Oceanografie. eseuri,,,,Mircea Eliade,1934,1st edition,Cultura Populara,București,304,304,Romanian,195,,0,-,,,,,,,,,,ocr by epistematic,0,,,,,,,1,17299949,pdf,f5e05a11cfc53acb1e4e292fa66c1bd2,,,Eliade Oceanografie 1934 ocr lipsa.pdf,0,2000-01-01 01:00:00,2017-06-16 04:07:37,1685000/f5e05a11cfc53acb1e4e292fa66c1bd2-g.jpg,,
30239693,Cum ne construim dușmanul: și alte scrieri ocazionale,,,,Umberto Eco,2007,3rd edition,Polirom,Iasi,352,352,Romanian,,,0,-,,,,,,,,,,"ocr by epistematic, scan sdr",300,,,,,,0,1,11499669,pdf,9d2e9c43400588086e983e18322889e4,,,Umberto Eco - Cum ne construim dușmanii ocr.pdf,0,2000-01-01 01:00:00,2017-06-16 04:07:37,1689000/9d2e9c43400588086e983e18322889e4-g.jpg,,
30239694,Panpsychism: Contemporary Perspectives,,Philosophy of Mind Series,,"Godehard Bruntrup, Ludwig Jaskolla",2016,1,Oxford University Press,,424,425,English,,,0,"0199359946,9780199359943",,,,,,,,,,,0,,,,,,,1,34705665,pdf,515038894e89e380510baf72f6485de5,,,panpsychism-output.pdf,0,2000-01-01 01:00:00,2017-06-16 04:16:08,1693000/515038894e89e380510baf72f6485de5-d.jpg,"Cognitive Psychology;Behavioral Sciences;Science & Math;Cognitive;Psychology;Consciousness & Thought;Philosophy;Politics & Social Sciences;Metaphysics;Philosophy;Politics & Social Sciences;Metaphysics;Philosophy;Humanities;New, Used & Rental Textbooks;Specialty Boutique;Cognitive Psychology;Psychology;Social Sciences;New, Used & Rental Textbooks;Specialty Boutique","0199359946,9780199359943"
30239695,Путешествие по Средней Азии,,,,Вамбери Арминий,2003,,Восточная литература,,,324,Russian,,,,,,,,,,,,,,,0,,,,,,0,1,13848046,pdf,2742b979400390fd4eb2c2625cb29d5a,,,Вамбери Арминий;Путешествие по Средней Азии;;;Восточная литература;2003;;;Russian,0,2000-01-01 01:00:00,2017-06-16 04:29:16,1693000/2742b979400390fd4eb2c2625cb29d5a-g.jpg,,
30239696,Театрал,,,,Греч Н.И.,1853,,Типография Н. Греча,,,162,Russian,,,,-,,,,,,,,,,,0,,,,,,0,1,37959134,pdf,25c2fd4d768b164089e605624a96fb6a,,,Греч Н.И.;Театрал;;;Типография Н. Греча;1853;-;;Russian,0,2000-01-01 01:00:00,2017-06-16 05:07:36,1573000/25c2fd4d768b164089e605624a96fb6a-g.jpg,,
30239697,Иллюстрированный практический путеводитель по Одессе,,,,Москвич Г.Г.,1904,,Типография Л. Нитче (Одесса),,,193,Russian,,,,-,,,,,,,,,,,0,,,,,,0,1,114294202,pdf,6056c19c1332a4c10e4a7a718155860f,,,Москвич Г.Г.;Иллюстрированный практический путеводитель по Одессе;;;Типография Л. Нитче (Одесса);1904;-;;Russian,0,2000-01-01 01:00:00,2017-06-16 05:07:36,1577000/6056c19c1332a4c10e4a7a718155860f-g.jpg,,
30239698,«Отчизну сердцем защитили»  Стихи поэтов Тейковского района,,,,,2011,,"ОАО «Издательство «Иваново»,",,,64,Russian,,,,-,,,,,,,,,,,0,,,,,,0,1,2010197,pdf,ca229279281b8a331bc80b0e6cfa53f2,,,";«Отчизну сердцем защитили»  Стихи поэтов Тейковского района;;;ОАО «Издательство «Иваново»,;2011;-;;Russian",0,2000-01-01 01:00:00,2017-06-16 05:07:36,1585000/ca229279281b8a331bc80b0e6cfa53f2-g.jpg,,
30239699,Recettes Angéliques. Le bœuf: Le goût d’être ensemble,,,,(Collective),2012,,INTERBEV,,0,32,French,,,0,-,,,,,,,,,,,0,,,,,,0,1,3164060,pdf,be017384eb788f84803d6cf2728a3a68,,,;Recettes Angliques. Le boeuf Le got d’tre ensemble;;;INTERBEV;2012;-;;French,0,2000-01-01 01:00:00,2017-06-16 05:07:36,1585000/be017384eb788f84803d6cf2728a3a68-g.jpg,,
30239700,A World Of Animals Vol. 2,,Painting- Animals,,Ana Bernabe,2002,,Viking folk Art,,,60,English,,,,-,,,,,,,,,,,0,,,,,,0,0,50405079,pdf,857f613ba692b86d043d09c24061c24a,,,Ana Bernabe;A World Of Animals Vol. 2;Painting- Animals;;Viking folk Art;2002;-;;English,0,2000-01-01 01:00:00,2017-06-16 05:07:36,1585000/857f613ba692b86d043d09c24061c24a-g.jpg,,
30239701,A World Of Animals Vol. 3,,Painting- Animals,,Ana Bernabe,2003,,Viking folk Art,,,65,English,,,,-,,,,,,,,,,,0,,,,,,0,0,46544505,pdf,d2dbe9b1e95bf109a85cf033d923f5a2,,,Ana Bernabe;A World Of Animals Vol. 3;Painting- Animals;;Viking folk Art;2003;-;;English,0,2000-01-01 01:00:00,2017-06-16 05:07:36,1585000/d2dbe9b1e95bf109a85cf033d923f5a2-g.jpg,,
30239702,20 Easy DIY Holiday Craft,,,,Collective,2015,,FloraCraft,,0,58,English,,,0,-,,,,,,,,,,,0,,,,,,0,1,19194778,pdf,b5d1f6e32d9acffad14ecfb28dac3ac6,,,"Collective;20 Easy DIY Holiday Craft;;;FloraCraft, Prime Publishing LLC;2015;-;;English",0,2000-01-01 01:00:00,2017-06-16 05:07:36,1585000/b5d1f6e32d9acffad14ecfb28dac3ac6-g.jpg,,
30239703,Описание 3-х линейной винтовки образца 1891 года,,,,,1891,,"Издание Офицерской стрелковой школы, Типография И,Н, Скороходова (СПб",,,16,Russian,,,,-,,,,,,,,,,,0,,,,,,0,1,20685620,pdf,3249fcdc9c40bf854fcfbf1ef55e4d9d,,,";Описание 3-х линейной винтовки образца 1891 года;;;Издание Офицерской стрелковой школы, Типография И,Н, Скороходова (СПб;1891;-;;Russian",0,2000-01-01 01:00:00,2017-06-16 05:07:36,1630000/3249fcdc9c40bf854fcfbf1ef55e4d9d-g.jpg,,
30239704,Третье отделение при Николае I,,,,Троцкий И.М.,1930,,Издательство Всесоюзного общества политкаторжан и ссыльно-поселенцев,,,74,Russian,,,,-,,,,,,,,,,,0,,,,,,0,1,39399144,pdf,e7c5d9cf33dd069059147f4c08996e2b,,,Троцкий И.М.;Третье отделение при Николае I;;;Издательство Всесоюзного общества политкаторжан и ссыльно-поселенцев;1930;-;;Russian,0,2000-01-01 01:00:00,2017-06-16 05:07:36,1630000/e7c5d9cf33dd069059147f4c08996e2b-g.jpg,,
30239705,Занимательные задачи и опыты,,,,Перельман Я.И.,1972,,Детская литература,,,472,Russian,,,,-,,,,,,,,,,,0,,,,,,0,1,167718439,pdf,0fc1642694a8224f1a8df67f677f4c26,,,Перельман Я.И.;Занимательные задачи и опыты;;;Детская литература;1972;-;;Russian,0,2000-01-01 01:00:00,2017-06-16 05:07:36,1630000/0fc1642694a8224f1a8df67f677f4c26-g.jpg,,
30239706,Сад и огород в доме,,,,Попов Е.Б.,1985,,Детская литература,,,120,Russian,,,,-,,,,,,,,,,,0,,,,,,0,1,48066991,pdf,fe06f74051bf5081ef51978cd47a993c,,,Попов Е.Б.;Сад и огород в доме;;;Детская литература;1985;-;;Russian,0,2000-01-01 01:00:00,2017-06-16 05:07:36,1631000/fe06f74051bf5081ef51978cd47a993c-g.jpg,,
30239707,Oceanografie. eseuri,,,,Mircea Eliade,1934,1st edition,Cultura Populara,București,304,304,Romanian,195,,0,-,,,,,,,,,,ocr by epistematic,0,,,,,,,1,17299949,pdf,f5e05a11cfc53acb1e4e292fa66c1bd2,,,Eliade Oceanografie 1934 ocr lipsa.pdf,0,2000-01-01 01:00:00,2017-06-16 05:07:36,1685000/f5e05a11cfc53acb1e4e292fa66c1bd2-g.jpg,,
30239708,Cum ne construim dușmanul: și alte scrieri ocazionale,,,,Umberto Eco,2007,3rd edition,Polirom,Iasi,352,352,Romanian,,,0,-,,,,,,,,,,"ocr by epistematic, scan sdr",300,,,,,,0,1,11499669,pdf,9d2e9c43400588086e983e18322889e4,,,Umberto Eco - Cum ne construim dușmanii ocr.pdf,0,2000-01-01 01:00:00,2017-06-16 05:07:36,1689000/9d2e9c43400588086e983e18322889e4-g.jpg,,
30239709,Planet of the Apes,,,,Pierre Boulle,2001,,Del Rey,,272,0,English,,,0,"0345447980,9780345447982",,,,,,,,,,,0,,,,,,,,340681,azw3,78d8b1bb65013ab3c817930e8fef5edd,,,9780345447982.azw3,0,2000-01-01 01:00:00,2017-06-16 05:54:36,https://images-na.ssl-images-amazon.com/images/I/51VJH3lXxCL.jpg,"Classics;Literature & Fiction;TV, Movie, Video Game Adaptations;Genre Fiction;Literature & Fiction;Adventure;Science Fiction;Science Fiction & Fantasy","0345447980,9780345447982"
30239710,The Martian,,,,Andy Weir,2014,Reprint,Broadway Books,,387,0,English,,,0,"0553418025,9780553418026",,,,,,,,,,,0,,,,,,,,771306,azw3,2b09644506b07e156cc21be86aeaadeb,,,9780553418026.azw3,0,2000-01-01 01:00:00,2017-06-16 05:55:57,https://images-na.ssl-images-amazon.com/images/I/41DNuJfahyL.jpg,"Suspense;Thrillers & Suspense;Mystery, Thriller & Suspense;Reference;Almanacs & Yearbooks;Atlases & Maps;Careers;Catalogs & Directories;Consumer Guides;Dictionaries & Thesauruses;Encyclopedias & Subject Guides;English as a Second Language;Etiquette;Foreign Language Study & Reference;Genealogy;Quotations;Survival & Emergency Preparedness;Test Preparation;Words, Language & Grammar;Writing, Research & Publishing Guides;Adventure;Science Fiction;Science Fiction & Fantasy;Hard Science Fiction;Science","0553418025,9780553418026"
30239711,Театрал,,,,Греч Н.И.,1853,,Типография Н. Греча,,,162,Russian,,,,-,,,,,,,,,,,0,,,,,,0,1,37959134,pdf,25c2fd4d768b164089e605624a96fb6a,,,Греч Н.И.;Театрал;;;Типография Н. Греча;1853;-;;Russian,0,2000-01-01 01:00:00,2017-06-16 06:07:37,1573000/25c2fd4d768b164089e605624a96fb6a-g.jpg,,
30239712,Иллюстрированный практический путеводитель по Одессе,,,,Москвич Г.Г.,1904,,Типография Л. Нитче (Одесса),,,193,Russian,,,,-,,,,,,,,,,,0,,,,,,0,1,114294202,pdf,6056c19c1332a4c10e4a7a718155860f,,,Москвич Г.Г.;Иллюстрированный практический путеводитель по Одессе;;;Типография Л. Нитче (Одесса);1904;-;;Russian,0,2000-01-01 01:00:00,2017-06-16 06:07:37,1577000/6056c19c1332a4c10e4a7a718155860f-g.jpg,,
30239713,«Отчизну сердцем защитили»  Стихи поэтов Тейковского района,,,,,2011,,"ОАО «Издательство «Иваново»,",,,64,Russian,,,,-,,,,,,,,,,,0,,,,,,0,1,2010197,pdf,ca229279281b8a331bc80b0e6cfa53f2,,,";«Отчизну сердцем защитили»  Стихи поэтов Тейковского района;;;ОАО «Издательство «Иваново»,;2011;-;;Russian",0,2000-01-01 01:00:00,2017-06-16 06:07:37,1585000/ca229279281b8a331bc80b0e6cfa53f2-g.jpg,,
30239714,Recettes Angéliques. Le bœuf: Le goût d’être ensemble,,,,(Collective),2012,,INTERBEV,,0,32,French,,,0,-,,,,,,,,,,,0,,,,,,0,1,3164060,pdf,be017384eb788f84803d6cf2728a3a68,,,;Recettes Angliques. Le boeuf Le got d’tre ensemble;;;INTERBEV;2012;-;;French,0,2000-01-01 01:00:00,2017-06-16 06:07:37,1585000/be017384eb788f84803d6cf2728a3a68-g.jpg,,
30239715,A World Of Animals Vol. 2,,Painting- Animals,,Ana Bernabe,2002,,Viking folk Art,,,60,English,,,,-,,,,,,,,,,,0,,,,,,0,0,50405079,pdf,857f613ba692b86d043d09c24061c24a,,,Ana Bernabe;A World Of Animals Vol. 2;Painting- Animals;;Viking folk Art;2002;-;;English,0,2000-01-01 01:00:00,2017-06-16 06:07:37,1585000/857f613ba692b86d043d09c24061c24a-g.jpg,,
30239716,A World Of Animals Vol. 3,,Painting- Animals,,Ana Bernabe,2003,,Viking folk Art,,,65,English,,,,-,,,,,,,,,,,0,,,,,,0,0,46544505,pdf,d2dbe9b1e95bf109a85cf033d923f5a2,,,Ana Bernabe;A World Of Animals Vol. 3;Painting- Animals;;Viking folk Art;2003;-;;English,0,2000-01-01 01:00:00,2017-06-16 06:07:37,1585000/d2dbe9b1e95bf109a85cf033d923f5a2-g.jpg,,
30239717,20 Easy DIY Holiday Craft,,,,Collective,2015,,FloraCraft,,0,58,English,,,0,-,,,,,,,,,,,0,,,,,,0,1,19194778,pdf,b5d1f6e32d9acffad14ecfb28dac3ac6,,,"Collective;20 Easy DIY Holiday Craft;;;FloraCraft, Prime Publishing LLC;2015;-;;English",0,2000-01-01 01:00:00,2017-06-16 06:07:37,1585000/b5d1f6e32d9acffad14ecfb28dac3ac6-g.jpg,,
30239718,Описание 3-х линейной винтовки образца 1891 года,,,,,1891,,"Издание Офицерской стрелковой школы, Типография И,Н, Скороходова (СПб",,,16,Russian,,,,-,,,,,,,,,,,0,,,,,,0,1,20685620,pdf,3249fcdc9c40bf854fcfbf1ef55e4d9d,,,";Описание 3-х линейной винтовки образца 1891 года;;;Издание Офицерской стрелковой школы, Типография И,Н, Скороходова (СПб;1891;-;;Russian",0,2000-01-01 01:00:00,2017-06-16 06:07:37,1630000/3249fcdc9c40bf854fcfbf1ef55e4d9d-g.jpg,,
30239719,Третье отделение при Николае I,,,,Троцкий И.М.,1930,,Издательство Всесоюзного общества политкаторжан и ссыльно-поселенцев,,,74,Russian,,,,-,,,,,,,,,,,0,,,,,,0,1,39399144,pdf,e7c5d9cf33dd069059147f4c08996e2b,,,Троцкий И.М.;Третье отделение при Николае I;;;Издательство Всесоюзного общества политкаторжан и ссыльно-поселенцев;1930;-;;Russian,0,2000-01-01 01:00:00,2017-06-16 06:07:37,1630000/e7c5d9cf33dd069059147f4c08996e2b-g.jpg,,
30239720,Занимательные задачи и опыты,,,,Перельман Я.И.,1972,,Детская литература,,,472,Russian,,,,-,,,,,,,,,,,0,,,,,,0,1,167718439,pdf,0fc1642694a8224f1a8df67f677f4c26,,,Перельман Я.И.;Занимательные задачи и опыты;;;Детская литература;1972;-;;Russian,0,2000-01-01 01:00:00,2017-06-16 06:07:37,1630000/0fc1642694a8224f1a8df67f677f4c26-g.jpg,,
30239721,Сад и огород в доме,,,,Попов Е.Б.,1985,,Детская литература,,,120,Russian,,,,-,,,,,,,,,,,0,,,,,,0,1,48066991,pdf,fe06f74051bf5081ef51978cd47a993c,,,Попов Е.Б.;Сад и огород в доме;;;Детская литература;1985;-;;Russian,0,2000-01-01 01:00:00,2017-06-16 06:07:37,1631000/fe06f74051bf5081ef51978cd47a993c-g.jpg,,
30239722,Oceanografie. eseuri,,,,Mircea Eliade,1934,1st edition,Cultura Populara,București,304,304,Romanian,195,,0,-,,,,,,,,,,ocr by epistematic,0,,,,,,,1,17299949,pdf,f5e05a11cfc53acb1e4e292fa66c1bd2,,,Eliade Oceanografie 1934 ocr lipsa.pdf,0,2000-01-01 01:00:00,2017-06-16 06:07:37,1685000/f5e05a11cfc53acb1e4e292fa66c1bd2-g.jpg,,
30239723,Cum ne construim dușmanul: și alte scrieri ocazionale,,,,Umberto Eco,2007,3rd edition,Polirom,Iasi,352,352,Romanian,,,0,-,,,,,,,,,,"ocr by epistematic, scan sdr",300,,,,,,0,1,11499669,pdf,9d2e9c43400588086e983e18322889e4,,,Umberto Eco - Cum ne construim dușmanii ocr.pdf,0,2000-01-01 01:00:00,2017-06-16 06:07:37,1689000/9d2e9c43400588086e983e18322889e4-g.jpg,,
30239724,The Anthem Companion to Robert Park,,Anthem Companions to Sociology,,Peter Kivisto (Editor),2017,,Anthem Press,,250,258,English,,,0,"0857281844,9780857281845",,,,,,,,,,,0,0,1,0,1,0,1,1,3493774,pdf,eb3eeb736312c39320513d8a5a3432c1,,,The Anthem Companion to Robert Park.pdf,0,2000-01-01 01:00:00,2017-06-16 06:09:48,,"Sociology;Abuse;Class;Death;Marriage & Family;Medicine;Race Relations;Rural;Social Theory;Urban;Politics & Social Sciences;Sociology;Social Sciences;New, Used & Rental Textbooks;Specialty Boutique","0857281844,9780857281845"
30239725,"The mathematics of mathematics : thinking with the late, Spinozist Vygotsky",,New directions in mathematics and science education 32.,,"Roth, Wolff-Michael; Vygotskiĭ, Lev Semenovich",2017,,Sense Publishers,,238,244,English,,,0,"9789463009249,9463009248,9789463009256,9463009256",,,,,,,,,,,0,,,,,,,1,30841015,pdf,ec7028c43b3934f8986655a07bc69d66,,,wholff 2017-output.pdf,0,2000-01-01 01:00:00,2017-06-16 06:11:42,1693000/ec7028c43b3934f8986655a07bc69d66-g.jpg,"Vygotskiĭ, L S -- (Lev Semenovich), -- 1896-1934;Mathematics -- Study and teaching;Mathematics -- Study and teaching -- Philosophy","9789463009249,9463009248,9789463009256,9463009256"
30239726,La variation pluridimensionnelle: Une analyse de la négation en français (Sciences pour la communication) (French Edition),,,,Charlotte Meisner,2016,New,"Peter Lang AG, Internationaler Verlag der Wissenschaften",,334,350,French,,,0,"303432085X,9783034320856",,,,,,,,,,,0,,,,1,,1,1,5597199,pdf,ff0cf73d714168729e3b39440ecaac65,,,La variation pluridimensionnelle-978-3-0343-2085-6.pdf,0,2000-01-01 01:00:00,2017-06-16 06:12:26,1693000/ff0cf73d714168729e3b39440ecaac65-d.jpg,"Instruction;Foreign Language Study & Reference;Reference;Grammar;Words, Language & Grammar;Reference;Linguistics;Words, Language & Grammar;Reference;Speech;Words, Language & Grammar;Reference;Sociology;Abuse;Class;Death;Marriage & Family;Medicine;Race Relations;Rural;Social Theory;Urban;Politics & Social Sciences;Linguistics;Humanities;New, Used & Rental Textbooks;Specialty Boutique;German;Foreign Languages;Humanities;New, Used & Rental Textbooks;Specialty Boutique;Sociology;Social Sciences;New,","303432085X,9783034320856"
30239727,"Roman Law, Contemporary Law, Common Law - The Civilian Tradition Today",,,,Reinhard Zimmermann,2001,,Oxford University Press,,197,113,English,313,,0,,,,,,,,,,,,0,,,,,,1,0,34724409,pdf,cb852e6c4fbe52fb64e7fd62b117f119,,,"Zimmermann, Reinhard - Roman Law, Contemporary Law, Common Law - The Civilian Tradition Today.pdf",0,2000-01-01 01:00:00,2017-06-16 06:37:09,,,
30239728,Peixe-elétrico Bob Dylan - Edição especial,,,,Bob Dylan & Alcir Pécora & Perry Anderson & Ricardo Lísias & Victor Heringer & Walnice Nogueira Galvão,2017,,e-galáxia,,0,0,Portuguese,,,0,9788584741496,,,,,,,,,,,0,,,,,,,,525654,epub,489cd0977bcef70e10cde7dd274b342c,,,"DYLAN, Bob - Peixe-elétrico especial (retail).epub",0,2000-01-01 01:00:00,2017-06-16 06:41:41,1693000/489cd0977bcef70e10cde7dd274b342c-g.jpg,,9788584741496
30239729,A Lexicon of the Homeric Dialect,,,,"Cunliffe, Richard John",1963,,University of Oklahoma Press,Norman,453,453,Ancient Greek,322,,0,0806114304 / 9780806114309,,,,,,,,,,,0,,,,,,,0,18154450,pdf,97764fa171f9145c1988b8ebdfc43fa1,,,"Cunliffe, A Lexicon of the Homeric Dialect.pdf",0,2000-01-01 01:00:00,2017-06-16 06:42:19,1693000/97764fa171f9145c1988b8ebdfc43fa1-g.jpg,,0806114304/9780806114309
30239730,The Cambridge Companion to Monteverdi,,Cambridge Companions to Music,,John Whenham and Richard Wistreich (Editors),2007,First,Cambridge University Press,,476,0,English,61,,0,9780521697989 / 0521697980,,B00AA8JTWC,,,,,,,,,0,,,,,,,,5308397,epub,4f6650c3f23de7753d302d0d298d5e30,,,The Cambridge Companion to Monteverdi (Cambridge Companions to Music).epub,0,2000-01-01 01:00:00,2017-06-16 06:43:02,1693000/4f6650c3f23de7753d302d0d298d5e30-g.jpg,#Monteverdi  #Claudio Monteverdi  #The Cambridge Companion to Monteverdi  #Cambridge Companions to Music #John Whenham  #Richard Wistreich,9780521697989/0521697980
30239731,"Comprehensive Medicinal Chemistry III, Third Edition",,,,"Samuel Chackalamannil, David Rotella, Simon Ward",2017,3,Elsevier,,4536,4611,English,,,0,"0128032006,9780128032008",,,,,,,,,,,0,,,,1,,1,1,134640144,pdf,07d37450bef523401d522c0d0a5945c5,,,Comprehensive Medicinal Chemistry III_978-0-12-803200-8.pdf,0,2000-01-01 01:00:00,2017-06-16 06:43:41,1693000/07d37450bef523401d522c0d0a5945c5-d.jpg,"Chemical;Coatings, Ceramics & Glass;Cosmetics;Fluid Dynamics;Plant Design;Plastics;Unit Operations & Transport Phenomena;Engineering;Engineering & Transportation;Reference;Almanacs & Yearbooks;Atlases & Maps;Careers;Catalogs & Directories;Consumer Guides;Dictionaries & Thesauruses;Encyclopedias & Subject Guides;English as a Second Language;Etiquette;Foreign Language Study & Reference;Genealogy;Quotations;Survival & Emergency Preparedness;Test Preparation;Words, Language & Grammar;Writing, Resear","0128032006,9780128032008"
30239732,"Неправославный «миссионер» протодиакон Андрей Кураев. Сборник материалов, статей, заявлений и размышлений",,,,Сост. А. Малышев,2011,,Общество защитников православных монастырей,Курск - Санкт-Петербург,157,157,Russian,205,,0,,,,,,,,,,,,0,,,,,,,1,1246961,pdf,158727f738d8db2b413e49b9e4942fa1,,,2011 - копия.pdf,0,2000-01-01 01:00:00,2017-06-16 06:59:15,,,
30239733,Vedic Mathematics Secrets. Fun Applications of Vedic Math In Your Everyday Life,,,,William Q.,2007,,VedicMathematicsSecrets.com,,214,214,english,,,0,,,,,,,,,,,,0,,,,,,,1,525741,pdf,ff41efa13c19cfdef0ffc2810da66149,,,Vedic Mathematics Secrets 2007.pdf,0,2000-01-01 01:00:00,2017-06-16 07:03:10,,,
30239734,Очерки российского сектоведения: Сборник,,,,Сост. Г.П.Климов,2006,2-е,"Православное братство \Ревнители Православия\""""",Санкт-Петербург,214,214,Russian,205,,0,,,,,,,,,,,,0,,,,,,,1,1438660,pdf,0666e4d7e76ef5f4230ecc087824836b,,,2006 - копия.pdf,0,2000-01-01 01:00:00,2017-06-16 07:03:41,,,
30239735,Театрал,,,,Греч Н.И.,1853,,Типография Н. Греча,,,162,Russian,,,,-,,,,,,,,,,,0,,,,,,0,1,37959134,pdf,25c2fd4d768b164089e605624a96fb6a,,,Греч Н.И.;Театрал;;;Типография Н. Греча;1853;-;;Russian,0,2000-01-01 01:00:00,2017-06-16 07:07:36,1573000/25c2fd4d768b164089e605624a96fb6a-g.jpg,,
30239736,Иллюстрированный практический путеводитель по Одессе,,,,Москвич Г.Г.,1904,,Типография Л. Нитче (Одесса),,,193,Russian,,,,-,,,,,,,,,,,0,,,,,,0,1,114294202,pdf,6056c19c1332a4c10e4a7a718155860f,,,Москвич Г.Г.;Иллюстрированный практический путеводитель по Одессе;;;Типография Л. Нитче (Одесса);1904;-;;Russian,0,2000-01-01 01:00:00,2017-06-16 07:07:36,1577000/6056c19c1332a4c10e4a7a718155860f-g.jpg,,
30239737,«Отчизну сердцем защитили»  Стихи поэтов Тейковского района,,,,,2011,,"ОАО «Издательство «Иваново»,",,,64,Russian,,,,-,,,,,,,,,,,0,,,,,,0,1,2010197,pdf,ca229279281b8a331bc80b0e6cfa53f2,,,";«Отчизну сердцем защитили»  Стихи поэтов Тейковского района;;;ОАО «Издательство «Иваново»,;2011;-;;Russian",0,2000-01-01 01:00:00,2017-06-16 07:07:36,1585000/ca229279281b8a331bc80b0e6cfa53f2-g.jpg,,
30239738,Recettes Angéliques. Le bœuf: Le goût d’être ensemble,,,,(Collective),2012,,INTERBEV,,0,32,French,,,0,-,,,,,,,,,,,0,,,,,,0,1,3164060,pdf,be017384eb788f84803d6cf2728a3a68,,,;Recettes Angliques. Le boeuf Le got d’tre ensemble;;;INTERBEV;2012;-;;French,0,2000-01-01 01:00:00,2017-06-16 07:07:36,1585000/be017384eb788f84803d6cf2728a3a68-g.jpg,,
30239739,A World Of Animals Vol. 2,,Painting- Animals,,Ana Bernabe,2002,,Viking folk Art,,,60,English,,,,-,,,,,,,,,,,0,,,,,,0,0,50405079,pdf,857f613ba692b86d043d09c24061c24a,,,Ana Bernabe;A World Of Animals Vol. 2;Painting- Animals;;Viking folk Art;2002;-;;English,0,2000-01-01 01:00:00,2017-06-16 07:07:36,1585000/857f613ba692b86d043d09c24061c24a-g.jpg,,
30239740,A World Of Animals Vol. 3,,Painting- Animals,,Ana Bernabe,2003,,Viking folk Art,,,65,English,,,,-,,,,,,,,,,,0,,,,,,0,0,46544505,pdf,d2dbe9b1e95bf109a85cf033d923f5a2,,,Ana Bernabe;A World Of Animals Vol. 3;Painting- Animals;;Viking folk Art;2003;-;;English,0,2000-01-01 01:00:00,2017-06-16 07:07:36,1585000/d2dbe9b1e95bf109a85cf033d923f5a2-g.jpg,,
30239741,20 Easy DIY Holiday Craft,,,,Collective,2015,,FloraCraft,,0,58,English,,,0,-,,,,,,,,,,,0,,,,,,0,1,19194778,pdf,b5d1f6e32d9acffad14ecfb28dac3ac6,,,"Collective;20 Easy DIY Holiday Craft;;;FloraCraft, Prime Publishing LLC;2015;-;;English",0,2000-01-01 01:00:00,2017-06-16 07:07:36,1585000/b5d1f6e32d9acffad14ecfb28dac3ac6-g.jpg,,
30239742,Описание 3-х линейной винтовки образца 1891 года,,,,,1891,,"Издание Офицерской стрелковой школы, Типография И,Н, Скороходова (СПб",,,16,Russian,,,,-,,,,,,,,,,,0,,,,,,0,1,20685620,pdf,3249fcdc9c40bf854fcfbf1ef55e4d9d,,,";Описание 3-х линейной винтовки образца 1891 года;;;Издание Офицерской стрелковой школы, Типография И,Н, Скороходова (СПб;1891;-;;Russian",0,2000-01-01 01:00:00,2017-06-16 07:07:36,1630000/3249fcdc9c40bf854fcfbf1ef55e4d9d-g.jpg,,
30239743,Третье отделение при Николае I,,,,Троцкий И.М.,1930,,Издательство Всесоюзного общества политкаторжан и ссыльно-поселенцев,,,74,Russian,,,,-,,,,,,,,,,,0,,,,,,0,1,39399144,pdf,e7c5d9cf33dd069059147f4c08996e2b,,,Троцкий И.М.;Третье отделение при Николае I;;;Издательство Всесоюзного общества политкаторжан и ссыльно-поселенцев;1930;-;;Russian,0,2000-01-01 01:00:00,2017-06-16 07:07:36,1630000/e7c5d9cf33dd069059147f4c08996e2b-g.jpg,,
30239744,Занимательные задачи и опыты,,,,Перельман Я.И.,1972,,Детская литература,,,472,Russian,,,,-,,,,,,,,,,,0,,,,,,0,1,167718439,pdf,0fc1642694a8224f1a8df67f677f4c26,,,Перельман Я.И.;Занимательные задачи и опыты;;;Детская литература;1972;-;;Russian,0,2000-01-01 01:00:00,2017-06-16 07:07:36,1630000/0fc1642694a8224f1a8df67f677f4c26-g.jpg,,
30239745,Сад и огород в доме,,,,Попов Е.Б.,1985,,Детская литература,,,120,Russian,,,,-,,,,,,,,,,,0,,,,,,0,1,48066991,pdf,fe06f74051bf5081ef51978cd47a993c,,,Попов Е.Б.;Сад и огород в доме;;;Детская литература;1985;-;;Russian,0,2000-01-01 01:00:00,2017-06-16 07:07:36,1631000/fe06f74051bf5081ef51978cd47a993c-g.jpg,,
30239746,Oceanografie. eseuri,,,,Mircea Eliade,1934,1st edition,Cultura Populara,București,304,304,Romanian,195,,0,-,,,,,,,,,,ocr by epistematic,0,,,,,,,1,17299949,pdf,f5e05a11cfc53acb1e4e292fa66c1bd2,,,Eliade Oceanografie 1934 ocr lipsa.pdf,0,2000-01-01 01:00:00,2017-06-16 07:07:36,1685000/f5e05a11cfc53acb1e4e292fa66c1bd2-g.jpg,,
30239747,Cum ne construim dușmanul: și alte scrieri ocazionale,,,,Umberto Eco,2007,3rd edition,Polirom,Iasi,352,352,Romanian,,,0,-,,,,,,,,,,"ocr by epistematic, scan sdr",300,,,,,,0,1,11499669,pdf,9d2e9c43400588086e983e18322889e4,,,Umberto Eco - Cum ne construim dușmanii ocr.pdf,0,2000-01-01 01:00:00,2017-06-16 07:07:36,1689000/9d2e9c43400588086e983e18322889e4-g.jpg,,
30239748,Peasant art in Austria and Hungary.,,,,Charles Holme; Drótos László; Góczán Andrea,1911,,"Charles Holme, Drótos László, Góczán Andrea",,0,279,English,,,0,,,,,,,,,,,,0,,,,,,,0,206137074,pdf,64024b27f26adfe92c58cc9a5c5231ab,,,Holme Ch. - Peasant art in Austria and Hungary - 1911.pdf,0,2000-01-01 01:00:00,2017-06-16 07:17:26,1693000/64024b27f26adfe92c58cc9a5c5231ab-g.jpg,népművészet;néprajz,
30239749,Peasant art in Austria and Hungary.,,,,Charles Holme; Drótos László; Góczán Andrea,1911,,The Studio,"London, Paris",0,279,English,,,0,,,,,,,,,,,,0,,,,,,,0,206137074,pdf,64024b27f26adfe92c58cc9a5c5231ab,,,Holme Ch. - Peasant art in Austria and Hungary - 1911.pdf,0,2000-01-01 01:00:00,2017-06-16 07:17:27,1693000/64024b27f26adfe92c58cc9a5c5231ab-g.jpg,népművészet;néprajz,
30239750,Vedic Mathematics Secrets. Fun Applications of Vedic Math In Your Everyday Life,,,,William Q.,2007,,VedicMathematicsSecrets.com,,214,214,english,,,0,,,,,,,,,,,,0,,,,,,,1,525741,pdf,ff41efa13c19cfdef0ffc2810da66149,,,Vedic Mathematics Secrets 2007.pdf,0,2000-01-01 01:00:00,2017-06-16 07:18:44,1693000/ff41efa13c19cfdef0ffc2810da66149-g.jpg,,
30239751,Af menníngarástandi,,,,Halldór Laxness,0,,,,187,187,Icelandic,,,0,,,,,,,,,,,,0,,,,,,,1,6995876,pdf,cbe22dec5eee5971d05bb7faf7416996,,,Halldór Laxness - Af menníngarástandi cs.pdf,0,2000-01-01 01:00:00,2017-06-16 07:20:36,1693000/cbe22dec5eee5971d05bb7faf7416996-g.jpg,,
30239752,Hitler desafiado en Moscú. Moscu septiembre de 1941,6,La Segunda Guerra Mundial Osprey 6,,Robert Forczyk,2007,1,Osprey RBA,Barcelona,97,97,Spanish,67,,0,978-84-473-5556-3,,,,,,,,,,,300,1,,0,,1,,0,27423434,pdf,1475f3d24330a58aa9e5c2a887a34306,,,Osprey RBA WW2 06 Hitler desafiado en Moscu Moscu septiembre de 1941 R Forczyk 2007.pdf,0,2000-01-01 01:00:00,2017-06-16 07:24:34,1693000/1475f3d24330a58aa9e5c2a887a34306-g.jpg,,9788447355563
30239753,Hitler desafiado en Moscú. Unión Soviética septiembre de 1941,6,La Segunda Guerra Mundial Osprey 6,,Robert Forczyk,2007,1,Osprey RBA,Barcelona,97,97,Spanish,67,,0,978-84-473-5556-3,,,,,,,,,,,300,1,,0,,1,,0,27423434,pdf,1475f3d24330a58aa9e5c2a887a34306,,,Osprey RBA WW2 06 Hitler desafiado en Moscu Moscu septiembre de 1941 R Forczyk 2007.pdf,0,2000-01-01 01:00:00,2017-06-16 07:25:22,1693000/1475f3d24330a58aa9e5c2a887a34306-g.jpg,,9788447355563
30239754,"100 Cases in Psychiatry, Second Edition",,978-1498747745,,"Barry Wright , Subodh Dave , Nisha Dogra",2017,,"CRC Press; 2 edition (March 31, 2017)",,295,295,English,147,,0,,,,,,,,,,,,0,,,,,,,1,2379091,pdf,343ea86baedd58bbe7684f9e1000d231,,,100 Cases in Psychiatry 2nd-Ed-2017.pdf,0,2000-01-01 01:00:00,2017-06-16 07:42:57,,,
30239755,Fuzzy Control Estimation and Diagnosis. Single and Interconnected Systems,,,,Magdi S. Mahmoud,2017,,Springer,,698,698,english,,,0,978-3-319-54954-5,,,,,,,,,,,0,,,,,,,1,18303225,pdf,671f0f96670f834218095504192b6294,,,Spring - Fuzzy Control Estimation _amp; Diagnosis. Single _amp; Interconnected Systems 2017.pdf,0,2000-01-01 01:00:00,2017-06-16 07:59:19,,,9783319549545
30239756,Театрал,,,,Греч Н.И.,1853,,Типография Н. Греча,,,162,Russian,,,,-,,,,,,,,,,,0,,,,,,0,1,37959134,pdf,25c2fd4d768b164089e605624a96fb6a,,,Греч Н.И.;Театрал;;;Типография Н. Греча;1853;-;;Russian,0,2000-01-01 01:00:00,2017-06-16 08:07:37,1573000/25c2fd4d768b164089e605624a96fb6a-g.jpg,,
30239757,Иллюстрированный практический путеводитель по Одессе,,,,Москвич Г.Г.,1904,,Типография Л. Нитче (Одесса),,,193,Russian,,,,-,,,,,,,,,,,0,,,,,,0,1,114294202,pdf,6056c19c1332a4c10e4a7a718155860f,,,Москвич Г.Г.;Иллюстрированный практический путеводитель по Одессе;;;Типография Л. Нитче (Одесса);1904;-;;Russian,0,2000-01-01 01:00:00,2017-06-16 08:07:37,1577000/6056c19c1332a4c10e4a7a718155860f-g.jpg,,
30239758,«Отчизну сердцем защитили»  Стихи поэтов Тейковского района,,,,,2011,,"ОАО «Издательство «Иваново»,",,,64,Russian,,,,-,,,,,,,,,,,0,,,,,,0,1,2010197,pdf,ca229279281b8a331bc80b0e6cfa53f2,,,";«Отчизну сердцем защитили»  Стихи поэтов Тейковского района;;;ОАО «Издательство «Иваново»,;2011;-;;Russian",0,2000-01-01 01:00:00,2017-06-16 08:07:37,1585000/ca229279281b8a331bc80b0e6cfa53f2-g.jpg,,
30239759,Recettes Angéliques. Le bœuf: Le goût d’être ensemble,,,,(Collective),2012,,INTERBEV,,0,32,French,,,0,-,,,,,,,,,,,0,,,,,,0,1,3164060,pdf,be017384eb788f84803d6cf2728a3a68,,,;Recettes Angliques. Le boeuf Le got d’tre ensemble;;;INTERBEV;2012;-;;French,0,2000-01-01 01:00:00,2017-06-16 08:07:37,1585000/be017384eb788f84803d6cf2728a3a68-g.jpg,,
30239760,A World Of Animals Vol. 2,,Painting- Animals,,Ana Bernabe,2002,,Viking folk Art,,,60,English,,,,-,,,,,,,,,,,0,,,,,,0,0,50405079,pdf,857f613ba692b86d043d09c24061c24a,,,Ana Bernabe;A World Of Animals Vol. 2;Painting- Animals;;Viking folk Art;2002;-;;English,0,2000-01-01 01:00:00,2017-06-16 08:07:37,1585000/857f613ba692b86d043d09c24061c24a-g.jpg,,
30239761,A World Of Animals Vol. 3,,Painting- Animals,,Ana Bernabe,2003,,Viking folk Art,,,65,English,,,,-,,,,,,,,,,,0,,,,,,0,0,46544505,pdf,d2dbe9b1e95bf109a85cf033d923f5a2,,,Ana Bernabe;A World Of Animals Vol. 3;Painting- Animals;;Viking folk Art;2003;-;;English,0,2000-01-01 01:00:00,2017-06-16 08:07:37,1585000/d2dbe9b1e95bf109a85cf033d923f5a2-g.jpg,,
30239762,20 Easy DIY Holiday Craft,,,,Collective,2015,,FloraCraft,,0,58,English,,,0,-,,,,,,,,,,,0,,,,,,0,1,19194778,pdf,b5d1f6e32d9acffad14ecfb28dac3ac6,,,"Collective;20 Easy DIY Holiday Craft;;;FloraCraft, Prime Publishing LLC;2015;-;;English",0,2000-01-01 01:00:00,2017-06-16 08:07:37,1585000/b5d1f6e32d9acffad14ecfb28dac3ac6-g.jpg,,
30239763,Описание 3-х линейной винтовки образца 1891 года,,,,,1891,,"Издание Офицерской стрелковой школы, Типография И,Н, Скороходова (СПб",,,16,Russian,,,,-,,,,,,,,,,,0,,,,,,0,1,20685620,pdf,3249fcdc9c40bf854fcfbf1ef55e4d9d,,,";Описание 3-х линейной винтовки образца 1891 года;;;Издание Офицерской стрелковой школы, Типография И,Н, Скороходова (СПб;1891;-;;Russian",0,2000-01-01 01:00:00,2017-06-16 08:07:37,1630000/3249fcdc9c40bf854fcfbf1ef55e4d9d-g.jpg,,
30239764,Третье отделение при Николае I,,,,Троцкий И.М.,1930,,Издательство Всесоюзного общества политкаторжан и ссыльно-поселенцев,,,74,Russian,,,,-,,,,,,,,,,,0,,,,,,0,1,39399144,pdf,e7c5d9cf33dd069059147f4c08996e2b,,,Троцкий И.М.;Третье отделение при Николае I;;;Издательство Всесоюзного общества политкаторжан и ссыльно-поселенцев;1930;-;;Russian,0,2000-01-01 01:00:00,2017-06-16 08:07:37,1630000/e7c5d9cf33dd069059147f4c08996e2b-g.jpg,,
30239765,Занимательные задачи и опыты,,,,Перельман Я.И.,1972,,Детская литература,,,472,Russian,,,,-,,,,,,,,,,,0,,,,,,0,1,167718439,pdf,0fc1642694a8224f1a8df67f677f4c26,,,Перельман Я.И.;Занимательные задачи и опыты;;;Детская литература;1972;-;;Russian,0,2000-01-01 01:00:00,2017-06-16 08:07:37,1630000/0fc1642694a8224f1a8df67f677f4c26-g.jpg,,
30239766,Сад и огород в доме,,,,Попов Е.Б.,1985,,Детская литература,,,120,Russian,,,,-,,,,,,,,,,,0,,,,,,0,1,48066991,pdf,fe06f74051bf5081ef51978cd47a993c,,,Попов Е.Б.;Сад и огород в доме;;;Детская литература;1985;-;;Russian,0,2000-01-01 01:00:00,2017-06-16 08:07:37,1631000/fe06f74051bf5081ef51978cd47a993c-g.jpg,,
30239767,Oceanografie. eseuri,,,,Mircea Eliade,1934,1st edition,Cultura Populara,București,304,304,Romanian,195,,0,-,,,,,,,,,,ocr by epistematic,0,,,,,,,1,17299949,pdf,f5e05a11cfc53acb1e4e292fa66c1bd2,,,Eliade Oceanografie 1934 ocr lipsa.pdf,0,2000-01-01 01:00:00,2017-06-16 08:07:37,1685000/f5e05a11cfc53acb1e4e292fa66c1bd2-g.jpg,,
30239768,Cum ne construim dușmanul: și alte scrieri ocazionale,,,,Umberto Eco,2007,3rd edition,Polirom,Iasi,352,352,Romanian,,,0,-,,,,,,,,,,"ocr by epistematic, scan sdr",300,,,,,,0,1,11499669,pdf,9d2e9c43400588086e983e18322889e4,,,Umberto Eco - Cum ne construim dușmanii ocr.pdf,0,2000-01-01 01:00:00,2017-06-16 08:07:37,1689000/9d2e9c43400588086e983e18322889e4-g.jpg,,
30239769,Noncooperative Game Theory. An introduction for engineers and computer scientists,,,,Joao P. Hespanha,2017,,Princeton,,230,230,english,,,0,9780691175218,,,,,,,,,,,0,,,,,,,1,1580335,pdf,ec9ec0ad688445021f8bb2cad8ebf430,,,Prince - Noncooperative Game Theory. Intro for Engineers _amp; Computer Scientists 2017.pdf,0,2000-01-01 01:00:00,2017-06-16 08:10:06,,,9780691175218
30239770,AOSpine Masters Series Vol 8 Back Pain,,Series 8,,Luiz Roberto Vialle,2017,,,,232,232,English,147,,0,,,,,,,,,,,,0,,,,,,,1,14121068,pdf,c2b975171d334a9ddf22b84c914c1428,,,"AOSpine Masters Series, Volume 8 Back Pain.pdf",0,2000-01-01 01:00:00,2017-06-16 08:13:52,1693000/c2b975171d334a9ddf22b84c914c1428-g.jpg,,
30239771,"Reader in Marxist Philosophy: From the Writings of Marx, Engels and Lenin",,,,Howard Selsam and Harry Martel,2010,,Rahul Foundation,,190,190,English,195,,0,978-93-80303-37-6,,,,,,,,,,Searchable pdf,0,,,1,,1,,1,6640603,pdf,9028a199544e463870d13795e4971f62,,,"Reader in Marxist Philosophy From the Writings of Marx, Engels, and Lenin_searchable copy.pdf",0,2000-01-01 01:00:00,2017-06-16 08:22:57,,,9789380303376
30239772,Noncooperative Game Theory. An introduction for engineers and computer scientists,,,,Joao P. Hespanha,2017,,Princeton,,230,230,english,,,0,9780691175218,,,,,,,,,,,0,,,,,,,1,1580335,pdf,ec9ec0ad688445021f8bb2cad8ebf430,,,Prince - Noncooperative Game Theory. Intro for Engineers _amp; Computer Scientists 2017.pdf,0,2000-01-01 01:00:00,2017-06-16 08:26:30,1693000/ec9ec0ad688445021f8bb2cad8ebf430-g.2017-06-16 11-26-30.jpg,,9780691175218
30239773,Noncooperative Game Theory: An Introduction for Engineers and Computer Scientists,,,,João P. Hespanha,2017,,Princeton University Press,,248,230,English,,,0,"0691175217,9780691175218",,,,,,,,,,,0,,,,,,,1,1580335,pdf,ec9ec0ad688445021f8bb2cad8ebf430,,,Prince - Noncooperative Game Theory. Intro for Engineers _amp; Computer Scientists 2017.pdf,0,2000-01-01 01:00:00,2017-06-16 08:26:57,https://images-na.ssl-images-amazon.com/images/I/51q2zytRRBL.jpg,"Computer Science;AI & Machine Learning;Bioinformatics;Computer Simulation;Cybernetics;Human-Computer Interaction;Information Theory;Robotics;Systems Analysis & Design;Computers & Technology;Engineering;Aerospace;Automotive;Bioengineering;Chemical;Civil & Environmental;Computer Modelling;Construction;Design;Electrical & Electronics;Energy Production & Extraction;Industrial, Manufacturing & Operational Systems;Marine Engineering;Materials & Material Science;Mechanical;Military Technology;Reference","0691175217,9780691175218"
30239774,"Reader in Marxist Philosophy: From the Writings of Marx, Engels and Lenin",,,,Howard Selsam and Harry Martel,2010,,Rahul Foundation,,190,190,English,195,,0,978-93-80303-37-6,,,,,,,,,,Searchable pdf,0,,,1,,1,,1,6640603,pdf,9028a199544e463870d13795e4971f62,,,"Reader in Marxist Philosophy From the Writings of Marx, Engels, and Lenin_searchable copy.pdf",0,2000-01-01 01:00:00,2017-06-16 08:27:18,1693000/9028a199544e463870d13795e4971f62-g.jpg,,9789380303376
30239775,Planet of the Apes,,,,Pierre Boulle,2001,,Del Rey,,272,0,English,,,0,"0345447980,9780345447982",,,,,,,,,,,0,,,,,,,,340681,azw3,78d8b1bb65013ab3c817930e8fef5edd,,,9780345447982.azw3,0,2000-01-01 01:00:00,2017-06-16 08:27:40,1693000/78d8b1bb65013ab3c817930e8fef5edd-d.jpg,"Classics;Literature & Fiction;TV, Movie, Video Game Adaptations;Genre Fiction;Literature & Fiction;Adventure;Science Fiction;Science Fiction & Fantasy","0345447980,9780345447982"
30239776,The Martian,,,,Andy Weir,2014,Reprint,Broadway Books,,387,0,English,,,0,"0553418025,9780553418026",,,,,,,,,,,0,,,,,,,,771306,azw3,2b09644506b07e156cc21be86aeaadeb,,,9780553418026.azw3,0,2000-01-01 01:00:00,2017-06-16 08:27:46,1693000/2b09644506b07e156cc21be86aeaadeb-d.jpg,"Suspense;Thrillers & Suspense;Mystery, Thriller & Suspense;Reference;Almanacs & Yearbooks;Atlases & Maps;Careers;Catalogs & Directories;Consumer Guides;Dictionaries & Thesauruses;Encyclopedias & Subject Guides;English as a Second Language;Etiquette;Foreign Language Study & Reference;Genealogy;Quotations;Survival & Emergency Preparedness;Test Preparation;Words, Language & Grammar;Writing, Research & Publishing Guides;Adventure;Science Fiction;Science Fiction & Fantasy;Hard Science Fiction;Science","0553418025,9780553418026"
30239777,Operación Barbarroja III: El invierno ruso. Rusia junio de 1941,9,La Segunda Guerra Mundial Osprey 9,,Robert Kirchubel,2007,1,Osprey RBA,Barcelona,97,97,Spanish,67,,0,978-84-473-5559-4,,,,,,,,,,,300,1,,0,,1,,0,28160839,pdf,b0ed827e2c5c3d9733a83dd54556e780,,,Osprey RBA WW2 09 Operacion Barbarroja III el invierno ruso Rusia junio de 1941 R Kirchubel 2007.pdf,0,2000-01-01 01:00:00,2017-06-16 08:30:37,1693000/b0ed827e2c5c3d9733a83dd54556e780-g.jpg,,9788447355594
30239778,De lapsis and De Ecclesiae Catholicae unitate : text and translation,,Oxford Early Christian Texts,,Saint Cyprian; Maurice Bévenot,1971,,Clarendon Press,Oxford,153,153,English,205,,0,,,,,,,,,,,text and translation by Maurice Bévenot,0,,,,,,,1,9458376,pdf,425cdb923e65f087dfafcd8e2181334d,,,Bevenot.pdf,0,2000-01-01 01:00:00,2017-06-16 08:32:44,,,
30239779,Cyprian De Lapsis and De Ecclesiae Catholicae Unitate,,Oxford Early Christian Texts,,MAURICE BEVENOT,0,,,,78,78,English,205,,0,,,,,,,,,,,,0,,,,,,,1,5799469,pdf,ee8c787b972838e7e5479c4d6ac45bd5,,,Cyprian De Lapsis and De Ecclesiae Catholicae Unitate.pdf,0,2000-01-01 01:00:00,2017-06-16 08:32:58,,,
30239780,Cyprian De Lapsis and De Ecclesiae Catholicae Unitate,,Oxford Early Christian Texts,,MAURICE BEVENOT,0,,,,78,78,English,205,,0,,,,,,,,,,,,0,,,,,,,1,5799469,pdf,ee8c787b972838e7e5479c4d6ac45bd5,425cdb923e65f087dfafcd8e2181334d,no,Cyprian De Lapsis and De Ecclesiae Catholicae Unitate.pdf,0,2000-01-01 01:00:00,2017-06-16 08:33:02,,,
30239781,Solving Complex Decision Problems. A Heuristic Process,,,,"Rudolf Grünig, Richard Kühn",2017,,Springer,,194,194,english,,,0,978-3-662-53814-2,,,,,,,,,,,0,,,,,,,1,2981768,pdf,b8acf3ba15882a20a600944ec5f51798,,,Spring - Solving Complex Decision Problems. Heuristic Process 2017.pdf,0,2000-01-01 01:00:00,2017-06-16 08:33:49,,,9783662538142
30239782,Краткая история химической промышленности СССР,,,,Лукьянов П.М.,1959,,Изд-во АН СССР,М.,464,235,Russian,304,,0,,,,,,,,,,,,0,,,,,1,,0,112169913,pdf,d4979470bf7c8d2dece61f5f548cb80d,,,2265804_luk_yanov_p_m_kratkaya_istoriya_khimicheskoy_promyshlennosti.pdf,0,2000-01-01 01:00:00,2017-06-16 08:56:27,,,
30239783,Spartan Up!: A Take-No-Prisoners Guide to Overcoming Obstacles and Achieving Peak Performance in Life,,,,Joe De Sena,2014,,,,195,148,English,198,,0,"0544286170, 1471137686",,,,,,,,,,,0,,,,,,,1,1673515,pdf,0b93ac64c14dfc086c5eb43766e9b88b,,,0544286170_1471137686Spartan.pdf,0,2000-01-01 01:00:00,2017-06-16 09:02:23,https://pxhst.co/avaxhome/bc/64/002d64bc.jpeg,,"0544286170,1471137686"
30239784,Театрал,,,,Греч Н.И.,1853,,Типография Н. Греча,,,162,Russian,,,,-,,,,,,,,,,,0,,,,,,0,1,37959134,pdf,25c2fd4d768b164089e605624a96fb6a,,,Греч Н.И.;Театрал;;;Типография Н. Греча;1853;-;;Russian,0,2000-01-01 01:00:00,2017-06-16 09:07:36,1573000/25c2fd4d768b164089e605624a96fb6a-g.jpg,,
30239785,Иллюстрированный практический путеводитель по Одессе,,,,Москвич Г.Г.,1904,,Типография Л. Нитче (Одесса),,,193,Russian,,,,-,,,,,,,,,,,0,,,,,,0,1,114294202,pdf,6056c19c1332a4c10e4a7a718155860f,,,Москвич Г.Г.;Иллюстрированный практический путеводитель по Одессе;;;Типография Л. Нитче (Одесса);1904;-;;Russian,0,2000-01-01 01:00:00,2017-06-16 09:07:36,1577000/6056c19c1332a4c10e4a7a718155860f-g.jpg,,
30239786,«Отчизну сердцем защитили»  Стихи поэтов Тейковского района,,,,,2011,,"ОАО «Издательство «Иваново»,",,,64,Russian,,,,-,,,,,,,,,,,0,,,,,,0,1,2010197,pdf,ca229279281b8a331bc80b0e6cfa53f2,,,";«Отчизну сердцем защитили»  Стихи поэтов Тейковского района;;;ОАО «Издательство «Иваново»,;2011;-;;Russian",0,2000-01-01 01:00:00,2017-06-16 09:07:36,1585000/ca229279281b8a331bc80b0e6cfa53f2-g.jpg,,
30239787,Recettes Angéliques. Le bœuf: Le goût d’être ensemble,,,,(Collective),2012,,INTERBEV,,0,32,French,,,0,-,,,,,,,,,,,0,,,,,,0,1,3164060,pdf,be017384eb788f84803d6cf2728a3a68,,,;Recettes Angliques. Le boeuf Le got d’tre ensemble;;;INTERBEV;2012;-;;French,0,2000-01-01 01:00:00,2017-06-16 09:07:36,1585000/be017384eb788f84803d6cf2728a3a68-g.jpg,,
30239788,A World Of Animals Vol. 2,,Painting- Animals,,Ana Bernabe,2002,,Viking folk Art,,,60,English,,,,-,,,,,,,,,,,0,,,,,,0,0,50405079,pdf,857f613ba692b86d043d09c24061c24a,,,Ana Bernabe;A World Of Animals Vol. 2;Painting- Animals;;Viking folk Art;2002;-;;English,0,2000-01-01 01:00:00,2017-06-16 09:07:36,1585000/857f613ba692b86d043d09c24061c24a-g.jpg,,
30239789,A World Of Animals Vol. 3,,Painting- Animals,,Ana Bernabe,2003,,Viking folk Art,,,65,English,,,,-,,,,,,,,,,,0,,,,,,0,0,46544505,pdf,d2dbe9b1e95bf109a85cf033d923f5a2,,,Ana Bernabe;A World Of Animals Vol. 3;Painting- Animals;;Viking folk Art;2003;-;;English,0,2000-01-01 01:00:00,2017-06-16 09:07:36,1585000/d2dbe9b1e95bf109a85cf033d923f5a2-g.jpg,,
30239790,20 Easy DIY Holiday Craft,,,,Collective,2015,,FloraCraft,,0,58,English,,,0,-,,,,,,,,,,,0,,,,,,0,1,19194778,pdf,b5d1f6e32d9acffad14ecfb28dac3ac6,,,"Collective;20 Easy DIY Holiday Craft;;;FloraCraft, Prime Publishing LLC;2015;-;;English",0,2000-01-01 01:00:00,2017-06-16 09:07:36,1585000/b5d1f6e32d9acffad14ecfb28dac3ac6-g.jpg,,
30239791,Описание 3-х линейной винтовки образца 1891 года,,,,,1891,,"Издание Офицерской стрелковой школы, Типография И,Н, Скороходова (СПб",,,16,Russian,,,,-,,,,,,,,,,,0,,,,,,0,1,20685620,pdf,3249fcdc9c40bf854fcfbf1ef55e4d9d,,,";Описание 3-х линейной винтовки образца 1891 года;;;Издание Офицерской стрелковой школы, Типография И,Н, Скороходова (СПб;1891;-;;Russian",0,2000-01-01 01:00:00,2017-06-16 09:07:36,1630000/3249fcdc9c40bf854fcfbf1ef55e4d9d-g.jpg,,
30239792,Третье отделение при Николае I,,,,Троцкий И.М.,1930,,Издательство Всесоюзного общества политкаторжан и ссыльно-поселенцев,,,74,Russian,,,,-,,,,,,,,,,,0,,,,,,0,1,39399144,pdf,e7c5d9cf33dd069059147f4c08996e2b,,,Троцкий И.М.;Третье отделение при Николае I;;;Издательство Всесоюзного общества политкаторжан и ссыльно-поселенцев;1930;-;;Russian,0,2000-01-01 01:00:00,2017-06-16 09:07:36,1630000/e7c5d9cf33dd069059147f4c08996e2b-g.jpg,,
30239793,Занимательные задачи и опыты,,,,Перельман Я.И.,1972,,Детская литература,,,472,Russian,,,,-,,,,,,,,,,,0,,,,,,0,1,167718439,pdf,0fc1642694a8224f1a8df67f677f4c26,,,Перельман Я.И.;Занимательные задачи и опыты;;;Детская литература;1972;-;;Russian,0,2000-01-01 01:00:00,2017-06-16 09:07:36,1630000/0fc1642694a8224f1a8df67f677f4c26-g.jpg,,
30239794,Сад и огород в доме,,,,Попов Е.Б.,1985,,Детская литература,,,120,Russian,,,,-,,,,,,,,,,,0,,,,,,0,1,48066991,pdf,fe06f74051bf5081ef51978cd47a993c,,,Попов Е.Б.;Сад и огород в доме;;;Детская литература;1985;-;;Russian,0,2000-01-01 01:00:00,2017-06-16 09:07:36,1631000/fe06f74051bf5081ef51978cd47a993c-g.jpg,,
30239795,Oceanografie. eseuri,,,,Mircea Eliade,1934,1st edition,Cultura Populara,București,304,304,Romanian,195,,0,-,,,,,,,,,,ocr by epistematic,0,,,,,,,1,17299949,pdf,f5e05a11cfc53acb1e4e292fa66c1bd2,,,Eliade Oceanografie 1934 ocr lipsa.pdf,0,2000-01-01 01:00:00,2017-06-16 09:07:36,1685000/f5e05a11cfc53acb1e4e292fa66c1bd2-g.jpg,,
30239796,Cum ne construim dușmanul: și alte scrieri ocazionale,,,,Umberto Eco,2007,3rd edition,Polirom,Iasi,352,352,Romanian,,,0,-,,,,,,,,,,"ocr by epistematic, scan sdr",300,,,,,,0,1,11499669,pdf,9d2e9c43400588086e983e18322889e4,,,Umberto Eco - Cum ne construim dușmanii ocr.pdf,0,2000-01-01 01:00:00,2017-06-16 09:07:36,1689000/9d2e9c43400588086e983e18322889e4-g.jpg,,
30239797,The first signs : my quest to unlock the mysteries of the world’s oldest symbols,,,,"Von Petzinger, Genevieve",2016,First Atria books hardcover edition.,Atria Books,New York,0,0,English,,,0,"9781476785516,1476785511",,,,,,,,,,,0,,,,,,,,15706992,epub,a379fa78e8ff67cd3740f0925cf3f78c,,,147678549X.epub,0,2000-01-01 01:00:00,2017-06-16 09:27:42,http://coverart.oclc.org/ImageWebSvc/oclc/+-+705484984_140.jpg,"Paleolithic period -- Europe;Glacial epoch -- Europe;Signs and symbols -- Europe -- History;Symbolism in art -- History;Geometry in art -- History;Art, Prehistoric -- Europe;Rock paintings -- Europe;Von Petzinger, Genevieve -- Travel -- Europe;Europe -- Antiquities;Social archaeology -- Europe;SOCIAL SCIENCE -- Anthropology -- Cultural;HISTORY -- Civilization;ART -- History -- Prehistoric & Primitive","9781476785516,1476785511"
30239798,The Black Belt Blueprint: An Intelligent Approach to Brazilian Jiu Jitsu,,,,Nicolas Gregoriades,2013,,,,196,196,English,291,,0,1507712502,,,,,,,,,,,0,,,,,,,1,9777675,pdf,5bde8a9ecd69e0100294c07358837aa9,,,The_Black_Belt_Blueprint_An_Intelligent_Approach_to_BJJ.pdf,0,2000-01-01 01:00:00,2017-06-16 09:46:36,https://pxhst.co/avaxhome/f6/58/004658f6.jpg,,1507712502
30239799,Organization Theory: Tension and Change,,,,David Jaffee,2001,,,,333,333,English,,,0,,,,,,,,,,,,0,,,,,,,1,12317197,pdf,85d8ce9347042fec51180277272a1fdf,,,(Jaffee) Organization Theory - Tension and Change.pdf,0,2000-01-01 01:00:00,2017-06-16 09:49:15,,,
30239800,Everybody Had an Ocean: Music and Mayhem in 1960s Los Angeles,,,,William McKeen,2017,,Chicago Review Press,,432,436,English,,,0,"1613734913,9781613734919",,,,,,,,,,,0,,,,,,,1,6465730,pdf,dbcd20a1ba7436fca72b0316f605dd65,,,Everybody Had an Ocean. Music and Mayhem in 1960s Los Angeles.pdf,0,2000-01-01 01:00:00,2017-06-16 09:51:21,https://images-na.ssl-images-amazon.com/images/I/51EprBoOGVL.jpg,History & Criticism;Music;Arts & Photography;Rock;Musical Genres;Music;Arts & Photography;State & Local;United States;Americas;History,"1613734913,9781613734919"
30239801,The Ethics of the Family in Seneca,,,,Liz Gloyn,2017,,Cambridge University Press,,258,262,English,,,0,"1107145473,9781107145474",,,,,,,,,,,0,,,,,,,1,22687794,pdf,fdc24a9b4271b698edbb2be4b3091213,,,The Ethics of the Family in Seneca.pdf,0,2000-01-01 01:00:00,2017-06-16 09:52:57,https://images-na.ssl-images-amazon.com/images/I/51lcPJ3X8JL.jpg,Greek & Roman;Philosophy;Politics & Social Sciences,"1107145473,9781107145474"
30239802,"New Perceptions of the Vietnam War: Essays on the War, the South Vietnamese Experience, the Diaspora and the Continuing Impact",,,,Nathalie Huynh Chau Nguyen,2014,,McFarland,,268,269,English,,,0,"078649509X,9780786495092",,,,,,,,,,,0,,,,,,,1,8502785,pdf,d9a07af8aeb7808b034cb61e6f878541,,,"New Perceptions of the Vietnam War. Essays on the War, the South Vietnamese Experience, the Diaspora and the Continuing Impact.pdf",0,2000-01-01 01:00:00,2017-06-16 09:54:24,https://images-na.ssl-images-amazon.com/images/I/51QGv1UAmGL.jpg,"Southeast Asia;Asia;History;Vietnam War;Military;History;Asian American Studies;Specific Demographics;Social Sciences;Politics & Social Sciences;Asia;History;Humanities;New, Used & Rental Textbooks;Specialty Boutique;Military;History;Humanities;New, Used & Rental Textbooks;Specialty Boutique;Social Sciences;Anthropology;Archaeology;Criminology;Gay & Lesbian Studies;Gender Studies;Geography;Military Sciences;Political Science;Psychology;Sociology;New, Used & Rental Textbooks;Specialty Boutique","078649509X,9780786495092"
30239803,Tales from a Revolution: Bacon’s Rebellion and the Transformation of Early America,,New Narratives in American History,,James D. Rice,2012,1,Oxford University Press,,280,276,English,,,0,"0195386957,9780195386950",,,,,,,,,,,0,,,,,,,1,3835094,pdf,beee5f6c894dd589e57c888b8eb7b7d6,,,Tales from a Revolution. Bacon__039;s Rebellion and the Transformation of Early America.pdf,0,2000-01-01 01:00:00,2017-06-16 09:55:20,https://images-na.ssl-images-amazon.com/images/I/51GeT168NtL.jpg,"Native American;Americas;History;Colonial Period;United States;Americas;History;Revolution & Founding;United States;Americas;History;State & Local;United States;Americas;History;United States;Civil War;Operation Desert Storm;Veterans;Vietnam War;Military;History;World;Civilization & Culture;Expeditions & Discoveries;Jewish;Maritime History & Piracy;Religious;Slavery & Emancipation;Women in History;History;United States;History;Humanities;New, Used & Rental Textbooks;Specialty Boutique;Military;H","0195386957,9780195386950"
30239804,The Rise and Fall of North American Indians: From Prehistory through Geronimo,,,,William P. Brandon,2003,,Taylor Trade Publishing,,616,629,English,,,0,"1589790367,9781589790360",,,,,,,,,,,0,,,,,,,1,3971250,pdf,de7de8ca5117762d00064d54a2a497ac,,,The Rise and Fall of North American Indians. From Prehistory through Geronimo.pdf,0,2000-01-01 01:00:00,2017-06-16 09:57:17,https://images-na.ssl-images-amazon.com/images/I/41259YFETWL.jpg,Native American;Americas;History;United States;African Americans;Civil War;Colonial Period;Immigrants;Revolution & Founding;State & Local;Americas;History;Civil Rights & Liberties;Specific Topics;Politics & Government;Politics & Social Sciences;Civics & Citizenship;Specific Topics;Politics & Government;Politics & Social Sciences,"1589790367,9781589790360"
30239805,Forgotten Dreams: Revisiting Romanticism in the Cinema of Werner Herzog,,Screen Cultures: German Film and the Visual,,Laurie Ruth Johnson,2016,,Camden House,,322,314,English,,,0,"1571139117,9781571139115",,,,,,,,,,,0,,,,,,,1,146580842,pdf,8ffd4d359b57381df1608671eac8b76c,,,Forgotten Dreams. Revisiting Romanticism in the Cinema of Werner Herzog.pdf,0,2000-01-01 01:00:00,2017-06-16 10:05:54,https://images-na.ssl-images-amazon.com/images/I/61mzTUg%2BlBL.jpg,"Individual Directors;Performing Arts;Arts & Photography;History & Criticism;Movies;Humor & Entertainment;Theory;Movies;Humor & Entertainment;Film & Television;Performing Arts;Humanities;New, Used & Rental Textbooks;Specialty Boutique","1571139117,9781571139115"
30239806,At the First Table: Food and Social Identity in Early Modern Spain,,Early Modern Cultural Studies,,Jodi Campbell,2017,,University of Nebraska Press,,252,250,English,,,0,"0803290810,9780803290815",,,,,,,,,,,0,,,,,,,1,5251901,pdf,01393b1af1ad9a23dfa62e2fac193a5e,,,At the First Table. Food and Social Identity in Early Modern Spain.pdf,0,2000-01-01 01:00:00,2017-06-16 10:06:58,https://images-na.ssl-images-amazon.com/images/I/51X5cde5O9L.jpg,"History;Cooking Education & Reference;Cookbooks, Food & Wine;Europe;Belgium;France;Germany;Great Britain;Greenland;Italy;Netherlands;Romania;Scandinavia;History;Historical Study & Educational Resources;Archaeology;Essays;Historical Geography;Historical Maps;Historiography;Reference;Study & Teaching;History;Food Science;Agricultural Sciences;Science & Math;Sociology;Abuse;Class;Death;Marriage & Family;Medicine;Race Relations;Rural;Social Theory;Urban;Politics & Social Sciences","0803290810,9780803290815"
30239807,Театрал,,,,Греч Н.И.,1853,,Типография Н. Греча,,,162,Russian,,,,-,,,,,,,,,,,0,,,,,,0,1,37959134,pdf,25c2fd4d768b164089e605624a96fb6a,,,Греч Н.И.;Театрал;;;Типография Н. Греча;1853;-;;Russian,0,2000-01-01 01:00:00,2017-06-16 10:07:37,1573000/25c2fd4d768b164089e605624a96fb6a-g.jpg,,
30239808,Иллюстрированный практический путеводитель по Одессе,,,,Москвич Г.Г.,1904,,Типография Л. Нитче (Одесса),,,193,Russian,,,,-,,,,,,,,,,,0,,,,,,0,1,114294202,pdf,6056c19c1332a4c10e4a7a718155860f,,,Москвич Г.Г.;Иллюстрированный практический путеводитель по Одессе;;;Типография Л. Нитче (Одесса);1904;-;;Russian,0,2000-01-01 01:00:00,2017-06-16 10:07:37,1577000/6056c19c1332a4c10e4a7a718155860f-g.jpg,,
30239809,«Отчизну сердцем защитили»  Стихи поэтов Тейковского района,,,,,2011,,"ОАО «Издательство «Иваново»,",,,64,Russian,,,,-,,,,,,,,,,,0,,,,,,0,1,2010197,pdf,ca229279281b8a331bc80b0e6cfa53f2,,,";«Отчизну сердцем защитили»  Стихи поэтов Тейковского района;;;ОАО «Издательство «Иваново»,;2011;-;;Russian",0,2000-01-01 01:00:00,2017-06-16 10:07:37,1585000/ca229279281b8a331bc80b0e6cfa53f2-g.jpg,,
30239810,Recettes Angéliques. Le bœuf: Le goût d’être ensemble,,,,(Collective),2012,,INTERBEV,,0,32,French,,,0,-,,,,,,,,,,,0,,,,,,0,1,3164060,pdf,be017384eb788f84803d6cf2728a3a68,,,;Recettes Angliques. Le boeuf Le got d’tre ensemble;;;INTERBEV;2012;-;;French,0,2000-01-01 01:00:00,2017-06-16 10:07:37,1585000/be017384eb788f84803d6cf2728a3a68-g.jpg,,
30239811,A World Of Animals Vol. 2,,Painting- Animals,,Ana Bernabe,2002,,Viking folk Art,,,60,English,,,,-,,,,,,,,,,,0,,,,,,0,0,50405079,pdf,857f613ba692b86d043d09c24061c24a,,,Ana Bernabe;A World Of Animals Vol. 2;Painting- Animals;;Viking folk Art;2002;-;;English,0,2000-01-01 01:00:00,2017-06-16 10:07:37,1585000/857f613ba692b86d043d09c24061c24a-g.jpg,,
30239812,A World Of Animals Vol. 3,,Painting- Animals,,Ana Bernabe,2003,,Viking folk Art,,,65,English,,,,-,,,,,,,,,,,0,,,,,,0,0,46544505,pdf,d2dbe9b1e95bf109a85cf033d923f5a2,,,Ana Bernabe;A World Of Animals Vol. 3;Painting- Animals;;Viking folk Art;2003;-;;English,0,2000-01-01 01:00:00,2017-06-16 10:07:37,1585000/d2dbe9b1e95bf109a85cf033d923f5a2-g.jpg,,
30239813,20 Easy DIY Holiday Craft,,,,Collective,2015,,FloraCraft,,0,58,English,,,0,-,,,,,,,,,,,0,,,,,,0,1,19194778,pdf,b5d1f6e32d9acffad14ecfb28dac3ac6,,,"Collective;20 Easy DIY Holiday Craft;;;FloraCraft, Prime Publishing LLC;2015;-;;English",0,2000-01-01 01:00:00,2017-06-16 10:07:37,1585000/b5d1f6e32d9acffad14ecfb28dac3ac6-g.jpg,,
30239814,Описание 3-х линейной винтовки образца 1891 года,,,,,1891,,"Издание Офицерской стрелковой школы, Типография И,Н, Скороходова (СПб",,,16,Russian,,,,-,,,,,,,,,,,0,,,,,,0,1,20685620,pdf,3249fcdc9c40bf854fcfbf1ef55e4d9d,,,";Описание 3-х линейной винтовки образца 1891 года;;;Издание Офицерской стрелковой школы, Типография И,Н, Скороходова (СПб;1891;-;;Russian",0,2000-01-01 01:00:00,2017-06-16 10:07:37,1630000/3249fcdc9c40bf854fcfbf1ef55e4d9d-g.jpg,,
30239815,Третье отделение при Николае I,,,,Троцкий И.М.,1930,,Издательство Всесоюзного общества политкаторжан и ссыльно-поселенцев,,,74,Russian,,,,-,,,,,,,,,,,0,,,,,,0,1,39399144,pdf,e7c5d9cf33dd069059147f4c08996e2b,,,Троцкий И.М.;Третье отделение при Николае I;;;Издательство Всесоюзного общества политкаторжан и ссыльно-поселенцев;1930;-;;Russian,0,2000-01-01 01:00:00,2017-06-16 10:07:37,1630000/e7c5d9cf33dd069059147f4c08996e2b-g.jpg,,
30239816,Занимательные задачи и опыты,,,,Перельман Я.И.,1972,,Детская литература,,,472,Russian,,,,-,,,,,,,,,,,0,,,,,,0,1,167718439,pdf,0fc1642694a8224f1a8df67f677f4c26,,,Перельман Я.И.;Занимательные задачи и опыты;;;Детская литература;1972;-;;Russian,0,2000-01-01 01:00:00,2017-06-16 10:07:37,1630000/0fc1642694a8224f1a8df67f677f4c26-g.jpg,,
30239817,Сад и огород в доме,,,,Попов Е.Б.,1985,,Детская литература,,,120,Russian,,,,-,,,,,,,,,,,0,,,,,,0,1,48066991,pdf,fe06f74051bf5081ef51978cd47a993c,,,Попов Е.Б.;Сад и огород в доме;;;Детская литература;1985;-;;Russian,0,2000-01-01 01:00:00,2017-06-16 10:07:37,1631000/fe06f74051bf5081ef51978cd47a993c-g.jpg,,
30239818,Oceanografie. eseuri,,,,Mircea Eliade,1934,1st edition,Cultura Populara,București,304,304,Romanian,195,,0,-,,,,,,,,,,ocr by epistematic,0,,,,,,,1,17299949,pdf,f5e05a11cfc53acb1e4e292fa66c1bd2,,,Eliade Oceanografie 1934 ocr lipsa.pdf,0,2000-01-01 01:00:00,2017-06-16 10:07:37,1685000/f5e05a11cfc53acb1e4e292fa66c1bd2-g.jpg,,
30239819,Cum ne construim dușmanul: și alte scrieri ocazionale,,,,Umberto Eco,2007,3rd edition,Polirom,Iasi,352,352,Romanian,,,0,-,,,,,,,,,,"ocr by epistematic, scan sdr",300,,,,,,0,1,11499669,pdf,9d2e9c43400588086e983e18322889e4,,,Umberto Eco - Cum ne construim dușmanii ocr.pdf,0,2000-01-01 01:00:00,2017-06-16 10:07:37,1689000/9d2e9c43400588086e983e18322889e4-g.jpg,,
30239820,"Far East, Down South: Asians in the American South",,Modern South,,"Raymond A. Mohl, John E. Van Sant, Chizuru Saeki",2016,3rd ed.,University Alabama Press,,280,276,English,,,0,"081731914X,9780817319144",,,,,,,,,,,0,,,,,,,1,3275331,pdf,5393a58310d195fe8c5301c8ef4dfd69,,,"Far East, Down South. Asians in the American South.pdf",0,2000-01-01 01:00:00,2017-06-16 10:09:23,https://images-na.ssl-images-amazon.com/images/I/51iwBeBJ%2BYL.jpg,"State & Local;United States;Americas;History;Immigrants;United States;Americas;History;Historical Study & Educational Resources;Archaeology;Essays;Historical Geography;Historical Maps;Historiography;Reference;Study & Teaching;History;Emigration & Immigration;Social Sciences;Politics & Social Sciences;Asian American Studies;Specific Demographics;Social Sciences;Politics & Social Sciences;United States;History;Humanities;New, Used & Rental Textbooks;Specialty Boutique;Social Sciences;Anthropology;","081731914X,9780817319144"
30239821,"Disaster Drawn: Visual Witness, Comics, and Documentary Form",,,,Hillary L. Chute,2016,,Belknap Press,,376,372,English,,,0,"0674504518,9780674504516",,,,,,,,,,,0,,,,,,,1,31390070,pdf,7e3d0fb260ed7cf77e9be2c7e5389f4d,,,"Disaster Drawn. Visual Witness, Comics, and Documentary Form.pdf",0,2000-01-01 01:00:00,2017-06-16 10:11:45,https://images-na.ssl-images-amazon.com/images/I/61FPcVfAECL.jpg,Graphic Design;Airbrush;Animation;Clip Art;Commercial;Lithography;Printmaking;Techniques;Typography;Arts & Photography;History & Price Guides;Comics & Graphic Novels;Comics & Graphic Novels;Genres & Styles;History & Criticism;Literature & Fiction,"0674504518,9780674504516"
30239822,Pixar with Lacan: The Hysteric’s Guide to Animation,,,,Lilian Munk Rösing,2015,,Bloomsbury Academic,,192,193,English,,,0,"1628920599,9781628920598",,,,,,,,,,,0,,,,,,,1,1906701,pdf,800e4bb2a8f7b81dfe06194b95b60b79,,,Pixar with Lacan. The Hysteric__039;s Guide to Animation.pdf,0,2000-01-01 01:00:00,2017-06-16 10:12:43,https://images-na.ssl-images-amazon.com/images/I/512dlGoa-fL.jpg,"Performing Arts;Dance;Individual Directors;Magic & Illusion;Reference;Theater;Arts & Photography;Film & Video Art;Photography & Video;Arts & Photography;Animation;Graphic Design;Arts & Photography;History & Criticism;Movies;Humor & Entertainment;Theory;Movies;Humor & Entertainment;Psychoanalysis;Psychology & Counseling;Health, Fitness & Dieting;Psychoanalysis;Psychology;Structuralism;Movements;Philosophy;Politics & Social Sciences;Philosophy;Aesthetics;Epistemology;Ethics;History & Surveys;Logic","1628920599,9781628920598"
30239823,Um estranho numa terra estranha,,,,Robert A. Heinlein,2017,,Editora Aleph,São Paulo,0,0,Portuguese,,,0,,,,,,,,,,,,0,,,,,,,,908157,epub,27c0422c0b7cb03392f7dbe10270a4d2,,,"HEINLEIN, Robert A. - Um estranho numa terra estranha (retail).epub",0,2000-01-01 01:00:00,2017-06-16 10:14:02,,,
30239824,Meios e finais - Conversas em Princeton,,,,Ricardo Piglia & Fermín Rodríguez & Paul Firbas & Pedro Meira Monteiro,2017,,e-galáxia,,0,0,Portuguese,,,0,,,,,,,,,,,,0,,,,,,,,291391,epub,d465a8327e8840e860fdfef721f0dbc6,,,"PIGLIA, Ricardo - Meios ef finais - Conversas em Princenton (retail).epub",0,2000-01-01 01:00:00,2017-06-16 10:15:17,,,
30239825,A beleza é uma ferida,,,,Eka Kurniawan,2017,,Editora José Olympio,Rio de Janeiro,0,0,Portuguese,,,0,,,,,,,,,,,,0,,,,,,,,504456,epub,afc9f07a3a94862c7beec9e25fd886ec,,,"KURNIAWAN, Eka - A beleza é uma ferida (retail).epub",0,2000-01-01 01:00:00,2017-06-16 10:15:34,,,
30239826,O Genocí­dio do Negro Brasileiro - Processo de um Racismo Mascarado,,,,Abdias Nascimento,2016,,Editora Perspectiva,São Paulo,0,0,Portuguese,,,0,,,,,,,,,,,,0,,,,,,,,510387,epub,39e69644997a0400c66e88f43eef2f7e,,,"NASCIMENTO, Abdias - O genocídio do negro brasileiro (retail).epub",0,2000-01-01 01:00:00,2017-06-16 10:15:55,,,
30239827,Solaris,,,,Stanislaw Lem,2017,,Editora Aleph,São Paulo,0,0,Portuguese,,,0,,,,,,,,,,,,0,,,,,,,,963456,epub,bb804eccbee694a001475f7c027bd8fd,,,"LEM, Stanislaw - Solaris (retail).epub",0,2000-01-01 01:00:00,2017-06-16 10:16:09,,,
30239828,"Sein, Physis, Aletheia. Zur Vermittlung und Unmittelbarkeit im ‘ursprünglichen’ Seinsdenken Martin Heideggers",,,,Borislav Mikulić,1987,,Konigshausen und Neumann,Würzburg,453,453,Croatian,,,0,3-88479-320-9,,,,,,,,,,,0,,,,,,,1,11353993,pdf,6e9bcfb075ec460935475e203f9baa20,,,Mikulic_SeinPhysisAletheia_1987.pdf,0,2000-01-01 01:00:00,2017-06-16 11:04:28,1693000/6e9bcfb075ec460935475e203f9baa20-g.jpg,,3884793209
30239829,Театрал,,,,Греч Н.И.,1853,,Типография Н. Греча,,,162,Russian,,,,-,,,,,,,,,,,0,,,,,,0,1,37959134,pdf,25c2fd4d768b164089e605624a96fb6a,,,Греч Н.И.;Театрал;;;Типография Н. Греча;1853;-;;Russian,0,2000-01-01 01:00:00,2017-06-16 11:07:36,1573000/25c2fd4d768b164089e605624a96fb6a-g.jpg,,
30239830,Иллюстрированный практический путеводитель по Одессе,,,,Москвич Г.Г.,1904,,Типография Л. Нитче (Одесса),,,193,Russian,,,,-,,,,,,,,,,,0,,,,,,0,1,114294202,pdf,6056c19c1332a4c10e4a7a718155860f,,,Москвич Г.Г.;Иллюстрированный практический путеводитель по Одессе;;;Типография Л. Нитче (Одесса);1904;-;;Russian,0,2000-01-01 01:00:00,2017-06-16 11:07:36,1577000/6056c19c1332a4c10e4a7a718155860f-g.jpg,,
30239831,«Отчизну сердцем защитили»  Стихи поэтов Тейковского района,,,,,2011,,"ОАО «Издательство «Иваново»,",,,64,Russian,,,,-,,,,,,,,,,,0,,,,,,0,1,2010197,pdf,ca229279281b8a331bc80b0e6cfa53f2,,,";«Отчизну сердцем защитили»  Стихи поэтов Тейковского района;;;ОАО «Издательство «Иваново»,;2011;-;;Russian",0,2000-01-01 01:00:00,2017-06-16 11:07:36,1585000/ca229279281b8a331bc80b0e6cfa53f2-g.jpg,,
30239832,Recettes Angéliques. Le bœuf: Le goût d’être ensemble,,,,(Collective),2012,,INTERBEV,,0,32,French,,,0,-,,,,,,,,,,,0,,,,,,0,1,3164060,pdf,be017384eb788f84803d6cf2728a3a68,,,;Recettes Angliques. Le boeuf Le got d’tre ensemble;;;INTERBEV;2012;-;;French,0,2000-01-01 01:00:00,2017-06-16 11:07:36,1585000/be017384eb788f84803d6cf2728a3a68-g.jpg,,
30239833,A World Of Animals Vol. 2,,Painting- Animals,,Ana Bernabe,2002,,Viking folk Art,,,60,English,,,,-,,,,,,,,,,,0,,,,,,0,0,50405079,pdf,857f613ba692b86d043d09c24061c24a,,,Ana Bernabe;A World Of Animals Vol. 2;Painting- Animals;;Viking folk Art;2002;-;;English,0,2000-01-01 01:00:00,2017-06-16 11:07:36,1585000/857f613ba692b86d043d09c24061c24a-g.jpg,,
30239834,A World Of Animals Vol. 3,,Painting- Animals,,Ana Bernabe,2003,,Viking folk Art,,,65,English,,,,-,,,,,,,,,,,0,,,,,,0,0,46544505,pdf,d2dbe9b1e95bf109a85cf033d923f5a2,,,Ana Bernabe;A World Of Animals Vol. 3;Painting- Animals;;Viking folk Art;2003;-;;English,0,2000-01-01 01:00:00,2017-06-16 11:07:36,1585000/d2dbe9b1e95bf109a85cf033d923f5a2-g.jpg,,
30239835,20 Easy DIY Holiday Craft,,,,Collective,2015,,FloraCraft,,0,58,English,,,0,-,,,,,,,,,,,0,,,,,,0,1,19194778,pdf,b5d1f6e32d9acffad14ecfb28dac3ac6,,,"Collective;20 Easy DIY Holiday Craft;;;FloraCraft, Prime Publishing LLC;2015;-;;English",0,2000-01-01 01:00:00,2017-06-16 11:07:36,1585000/b5d1f6e32d9acffad14ecfb28dac3ac6-g.jpg,,
30239836,Описание 3-х линейной винтовки образца 1891 года,,,,,1891,,"Издание Офицерской стрелковой школы, Типография И,Н, Скороходова (СПб",,,16,Russian,,,,-,,,,,,,,,,,0,,,,,,0,1,20685620,pdf,3249fcdc9c40bf854fcfbf1ef55e4d9d,,,";Описание 3-х линейной винтовки образца 1891 года;;;Издание Офицерской стрелковой школы, Типография И,Н, Скороходова (СПб;1891;-;;Russian",0,2000-01-01 01:00:00,2017-06-16 11:07:36,1630000/3249fcdc9c40bf854fcfbf1ef55e4d9d-g.jpg,,
30239837,Третье отделение при Николае I,,,,Троцкий И.М.,1930,,Издательство Всесоюзного общества политкаторжан и ссыльно-поселенцев,,,74,Russian,,,,-,,,,,,,,,,,0,,,,,,0,1,39399144,pdf,e7c5d9cf33dd069059147f4c08996e2b,,,Троцкий И.М.;Третье отделение при Николае I;;;Издательство Всесоюзного общества политкаторжан и ссыльно-поселенцев;1930;-;;Russian,0,2000-01-01 01:00:00,2017-06-16 11:07:36,1630000/e7c5d9cf33dd069059147f4c08996e2b-g.jpg,,
30239838,Занимательные задачи и опыты,,,,Перельман Я.И.,1972,,Детская литература,,,472,Russian,,,,-,,,,,,,,,,,0,,,,,,0,1,167718439,pdf,0fc1642694a8224f1a8df67f677f4c26,,,Перельман Я.И.;Занимательные задачи и опыты;;;Детская литература;1972;-;;Russian,0,2000-01-01 01:00:00,2017-06-16 11:07:36,1630000/0fc1642694a8224f1a8df67f677f4c26-g.jpg,,
30239839,Сад и огород в доме,,,,Попов Е.Б.,1985,,Детская литература,,,120,Russian,,,,-,,,,,,,,,,,0,,,,,,0,1,48066991,pdf,fe06f74051bf5081ef51978cd47a993c,,,Попов Е.Б.;Сад и огород в доме;;;Детская литература;1985;-;;Russian,0,2000-01-01 01:00:00,2017-06-16 11:07:36,1631000/fe06f74051bf5081ef51978cd47a993c-g.jpg,,
30239840,Oceanografie. eseuri,,,,Mircea Eliade,1934,1st edition,Cultura Populara,București,304,304,Romanian,195,,0,-,,,,,,,,,,ocr by epistematic,0,,,,,,,1,17299949,pdf,f5e05a11cfc53acb1e4e292fa66c1bd2,,,Eliade Oceanografie 1934 ocr lipsa.pdf,0,2000-01-01 01:00:00,2017-06-16 11:07:36,1685000/f5e05a11cfc53acb1e4e292fa66c1bd2-g.jpg,,
30239841,Cum ne construim dușmanul: și alte scrieri ocazionale,,,,Umberto Eco,2007,3rd edition,Polirom,Iasi,352,352,Romanian,,,0,-,,,,,,,,,,"ocr by epistematic, scan sdr",300,,,,,,0,1,11499669,pdf,9d2e9c43400588086e983e18322889e4,,,Umberto Eco - Cum ne construim dușmanii ocr.pdf,0,2000-01-01 01:00:00,2017-06-16 11:07:36,1689000/9d2e9c43400588086e983e18322889e4-g.jpg,,
30239842,Relational Perspectives on the Body,,Relational Perspectives Book Series,,"Lewis Aron, Frances Sommer Anderson",2000,1,Routledge,,352,363,English,198,,0,"0881633437,9780881633436",,,,,,,,,,,0,,,,,,,1,8093784,pdf,13bb76042daf00590b8e5eaf60456ba0,,,Binder2.pdf,0,2000-01-01 01:00:00,2017-06-16 11:13:15,https://images-na.ssl-images-amazon.com/images/I/51Zf8bsKQpL.jpg,"Interpersonal Relations;Relationships;Self-Help;Applied Psychology;Psychology & Counseling;Health, Fitness & Dieting;Counseling;Psychology & Counseling;Health, Fitness & Dieting;Physiological Aspects;Psychology & Counseling;Health, Fitness & Dieting;Psychoanalysis;Psychology & Counseling;Health, Fitness & Dieting;Psychotherapy, TA & NLP;Psychology & Counseling;Health, Fitness & Dieting;Clinical Psychology;Psychology;Applied Psychology;Psychology;General;Psychology;Mental Illness;Psychology;Physi","0881633437,9780881633436"
30239843,"Emotional and Behavioral Problems of Young Children, Second Edition: Effective Interventions in the Preschool and Kindergarten Years",,The Guilford Practical Intervention in the Schools Series,,"Melissa L. Holland PhD, Jessica Malmberg PhD, Gretchen Gimpel Peacock PhD",2017,2,The Guilford Press,,256,258,English,198,,0,"1462529348,9781462529346",,,,,,,,,,,0,,,,,,,1,3508505,pdf,3b02774d32f85eeaee6679b63f85fcc6,,,Binder5.pdf,0,2000-01-01 01:00:00,2017-06-16 11:14:56,https://images-na.ssl-images-amazon.com/images/I/51BViTW0y8L.jpg,"Behavioral Sciences;Anthropology;Behavioral Psychology;Cognitive Psychology;Science & Math;Pediatrics;Emergencies;Perinatology & Neonatology;Internal Medicine;Medicine;Child Psychology;Psychology;Social Work;Social Sciences;Politics & Social Sciences;Early Childhood Education;Schools & Teaching;Education & Teaching;Behavioral Disorders;Special Education;Schools & Teaching;Education & Teaching;Special Education;Education;New, Used & Rental Textbooks;Specialty Boutique;Pediatrics;Clinical;Medicine","1462529348,9781462529346"
30239844,Император в византийском искусстве.,,,,Андре Грабар,2000,,Ладомир,М.,166,166,Russian,57,,0,5-86218-308-6,,,,,,,,,,,0,,,,,,,1,61165670,pdf,4590e5aff772c89aeb8f8f87b8a817d1,,,Андре Грабар Император в византийском искусстве.pdf,0,2000-01-01 01:00:00,2017-06-16 11:15:42,,,5862183086
30239845,Freud and the Imaginative World,,,,Harry Trosman,1985,,Routledge,,233,252,English,198,,0,"0881630284,9780881630282",,,,,,,,,,,0,,,,,,,1,97576849,pdf,1e8eca2cb2c14ff93f8c99e52dac5e0b,,,Binder6.pdf,0,2000-01-01 01:00:00,2017-06-16 11:16:21,https://images-na.ssl-images-amazon.com/images/I/41L6U43SCFL.jpg,"Interpersonal Relations;Relationships;Self-Help;Applied Psychology;Psychology & Counseling;Health, Fitness & Dieting;History;Psychology & Counseling;Health, Fitness & Dieting;Psychotherapy, TA & NLP;Psychology & Counseling;Health, Fitness & Dieting;Applied Psychology;Psychology;History;Psychology;Psychotherapy, TA & NLP;Psychology;Psychotherapy;Psychology;Social Sciences;New, Used & Rental Textbooks;Specialty Boutique","0881630284,9780881630282"
30239846,"Живописный номинализм. Марсель Дюшан, живопись и современность.",,,,Тьерри де Дюв,2012,,Изд. Института Гайдара,,184,184,Russian,58,,0,978-5-93255-339-8,,,,,,,,,,,0,,,,,,,1,93365327,pdf,ccbdfa665754559c9c341baaebbff983,,,Тьерри де Дюв - Живописный номинализм. Марсель Дюшан - 2012.pdf,0,2000-01-01 01:00:00,2017-06-16 11:19:01,,,9785932553398
30239847,Unconscious Fantasies and the Relational World,,Relational Perspectives Book Series,,"Danielle Knafo, Kenneth Feiner",2005,1,Routledge,,232,233,English,198,,0,"0881634204,9780881634204",,,,,,,,,,,0,,,,,,,1,4506831,pdf,d744fd7932263db00629943f067c22c8,,,Binder11.pdf,0,2000-01-01 01:00:00,2017-06-16 11:19:18,https://images-na.ssl-images-amazon.com/images/I/41OFYYdl%2BTL.jpg,"Mental Health;Anxiety Disorders;Attention Deficit & Attention Deficit Hyperactivity Disorders;Bipolar;Codependency;Compulsive Behavior;Dementia;Depression;Dissociative Disorders;Dreams;Eating Disorders;Emotions;Happiness;Mood Disorders;Personality Disorders;Post-traumatic Stress Disorder;Postpartum Depression;Schizophrenia;Health, Fitness & Dieting;Applied Psychology;Psychology & Counseling;Health, Fitness & Dieting;Psychoanalysis;Psychology & Counseling;Health, Fitness & Dieting;Psychotherapy, ","0881634204,9780881634204"
30239848,Individual Psychological Therapies in Forensic Settings: Research and Practice,,,,"Jason Davies, Claire Nagi",2017,1,Routledge,,290,291,English,198,,0,"1138955728,9781138955721",,,,,,,,,,,0,,,,,,,1,7909104,pdf,84624d62d000b928f583ad44b905d9e8,,,Binder81.pdf,0,2000-01-01 01:00:00,2017-06-16 11:22:06,https://images-na.ssl-images-amazon.com/images/I/51%2BzgVjQG-L.jpg,"Forensic Psychology;Psychology & Counseling;Health, Fitness & Dieting;Forensic Psychology;Psychology;Criminology;Social Sciences;Politics & Social Sciences;Criminology;Social Sciences;New, Used & Rental Textbooks;Specialty Boutique;Psychology;Clinical Psychology;Cognitive Psychology;Developmental Psychology;Neuropsychology;Psychopathology;Psychotherapy;Social Sciences;New, Used & Rental Textbooks;Specialty Boutique","1138955728,9781138955721"
30239849,CBT Strategies for Anxious and Depressed Children and Adolescents: A Clinician’s Toolkit,,,,"Eduardo L. Bunge PhD, Javier Mandil, Andrés J. Consoli PhD, Martín Gomar Lic., Bruce F. Chorpita PhD",2017,1,The Guilford Press,,326,346,English,198,,0,"1462528996,9781462528998",,,,,,,,,,,0,,,,,,,1,61139948,pdf,05b0ce2257b5fc3b155d1084985790a7,,,BUNGE - CBT Strategies for Anxious and Depressed Children and Adolescents. A Clinicians Toolkit ().pdf,0,2000-01-01 01:00:00,2017-06-16 11:25:13,https://images-na.ssl-images-amazon.com/images/I/51KavRuBj7L.jpg,"Depression;Mental Health;Health, Fitness & Dieting;Behavioral Sciences;Anthropology;Behavioral Psychology;Cognitive Psychology;Science & Math;Child;Psychiatry;Internal Medicine;Medicine;Child Psychology;Psychology;Cognitive Behavioral Therapy;Movements;Psychology;Social Work;Social Sciences;Politics & Social Sciences;Psychiatry;Clinical;Medicine;Medicine & Health Sciences;New, Used & Rental Textbooks;Specialty Boutique;Psychotherapy;Psychology;Social Sciences;New, Used & Rental Textbooks;Special","1462528996,9781462528998"
30239850,"Reader in Marxist Philosophy: From the Writings of Marx, Engels and Lenin (searchable pdf)",,,,Howard Selsam and Harry Martel,2010,,Rahul Foundation,,190,190,English,195,,0,978-93-80303-37-6,,,,,,,,,,Searchable pdf,0,,,1,,1,,1,6640603,pdf,9028a199544e463870d13795e4971f62,,,"Reader in Marxist Philosophy From the Writings of Marx, Engels, and Lenin_searchable copy.pdf",0,2000-01-01 01:00:00,2017-06-16 11:26:38,1693000/9028a199544e463870d13795e4971f62-g.jpg,,9789380303376
30239851,"100 Cases in Psychiatry, Second Edition",,978-1498747745,,"Barry Wright , Subodh Dave , Nisha Dogra",2017,,"CRC Press; 2 edition (March 31, 2017)",,295,295,English,147,,0,,,,,,,,,,,,0,,,,,,,1,2379091,pdf,343ea86baedd58bbe7684f9e1000d231,,,100 Cases in Psychiatry 2nd-Ed-2017.pdf,0,2000-01-01 01:00:00,2017-06-16 11:27:10,1693000/343ea86baedd58bbe7684f9e1000d231-g.jpg,,
30239852,Античное наследие в культуре Возрождения,,,,Брагина Л.М. (отв. ред.),1984,,Наука,М.,303,303,Russian,191,,0,,,,,,,,,,,,0,,,,,,,1,71309717,pdf,d9424de68cf39ab7c40b587a71d4305c,,,Брагина Л.М. (отв. ред.) - Античное наследие в культуре Возрождения - 1984.pdf,0,2000-01-01 01:00:00,2017-06-16 11:27:39,,,
30239853,The first signs : my quest to unlock the mysteries of the world’s oldest symbols,,,,"Von Petzinger, Genevieve",2016,First Atria books hardcover edition.,Atria Books,New York,0,0,English,,,0,"9781476785516,1476785511",,,,,,,,,,,0,,,,,,,,15706992,epub,a379fa78e8ff67cd3740f0925cf3f78c,,,147678549X.epub,0,2000-01-01 01:00:00,2017-06-16 11:27:40,1693000/a379fa78e8ff67cd3740f0925cf3f78c-d.jpg,"Paleolithic period -- Europe;Glacial epoch -- Europe;Signs and symbols -- Europe -- History;Symbolism in art -- History;Geometry in art -- History;Art, Prehistoric -- Europe;Rock paintings -- Europe;Von Petzinger, Genevieve -- Travel -- Europe;Europe -- Antiquities;Social archaeology -- Europe;SOCIAL SCIENCE -- Anthropology -- Cultural;HISTORY -- Civilization;ART -- History -- Prehistoric & Primitive","9781476785516,1476785511"
30239854,Meios e finais - Conversas em Princeton,,,,Ricardo Piglia & Fermín Rodríguez & Paul Firbas & Pedro Meira Monteiro,2017,,e-galáxia,,0,0,Portuguese,,,0,,,,,,,,,,,,0,,,,,,,,291391,epub,d465a8327e8840e860fdfef721f0dbc6,,,"PIGLIA, Ricardo - Meios ef finais - Conversas em Princenton (retail).epub",0,2000-01-01 01:00:00,2017-06-16 11:28:38,1693000/d465a8327e8840e860fdfef721f0dbc6-g.jpg,,
30239855,Meios e finais - Conversas em Princeton,,ensaios,,"Ricardo Piglia, Paul Firbas (ed.)",2017,,e-galáxia,,0,0,Portuguese,,,0,,,,,,,,,,,,0,,,,,,,,291391,epub,d465a8327e8840e860fdfef721f0dbc6,,,"PIGLIA, Ricardo - Meios ef finais - Conversas em Princenton (retail).epub",0,2000-01-01 01:00:00,2017-06-16 11:30:22,1693000/d465a8327e8840e860fdfef721f0dbc6-g.jpg,,
30239856,О театре,,В мире прекрасного,,Белинский В.Г.,1982,,Детская литература,М.,98,98,Russian,57,,0,,,,,,,,,,,,0,,,,,,,1,4088168,djvu,6930f2557538e82ec04b5e5a53f4f49f,,,Белинский В.Г. - О театре (В мире прекрасного) - 1982.djvu,0,2000-01-01 01:00:00,2017-06-16 11:30:34,,,
30239857,"Emotional and Behavioral Problems of Young Children, Second Edition: Effective Interventions in the Preschool and Kindergarten Years",,The Guilford Practical Intervention in the Schools Series,,"Melissa L. Holland PhD, Jessica Malmberg PhD, Gretchen Gimpel Peacock PhD",2017,2,The Guilford Press,,256,258,English,198,,0,"1462529348,9781462529346",,,,,,,,,,,0,,,,,,,1,3508505,pdf,3b02774d32f85eeaee6679b63f85fcc6,,,Binder5.pdf,0,2000-01-01 01:00:00,2017-06-16 11:31:03,1693000/3b02774d32f85eeaee6679b63f85fcc6-d.jpg,"Behavioral Sciences;Anthropology;Behavioral Psychology;Cognitive Psychology;Science & Math;Pediatrics;Emergencies;Perinatology & Neonatology;Internal Medicine;Medicine;Child Psychology;Psychology;Social Work;Social Sciences;Politics & Social Sciences;Early Childhood Education;Schools & Teaching;Education & Teaching;Behavioral Disorders;Special Education;Schools & Teaching;Education & Teaching;Special Education;Education;New, Used & Rental Textbooks;Specialty Boutique;Pediatrics;Clinical;Medicine","1462529348,9781462529346"
30239858,Datorsystem : övningshäfte,,,,Institutionen för data- och systemvetenskap,2012,,Stockholms universitet,Stockholm,45,45,Swedish,69,,0,,,,,,,,,,,,0,,,,,,,1,519256,pdf,b4d5ff48637949ab653e3958069a4e1a,,,DA_exercises.pdf,0,2000-01-01 01:00:00,2017-06-16 11:31:48,,,
30239859,Optimizing Non-Ground Answer Set Programs via Rule Decomposition,,,,Manuel Bichler,2015,,TU Wien,,33,33,english,,,0,,,,,,,,,,,,0,,,,,,,1,553960,pdf,f835226a34012510db1adb832a4f4cee,,,Optimizing Non-Ground Answer Set Programs via Rule Decomposition 2015.pdf,0,2000-01-01 01:00:00,2017-06-16 11:32:12,,,
30239860,Datorsystem : övningshäfte,,,,Institutionen för data- och systemvetenskap,2012,,Stockholms universitet,Stockholm,45,45,Swedish,69,,0,,,,,,,,,,,,0,,,,,,,1,519256,pdf,b4d5ff48637949ab653e3958069a4e1a,,,DA_exercises.pdf,0,2000-01-01 01:00:00,2017-06-16 11:32:15,1693000/b4d5ff48637949ab653e3958069a4e1a-g.jpg,,
30239861,100 Cases in Psychiatry,,,,"Barry Wright, Subodh Dave, Nisha Dogra",2017,2,CRC Press,,295,295,English,147,,0,978-1498747745,,,,,,,,,,,0,,,,,,,1,2379091,pdf,343ea86baedd58bbe7684f9e1000d231,,,100 Cases in Psychiatry 2nd-Ed-2017.pdf,0,2000-01-01 01:00:00,2017-06-16 11:32:35,1693000/343ea86baedd58bbe7684f9e1000d231-g.jpg,,9781498747745
30239862,Элементы средневековой культуры,,,,Бицилли П.М.,1995,,Мифрил,СПб,264,264,Russian,191,,0,5-86457-010-9,,,,,,,,,,,0,,,,,,,0,5410008,djvu,f053d00d74eb9ef64f56cc380533e47a,,,Бицилли П.М. - Элементы средневековой культуры - 1995.djvu,0,2000-01-01 01:00:00,2017-06-16 11:34:38,,,5864570109
30239863,В человеческом жительстве мнози образы зрятся. Образ человека в культуре Древней Руси.,,,,Чумакова Т.В.,2001,,Санкт-Петербургское философское общество,СПб.,246,246,Russian,191,,0,5-93597-035-8,,,,,,,,,,,0,,,,,,,1,12923686,pdf,c265ba1b537e06d6496fb6465b4c879c,,,Чумакова Т.В. - «В человеческом жительстве мнози образы зрятся» - 2001.pdf,0,2000-01-01 01:00:00,2017-06-16 11:38:36,,,5935970358
30239864,Искусство Японии,,Искусство стран и народов мира,,Виноградова Н.А.,1985,,Изобразительное искусство,М.,244,244,Russian,57,,0,,,,,,,,,,,,0,,,,,,,1,63011962,djvu,bcd38bff5b2480f4e2575b565b3a6607,,,Виноградова Н.А. - Искусство Японии (Иск-во стран и народов мира) - 1985.djvu,0,2000-01-01 01:00:00,2017-06-16 11:44:45,,,
30239865,Искусство стран Дальнего Востока,,Малая история искусств,,"Виноградова Н.А., Николаева Н.С.",1979,,Искусство,М.,377,377,Russian,57,,0,,,,,,,,,,,,0,,,,,,,1,16602281,djvu,5b595a26a14bbeb6de4bd3ea09825197,,,"Виноградова Н.А., Николаева Н.С. - Искусство стран Дальнего Востока (Малая история искусств) - 1979.djvu",0,2000-01-01 01:00:00,2017-06-16 11:47:42,,,
30239866,Кустодиев,,Галерея гениев,,Громова Е.В.,2010,,ОЛМА-ПРЕСС,М.,131,131,Russian,59,,0,978-5-373-01184-6,,,,,,,,,,,0,,,,,,1,1,40482741,djvu,ffe8d0d0fadb0acea21f08293eb3b922,,,Громова Е.В. - Кустодиев (Галерея гениев) - 2010.djvu,0,2000-01-01 01:00:00,2017-06-16 11:55:10,,,9785373011846
30239867,Васнецов,,Галерея гениев,,Ефремова Л.А.,2010,,ОЛМА-ПРЕСС,М.,131,131,Russian,59,,0,978-5-373-02386-3,,,,,,,,,,,0,,,,,,1,1,58853841,djvu,ac77d1d8ba7ac489cf76009c163c7ac4,,,Ефремова Л.А. - Васнецов (Галерея гениев) - 2010.djvu,0,2000-01-01 01:00:00,2017-06-16 11:57:28,,,9785373023863
30239868,Брюллов,,Галерея гениев,,Пикулева Г.И.,2005,,ОЛМА-ПРЕСС,М.,130,130,Russian,59,,0,5-94849-594-9,,,,,,,,,,,0,,,,,,1,1,20407889,djvu,4504489fe20026cbd3d141229241eb25,,,Пикулева Г.И. - Брюллов (Галерея гениев) - 2005.djvu,0,2000-01-01 01:00:00,2017-06-16 11:59:22,,,5948495949
30239869,CBT Strategies for Anxious and Depressed Children and Adolescents: A Clinician’s Toolkit,,,,"Eduardo L. Bunge PhD, Javier Mandil, Andrés J. Consoli PhD, Martín Gomar Lic., Bruce F. Chorpita PhD",2017,1,The Guilford Press,,326,346,English,198,,0,"1462528996,9781462528998",,,,,,,,,,,0,,,,,,,1,61139948,pdf,05b0ce2257b5fc3b155d1084985790a7,,,BUNGE - CBT Strategies for Anxious and Depressed Children and Adolescents. A Clinicians Toolkit ().pdf,0,2000-01-01 01:00:00,2017-06-16 12:02:41,1693000/05b0ce2257b5fc3b155d1084985790a7-d.jpg,"Depression;Mental Health;Health, Fitness & Dieting;Behavioral Sciences;Anthropology;Behavioral Psychology;Cognitive Psychology;Science & Math;Child;Psychiatry;Internal Medicine;Medicine;Child Psychology;Psychology;Cognitive Behavioral Therapy;Movements;Psychology;Social Work;Social Sciences;Politics & Social Sciences;Psychiatry;Clinical;Medicine;Medicine & Health Sciences;New, Used & Rental Textbooks;Specialty Boutique;Psychotherapy;Psychology;Social Sciences;New, Used & Rental Textbooks;Special","1462528996,9781462528998"
30239870,Исторические и литературные источники романов о Гарри Поттере,,Теория и ис­тория культуры,,Галинская И.Л.,2007,,РАН. ИНИОН.,М.,98,98,Russian,108,,0,,,,,83.3,,,,,,,0,,,,,,,1,8884460,pdf,4ada9ba2fd6b271fcb75869fd6b7d670,,,"Галинская И.Л. - Исторические и литературные источники романов о Гарри Поттере(М,2007).pdf",0,2000-01-01 01:00:00,2017-06-16 12:02:54,,,
30239871,Datorsystem : övningshäfte,,,,Institutionen för data- och systemvetenskap,2012,,Stockholms universitet,Stockholm,45,45,Swedish,69,,0,,,,,,,,,,,,0,,,,,,,1,519256,pdf,b4d5ff48637949ab653e3958069a4e1a,,,DA_exercises.pdf,0,2000-01-01 01:00:00,2017-06-16 12:02:59,1693000/b4d5ff48637949ab653e3958069a4e1a-g.jpg,,
30239872,Театрал,,,,Греч Н.И.,1853,,Типография Н. Греча,,,162,Russian,,,,-,,,,,,,,,,,0,,,,,,0,1,37959134,pdf,25c2fd4d768b164089e605624a96fb6a,,,Греч Н.И.;Театрал;;;Типография Н. Греча;1853;-;;Russian,0,2000-01-01 01:00:00,2017-06-16 12:07:37,1573000/25c2fd4d768b164089e605624a96fb6a-g.jpg,,
30239873,Иллюстрированный практический путеводитель по Одессе,,,,Москвич Г.Г.,1904,,Типография Л. Нитче (Одесса),,,193,Russian,,,,-,,,,,,,,,,,0,,,,,,0,1,114294202,pdf,6056c19c1332a4c10e4a7a718155860f,,,Москвич Г.Г.;Иллюстрированный практический путеводитель по Одессе;;;Типография Л. Нитче (Одесса);1904;-;;Russian,0,2000-01-01 01:00:00,2017-06-16 12:07:37,1577000/6056c19c1332a4c10e4a7a718155860f-g.jpg,,
30239874,«Отчизну сердцем защитили»  Стихи поэтов Тейковского района,,,,,2011,,"ОАО «Издательство «Иваново»,",,,64,Russian,,,,-,,,,,,,,,,,0,,,,,,0,1,2010197,pdf,ca229279281b8a331bc80b0e6cfa53f2,,,";«Отчизну сердцем защитили»  Стихи поэтов Тейковского района;;;ОАО «Издательство «Иваново»,;2011;-;;Russian",0,2000-01-01 01:00:00,2017-06-16 12:07:37,1585000/ca229279281b8a331bc80b0e6cfa53f2-g.jpg,,
30239875,Recettes Angéliques. Le bœuf: Le goût d’être ensemble,,,,(Collective),2012,,INTERBEV,,0,32,French,,,0,-,,,,,,,,,,,0,,,,,,0,1,3164060,pdf,be017384eb788f84803d6cf2728a3a68,,,;Recettes Angliques. Le boeuf Le got d’tre ensemble;;;INTERBEV;2012;-;;French,0,2000-01-01 01:00:00,2017-06-16 12:07:37,1585000/be017384eb788f84803d6cf2728a3a68-g.jpg,,
30239876,A World Of Animals Vol. 2,,Painting- Animals,,Ana Bernabe,2002,,Viking folk Art,,,60,English,,,,-,,,,,,,,,,,0,,,,,,0,0,50405079,pdf,857f613ba692b86d043d09c24061c24a,,,Ana Bernabe;A World Of Animals Vol. 2;Painting- Animals;;Viking folk Art;2002;-;;English,0,2000-01-01 01:00:00,2017-06-16 12:07:37,1585000/857f613ba692b86d043d09c24061c24a-g.jpg,,
30239877,A World Of Animals Vol. 3,,Painting- Animals,,Ana Bernabe,2003,,Viking folk Art,,,65,English,,,,-,,,,,,,,,,,0,,,,,,0,0,46544505,pdf,d2dbe9b1e95bf109a85cf033d923f5a2,,,Ana Bernabe;A World Of Animals Vol. 3;Painting- Animals;;Viking folk Art;2003;-;;English,0,2000-01-01 01:00:00,2017-06-16 12:07:37,1585000/d2dbe9b1e95bf109a85cf033d923f5a2-g.jpg,,
30239878,20 Easy DIY Holiday Craft,,,,Collective,2015,,FloraCraft,,0,58,English,,,0,-,,,,,,,,,,,0,,,,,,0,1,19194778,pdf,b5d1f6e32d9acffad14ecfb28dac3ac6,,,"Collective;20 Easy DIY Holiday Craft;;;FloraCraft, Prime Publishing LLC;2015;-;;English",0,2000-01-01 01:00:00,2017-06-16 12:07:37,1585000/b5d1f6e32d9acffad14ecfb28dac3ac6-g.jpg,,
30239879,Описание 3-х линейной винтовки образца 1891 года,,,,,1891,,"Издание Офицерской стрелковой школы, Типография И,Н, Скороходова (СПб",,,16,Russian,,,,-,,,,,,,,,,,0,,,,,,0,1,20685620,pdf,3249fcdc9c40bf854fcfbf1ef55e4d9d,,,";Описание 3-х линейной винтовки образца 1891 года;;;Издание Офицерской стрелковой школы, Типография И,Н, Скороходова (СПб;1891;-;;Russian",0,2000-01-01 01:00:00,2017-06-16 12:07:37,1630000/3249fcdc9c40bf854fcfbf1ef55e4d9d-g.jpg,,
30239880,Третье отделение при Николае I,,,,Троцкий И.М.,1930,,Издательство Всесоюзного общества политкаторжан и ссыльно-поселенцев,,,74,Russian,,,,-,,,,,,,,,,,0,,,,,,0,1,39399144,pdf,e7c5d9cf33dd069059147f4c08996e2b,,,Троцкий И.М.;Третье отделение при Николае I;;;Издательство Всесоюзного общества политкаторжан и ссыльно-поселенцев;1930;-;;Russian,0,2000-01-01 01:00:00,2017-06-16 12:07:37,1630000/e7c5d9cf33dd069059147f4c08996e2b-g.jpg,,
30239881,Занимательные задачи и опыты,,,,Перельман Я.И.,1972,,Детская литература,,,472,Russian,,,,-,,,,,,,,,,,0,,,,,,0,1,167718439,pdf,0fc1642694a8224f1a8df67f677f4c26,,,Перельман Я.И.;Занимательные задачи и опыты;;;Детская литература;1972;-;;Russian,0,2000-01-01 01:00:00,2017-06-16 12:07:37,1630000/0fc1642694a8224f1a8df67f677f4c26-g.jpg,,
30239882,Сад и огород в доме,,,,Попов Е.Б.,1985,,Детская литература,,,120,Russian,,,,-,,,,,,,,,,,0,,,,,,0,1,48066991,pdf,fe06f74051bf5081ef51978cd47a993c,,,Попов Е.Б.;Сад и огород в доме;;;Детская литература;1985;-;;Russian,0,2000-01-01 01:00:00,2017-06-16 12:07:37,1631000/fe06f74051bf5081ef51978cd47a993c-g.jpg,,
30239883,Oceanografie. eseuri,,,,Mircea Eliade,1934,1st edition,Cultura Populara,București,304,304,Romanian,195,,0,-,,,,,,,,,,ocr by epistematic,0,,,,,,,1,17299949,pdf,f5e05a11cfc53acb1e4e292fa66c1bd2,,,Eliade Oceanografie 1934 ocr lipsa.pdf,0,2000-01-01 01:00:00,2017-06-16 12:07:37,1685000/f5e05a11cfc53acb1e4e292fa66c1bd2-g.jpg,,
30239884,Cum ne construim dușmanul: și alte scrieri ocazionale,,,,Umberto Eco,2007,3rd edition,Polirom,Iasi,352,352,Romanian,,,0,-,,,,,,,,,,"ocr by epistematic, scan sdr",300,,,,,,0,1,11499669,pdf,9d2e9c43400588086e983e18322889e4,,,Umberto Eco - Cum ne construim dușmanii ocr.pdf,0,2000-01-01 01:00:00,2017-06-16 12:07:37,1689000/9d2e9c43400588086e983e18322889e4-g.jpg,,
30239885,Малахитовый Зал Зимнего Дворца,,Залы и здания Эрмитажа,,Пашкова Т.Л.,2006,,Эрмитаж,М.,28,28,Russian,58,,0,5-93572-226-7,,,,,,,,,,,0,,,,,,,0,36607912,pdf,f5b80a3c3263f1b42edf9023e2049222,,,Пашкова Т.Л. - Малахитовый Зал Зимнего Дворца(Залы и здания Эрмитажа)  2006.pdf,0,2000-01-01 01:00:00,2017-06-16 12:08:16,,,5935722267
30239886,Картины Государственного Эрмитажа. Нидерландская и испанская живопись,,,,Коллектив авторов,1974,,Изобразительное искусство,М.,17,17,Russian,59,,0,,,,,,,,,,,,0,,,,,,,0,5684919,pdf,772de6666ed090ff5c1a0427c6748afa,,,Картины Государственного Эрмитажа - Нидерландская и испанская живопись - 1974.pdf,0,2000-01-01 01:00:00,2017-06-16 12:13:20,,,
30239887,"Русская античность. Содержание, роль и судьба античного наследия в культуре России",,,,Кнабе Г.С.,2000,,РГГУ,М.,235,235,Russian,191,,0,5-7281-0150-Х,,,,,,,,,,,0,,,,,,,1,3952059,djvu,1fd05f163fd3167d7f6eb99517854ba2,,,Кнабе Г.С. - Русская античность - 2000.djvu,0,2000-01-01 01:00:00,2017-06-16 12:18:16,,,572810150Х
30239888,Off the Grid: Re-Assembling Domestic Life,,Innovative Ethnographies,,"Phillip Vannini, Jonathan Taggart",2014,1,Routledge,,248,249,English,,,0,"0415854326,9780415854320",,,,,,,,,,,0,,,,,,,1,2535142,pdf,a458a2e7d60ce3a8c1eab537c77dba0d,,,"Vannini, Taggart - Off the Grid.pdf",0,2000-01-01 01:00:00,2017-06-16 12:23:40,,"Parenting & Relationships;Adoption;Aging Parents;Babysitting, Day Care & Child Care;Family Activities;Family Health;Family Relationships;Fertility;Humor;Marriage & Adult Relationships;Parenting;Pregnancy & Childbirth;Reference;Special Needs;Sociology;Abuse;Class;Death;Marriage & Family;Medicine;Race Relations;Rural;Social Theory;Urban;Politics & Social Sciences;Sociology;Social Sciences;New, Used & Rental Textbooks;Specialty Boutique","0415854326,9780415854320"
30239889,"С маской, бубном и гудком. Как возник и развивался народный театр",,,,"Кулаковский Л., Кулаковская Н.",1983,,Сов. композитор,М.,84,84,Russian,57,,0,,,,,,,,,,,,0,,,,,,,1,17006506,pdf,8e43e3928760eca8315112a558f52b1b,,,"Кулаковский Л., Кулаковская Н. - С маской, бубном и гудком (Юному любителю музыки) - 1983.pdf",0,2000-01-01 01:00:00,2017-06-16 12:24:40,,,
30239890,Transatlantic Voyages and Sociology: The Migration and Development of Ideas,,Rethinking Classical Sociology,,Cherry Schrecker (Editor),2010,,Ashgate,,320,320,English,,,0,"075467617X,9780754676171",,,,,,,,,,,0,,,,,,,1,12435072,pdf,538bf9dfcb227d17008565852f6559fb,,,Transatlantic Voyages and Sociology.pdf,0,2000-01-01 01:00:00,2017-06-16 12:27:41,,"Historical Study & Educational Resources;Archaeology;Essays;Historical Geography;Historical Maps;Historiography;Reference;Study & Teaching;History;Social Philosophy;Philosophy;Politics & Social Sciences;General;Anthropology;Politics & Social Sciences;Sociology;Abuse;Class;Death;Marriage & Family;Medicine;Race Relations;Rural;Social Theory;Urban;Politics & Social Sciences;History;Africa;Ancient;Asia;Europe;Latin America;Middle East;Military;United States;Humanities;New, Used & Rental Textbooks;Sp","075467617X,9780754676171"
30239891,Культурные связи в эпоху Возрождения,,Культура Возрождения,,Брагина Л.М. (отв. ред.),2010,,Наука,М.,239,239,Russian,191,,0,978-5-02-037370-9,,,,,,,,,,,0,,,,,,,1,43433002,pdf,cf820edb1dff8a2c0ebd35bb59264e15,,,Брагина Л.М. (отв. ред.) - Культурные связи в эпоху Возрождения (Культура Возрождения) - 2010.pdf,0,2000-01-01 01:00:00,2017-06-16 12:28:58,,,9785020373709
30239892,Princípios de Genética de Populações,,,,"HARTL, Daniel L.; CLARK, Andrew G.",2010,4ª,Artmed,Porto Alegre,659,659,Portuguese,22,,0,,,,,,,,,,,,0,,,,,,,0,209616231,pdf,89a67d9c0127294a957717a065748b2e,,,"Princípios de Genética de Populações - HARTL, Daniel L.; CLARK, Andrew G..pdf",0,2000-01-01 01:00:00,2017-06-16 12:30:26,,rincípios Genética Populações HARTL CLARK,
30239893,"National Matters: Materiality, Culture and Nationalism",,,,Geneviève Zubrzycki (Editor),2017,,Stanford University Press,,0,288,English,,,0,"9781503602762,9781503602533",,,,,,,,,,,0,,,,,,,1,11734298,pdf,b2f532bad002da27cff90be066c7218a,,,National Matters.pdf,0,2000-01-01 01:00:00,2017-06-16 12:32:14,,Nationalism;Material culture -- Political aspects;Politics and culture;Material culture - Political aspects;POLITICAL SCIENCE / Essays;POLITICAL SCIENCE / Government / General;POLITICAL SCIENCE / Government / National;POLITICAL SCIENCE / Reference,"9781503602762,9781503602533"
30239894,Интеллектуалы в средние века,,,,Ле Гофф Ж.,2003,,СПбГУ,СПб.,160,160,Russian,191,,0,978528803346,,,,,,,,,,,0,,,,,,,1,77101458,pdf,599a19444b781b8d6cea5d19cc15526a,,,Ле Гофф Ж. Интеллектуалы в средние века - 2003.pdf,0,2000-01-01 01:00:00,2017-06-16 12:35:15,,,978528803346
30239895,Иван Шишкин,,Малая серия искусств,,Мамонтова Н.Н.,2010,,Арт-родник,М.,101,101,Russian,59,,0,978-5- 404-00135-8,,,,,,,,,,,0,,,,,,,1,46539594,pdf,e7890066fdfa37bb11b54a7b2678e8ed,,,Мамонтова Н.Н. - Иван Шишкин (Малая серия искусств) - 2010_1.pdf,0,2000-01-01 01:00:00,2017-06-16 12:40:13,,,9785404001358
30239896,The Enigma of Reason,,,,"Hugo Mercier, Dan Sperber",2017,,Harvard University Press,,408,405,English,,,0,"0674368304,9780674368309",,,,,,,,,,,0,,,,,,,1,2557339,pdf,0bda118ddeca966548c225bb43805a4c,,,"Hugo Mercier, Dan Sperber-The Enigma of Reason-Harvard University Press (2017)-output.pdf",0,2000-01-01 01:00:00,2017-06-16 12:41:50,https://images-na.ssl-images-amazon.com/images/I/51OXzz7juPL.jpg,"Evolutionary Psychology;Psychology & Counseling;Health, Fitness & Dieting;Cognitive Psychology;Behavioral Sciences;Science & Math;Cognitive;Psychology;Epistemology;Philosophy;Politics & Social Sciences;Humanism;Movements;Philosophy;Politics & Social Sciences","0674368304,9780674368309"
30239897,Argumentation: Analysis and Evaluation,,Routledge Communication Series,,"Frans H. van Eemeren, A. Francisca Sn Henkemans",2016,2,Routledge,,184,184,English,,,0,"113822507X,9781138225077",,,,,,,,,,,0,,,,,,,1,11420460,pdf,27e69bfc656c29c4aa239db81ef296df,,,"(Routledge Communication Series) Frans H. van Eemeren, A. Francisca Sn Henkemans-Argumentation_ Analysis and Evaluation-Routledge (2016)-output.pdf",0,2000-01-01 01:00:00,2017-06-16 12:44:48,https://images-na.ssl-images-amazon.com/images/I/31L13n2j4JL.jpg,"Communication;Words, Language & Grammar;Reference;Logic & Language;Philosophy;Politics & Social Sciences;Communication & Media Studies;Social Sciences;Politics & Social Sciences;Logic;Philosophy;Humanities;New, Used & Rental Textbooks;Specialty Boutique;Social Sciences;Anthropology;Archaeology;Criminology;Gay & Lesbian Studies;Gender Studies;Geography;Military Sciences;Political Science;Psychology;Sociology;New, Used & Rental Textbooks;Specialty Boutique;Communications;Communication & Journalism","113822507X,9781138225077"
30239898,Медное художественное литье ХН-ХХ вв. в собрании Национального художественного музея Республики Беларусь. Каталог,,,,В.И. Прокопцов (сост.),2006,,Национальный художественный музей Республики Беларусь,,91,91,Russian,57,,0,985-459-084-4,,,,,,,,,,,0,,,,,,,1,47475471,pdf,b3f975b2b54680c9cdb9474a1d71ceec,,,Untitled.FR12.pdf,0,2000-01-01 01:00:00,2017-06-16 12:44:57,,,9854590844
30239899,Genética - um enfoque conceitual - Pierce,,,,Benjamin A Pierce,2016,5ª,Guanabara Koogan,Rio de Janeiro,1206,1206,Portuguese,22,,0,,,,,,,,,,,,0,,,,,,,1,50382759,pdf,cabf9ac6a86c85e4717a7f094f592df6,,,Genética - um enfoque conceitual - Pierce - 5 ed. (2016) - Pt.pdf,0,2000-01-01 01:00:00,2017-06-16 12:47:06,,Genética enfoque conceitual Pierce,
30239900,A Savage War: A Military History of the Civil War,,,,"Williamson Murray, Wayne Wei-siang Hsieh",2016,1st Edition,Princeton University Press,,616,617,English,,,0,"0691169403,9780691169408",,,,,,,,,,,0,,,,,,,1,5918534,pdf,7ebe1457f752cc5008428298a55474d2,,,A Savage War. A Military History of the Civil War.pdf,0,2000-01-01 01:00:00,2017-06-16 12:50:32,https://images-na.ssl-images-amazon.com/images/I/51WZCsJzg2L.jpg,Campaigns & Battlefields;Antietam;Appomattox;Bull Run;Fredericksburg;Gettysburg;Civil War;United States;Americas;History;United States;Civil War;Operation Desert Storm;Veterans;Vietnam War;Military;History;World;Civilization & Culture;Expeditions & Discoveries;Jewish;Maritime History & Piracy;Religious;Slavery & Emancipation;Women in History;History,"0691169403,9780691169408"
30239901,Exploring the Dynamics of Human Development: An Integrative Approach,,,,Catherine Raeff,2016,1,Oxford University Press,,288,289,English,,,0,"0199328412,9780199328413",,,,,,,,,,,0,,,,,,,1,20671424,pdf,84025cc8aa306d311f1994cc6d5ae203,,,Raeff - Exploring the Dynamics of Human Development - An Integrative Approach (2016)-output.pdf,0,2000-01-01 01:00:00,2017-06-16 12:51:52,https://images-na.ssl-images-amazon.com/images/I/51-kQ1gFMhL.jpg,"Child Psychology;Psychology & Counseling;Health, Fitness & Dieting;Social Psychology & Interactions;Psychology & Counseling;Health, Fitness & Dieting;Cognitive Psychology;Behavioral Sciences;Science & Math;Cognitive;Psychology;Child Psychology;Psychology;Social Psychology & Interactions;Psychology;Developmental Psychology;Psychology;Social Sciences;New, Used & Rental Textbooks;Specialty Boutique;Cognitive Psychology;Psychology;Social Sciences;New, Used & Rental Textbooks;Specialty Boutique","0199328412,9780199328413"
30239902,The Man Who Could Fly: St. Joseph of Copertino and the Mystery of Levitation,,,,Michael Grosso,2015,,Rowman & Littlefield Publishers,,264,264,English,,,0,"1442256729,9781442256729",,,,,,,,,,,0,,,,,,,1,4208074,pdf,199e5cee7f979b0ba0b0bebc807a2583,,,The Man Who Could Fly. St. Joseph of Copertino and the Mystery of Levitation.pdf,0,2000-01-01 01:00:00,2017-06-16 12:52:05,https://images-na.ssl-images-amazon.com/images/I/51AckTPLMJL.jpg,Saints;Catholicism;Biographies & Memoirs;Arts & Literature;Ethnic & National;Historical;Leaders & Notable People;Memoirs;Professionals & Academics;Reference & Collections;Regional Canada;Regional U.S.;Specific Groups;Sports & Outdoors;Travelers & Explorers;True Crime;Parapsychology;ESP;Near-Death Experiences;Out-of-Body Experiences;Occult & Paranormal;Religion & Spirituality;Cognitive Neuroscience & Neuropsychology;Psychology;Consciousness & Thought;Philosophy;Politics & Social Sciences;Metaphys,"1442256729,9781442256729"
30239903,"Perceived Control: Theory, Research, and Practice in the First 50 Years",,,,"John W. Reich, Frank J. Infurna",2016,1,Oxford University Press,,368,357,English,,,0,"0190257040,9780190257040",,,,,,,,,,,0,,,,,,,1,11463065,pdf,65186341b2eb48aaff9eb1fbe951cd1a,,,"Reich, Infurna (ed) - Perceived Control - Theory, Research and Practice  in The First 50 Years (2017)-output.pdf",0,2000-01-01 01:00:00,2017-06-16 12:55:20,https://images-na.ssl-images-amazon.com/images/I/41jgOM6%2BZhL.jpg,"Motivational;Self-Help;Social Psychology & Interactions;Psychology & Counseling;Health, Fitness & Dieting;Psychiatry;Clinical;Medicine;Medicine & Health Sciences;New, Used & Rental Textbooks;Specialty Boutique;Psychology;Clinical Psychology;Cognitive Psychology;Developmental Psychology;Neuropsychology;Psychopathology;Psychotherapy;Social Sciences;New, Used & Rental Textbooks;Specialty Boutique","0190257040,9780190257040"
30239904,Jerónimo Antonio Gil and the Idea of the Spanish Enlightenment,,,,Kelly Donahue-Wallace,2017,,University of New Mexico Press,,398,400,English,,,0,"0826357342,9780826357342",,,,,,,,,,,0,,,,,,,1,175403904,pdf,60ada8a255bc5d000718ad82075e44b2,,,Jeronimo Antonio Gil and the Idea of the Spanish Enlightenment.pdf,0,2000-01-01 01:00:00,2017-06-16 13:07:37,https://images-na.ssl-images-amazon.com/images/I/51NbygTl8hL.jpg,Criticism;History & Criticism;Arts & Photography;History;History & Criticism;Arts & Photography;Latin America;Historical;Biographies & Memoirs;Mexico;Americas;History,"0826357342,9780826357342"
30239905,Театрал,,,,Греч Н.И.,1853,,Типография Н. Греча,,,162,Russian,,,,-,,,,,,,,,,,0,,,,,,0,1,37959134,pdf,25c2fd4d768b164089e605624a96fb6a,,,Греч Н.И.;Театрал;;;Типография Н. Греча;1853;-;;Russian,0,2000-01-01 01:00:00,2017-06-16 13:07:37,1573000/25c2fd4d768b164089e605624a96fb6a-g.jpg,,
30239906,Иллюстрированный практический путеводитель по Одессе,,,,Москвич Г.Г.,1904,,Типография Л. Нитче (Одесса),,,193,Russian,,,,-,,,,,,,,,,,0,,,,,,0,1,114294202,pdf,6056c19c1332a4c10e4a7a718155860f,,,Москвич Г.Г.;Иллюстрированный практический путеводитель по Одессе;;;Типография Л. Нитче (Одесса);1904;-;;Russian,0,2000-01-01 01:00:00,2017-06-16 13:07:37,1577000/6056c19c1332a4c10e4a7a718155860f-g.jpg,,
30239907,«Отчизну сердцем защитили»  Стихи поэтов Тейковского района,,,,,2011,,"ОАО «Издательство «Иваново»,",,,64,Russian,,,,-,,,,,,,,,,,0,,,,,,0,1,2010197,pdf,ca229279281b8a331bc80b0e6cfa53f2,,,";«Отчизну сердцем защитили»  Стихи поэтов Тейковского района;;;ОАО «Издательство «Иваново»,;2011;-;;Russian",0,2000-01-01 01:00:00,2017-06-16 13:07:37,1585000/ca229279281b8a331bc80b0e6cfa53f2-g.jpg,,
30239908,Recettes Angéliques. Le bœuf: Le goût d’être ensemble,,,,(Collective),2012,,INTERBEV,,0,32,French,,,0,-,,,,,,,,,,,0,,,,,,0,1,3164060,pdf,be017384eb788f84803d6cf2728a3a68,,,;Recettes Angliques. Le boeuf Le got d’tre ensemble;;;INTERBEV;2012;-;;French,0,2000-01-01 01:00:00,2017-06-16 13:07:37,1585000/be017384eb788f84803d6cf2728a3a68-g.jpg,,
30239909,A World Of Animals Vol. 2,,Painting- Animals,,Ana Bernabe,2002,,Viking folk Art,,,60,English,,,,-,,,,,,,,,,,0,,,,,,0,0,50405079,pdf,857f613ba692b86d043d09c24061c24a,,,Ana Bernabe;A World Of Animals Vol. 2;Painting- Animals;;Viking folk Art;2002;-;;English,0,2000-01-01 01:00:00,2017-06-16 13:07:37,1585000/857f613ba692b86d043d09c24061c24a-g.jpg,,
30239910,A World Of Animals Vol. 3,,Painting- Animals,,Ana Bernabe,2003,,Viking folk Art,,,65,English,,,,-,,,,,,,,,,,0,,,,,,0,0,46544505,pdf,d2dbe9b1e95bf109a85cf033d923f5a2,,,Ana Bernabe;A World Of Animals Vol. 3;Painting- Animals;;Viking folk Art;2003;-;;English,0,2000-01-01 01:00:00,2017-06-16 13:07:37,1585000/d2dbe9b1e95bf109a85cf033d923f5a2-g.jpg,,
30239911,20 Easy DIY Holiday Craft,,,,Collective,2015,,FloraCraft,,0,58,English,,,0,-,,,,,,,,,,,0,,,,,,0,1,19194778,pdf,b5d1f6e32d9acffad14ecfb28dac3ac6,,,"Collective;20 Easy DIY Holiday Craft;;;FloraCraft, Prime Publishing LLC;2015;-;;English",0,2000-01-01 01:00:00,2017-06-16 13:07:37,1585000/b5d1f6e32d9acffad14ecfb28dac3ac6-g.jpg,,
30239912,Описание 3-х линейной винтовки образца 1891 года,,,,,1891,,"Издание Офицерской стрелковой школы, Типография И,Н, Скороходова (СПб",,,16,Russian,,,,-,,,,,,,,,,,0,,,,,,0,1,20685620,pdf,3249fcdc9c40bf854fcfbf1ef55e4d9d,,,";Описание 3-х линейной винтовки образца 1891 года;;;Издание Офицерской стрелковой школы, Типография И,Н, Скороходова (СПб;1891;-;;Russian",0,2000-01-01 01:00:00,2017-06-16 13:07:37,1630000/3249fcdc9c40bf854fcfbf1ef55e4d9d-g.jpg,,
30239913,Третье отделение при Николае I,,,,Троцкий И.М.,1930,,Издательство Всесоюзного общества политкаторжан и ссыльно-поселенцев,,,74,Russian,,,,-,,,,,,,,,,,0,,,,,,0,1,39399144,pdf,e7c5d9cf33dd069059147f4c08996e2b,,,Троцкий И.М.;Третье отделение при Николае I;;;Издательство Всесоюзного общества политкаторжан и ссыльно-поселенцев;1930;-;;Russian,0,2000-01-01 01:00:00,2017-06-16 13:07:37,1630000/e7c5d9cf33dd069059147f4c08996e2b-g.jpg,,
30239914,Занимательные задачи и опыты,,,,Перельман Я.И.,1972,,Детская литература,,,472,Russian,,,,-,,,,,,,,,,,0,,,,,,0,1,167718439,pdf,0fc1642694a8224f1a8df67f677f4c26,,,Перельман Я.И.;Занимательные задачи и опыты;;;Детская литература;1972;-;;Russian,0,2000-01-01 01:00:00,2017-06-16 13:07:37,1630000/0fc1642694a8224f1a8df67f677f4c26-g.jpg,,
30239915,Сад и огород в доме,,,,Попов Е.Б.,1985,,Детская литература,,,120,Russian,,,,-,,,,,,,,,,,0,,,,,,0,1,48066991,pdf,fe06f74051bf5081ef51978cd47a993c,,,Попов Е.Б.;Сад и огород в доме;;;Детская литература;1985;-;;Russian,0,2000-01-01 01:00:00,2017-06-16 13:07:37,1631000/fe06f74051bf5081ef51978cd47a993c-g.jpg,,
30239916,Oceanografie. eseuri,,,,Mircea Eliade,1934,1st edition,Cultura Populara,București,304,304,Romanian,195,,0,-,,,,,,,,,,ocr by epistematic,0,,,,,,,1,17299949,pdf,f5e05a11cfc53acb1e4e292fa66c1bd2,,,Eliade Oceanografie 1934 ocr lipsa.pdf,0,2000-01-01 01:00:00,2017-06-16 13:07:37,1685000/f5e05a11cfc53acb1e4e292fa66c1bd2-g.jpg,,
30239917,Cum ne construim dușmanul: și alte scrieri ocazionale,,,,Umberto Eco,2007,3rd edition,Polirom,Iasi,352,352,Romanian,,,0,-,,,,,,,,,,"ocr by epistematic, scan sdr",300,,,,,,0,1,11499669,pdf,9d2e9c43400588086e983e18322889e4,,,Umberto Eco - Cum ne construim dușmanii ocr.pdf,0,2000-01-01 01:00:00,2017-06-16 13:07:37,1689000/9d2e9c43400588086e983e18322889e4-g.jpg,,
30239918,"Gender and the Quest in British Science Fiction Television: An Analysis of Doctor Who, Blake’s 7, Red Dwarf and Torchwood",,Critical Explorations in Science Fiction and Fantasy,,Tom Powers,2016,,McFarland,,284,285,English,,,0,"1476665524,9781476665528",,,,,,,,,,,0,,,,,,,1,1790793,pdf,027fd6e57c3923926ffde66e304ac21f,,,"Gender and the Quest in British Science Fiction Television. An Analysis of Doctor Who, Blake__039;s 7, Red Dwarf and Torchwood.pdf",0,2000-01-01 01:00:00,2017-06-16 13:09:22,https://images-na.ssl-images-amazon.com/images/I/51JtqHemN%2BL.jpg,"Performing Arts;Dance;Individual Directors;Magic & Illusion;Reference;Theater;Arts & Photography;History & Criticism;Television;Humor & Entertainment;Shows;Television;Humor & Entertainment;Great Britain;England;Scotland;Wales;Europe;History;Science Fiction & Fantasy;Fantasy;Gaming;Science Fiction;Writing;General;Gender Studies;Social Sciences;Politics & Social Sciences;Europe;History;Humanities;New, Used & Rental Textbooks;Specialty Boutique;Film & Television;Performing Arts;Humanities;New, Used","1476665524,9781476665528"
30239919,"Reno, Las Vegas, and the Strip: A Tale of Three Cities",,Shepperson Series in Nevada History,,Eugene P. Moehring,2014,1,University of Nevada Press,,296,297,English,,,0,"0874179556,9780874179552",,,,,,,,,,,0,,,,,,,1,2049926,pdf,bcdf2d7a3eb248a115bd10cd71a1a517,,,"Reno, Las Vegas, and the Strip. A Tale of Three Cities.pdf",0,2000-01-01 01:00:00,2017-06-16 13:10:32,https://images-na.ssl-images-amazon.com/images/I/517Clj3cLBL.jpg,State & Local;United States;Americas;History;Urban;Sociology;Politics & Social Sciences,"0874179556,9780874179552"
30239920,Anatole Litvak: The Life and Films,,,,Michelangelo Capua,2015,,McFarland,,220,219,English,,,0,"0786494131,9780786494132",,,,,,,,,,,0,,,,,,,1,43444797,pdf,5acc06fc5c6384368212ceb69a515438,,,Anatole Litvak. The Life and Films.pdf,0,2000-01-01 01:00:00,2017-06-16 13:15:55,https://images-na.ssl-images-amazon.com/images/I/51sExLlN15L.jpg,"Individual Directors;Performing Arts;Arts & Photography;Actors & Entertainers;Arts & Literature;Biographies & Memoirs;Movie Directors;Arts & Literature;Biographies & Memoirs;Television Performers;Arts & Literature;Biographies & Memoirs;Biographies;Actors & Actresses;Directors;Movies;Humor & Entertainment;Film & Television;Performing Arts;Humanities;New, Used & Rental Textbooks;Specialty Boutique","0786494131,9780786494132"
30239921,Forbidden Fashions: Invisible Luxuries in Early Venetian Convents,,Costume Society of America Series,,Isabella Campagnol,2014,1,Texas Tech University Press,,160,243,English,,,0,"0896728293,9780896728295",,,,,,,,,,,0,,,,,,,1,31888857,pdf,e93ffa20e5a5c160fff883d42a143da0,,,Forbidden Fashions. Invisible Luxuries in Early Venetian Convents.pdf,0,2000-01-01 01:00:00,2017-06-16 13:22:00,https://images-na.ssl-images-amazon.com/images/I/51ClDFCy3FL.jpg,History;Fashion;Arts & Photography;Textile & Costume;Decorative Arts & Design;Arts & Photography;Fashion Design;Commercial;Graphic Design;Arts & Photography;Italy;Europe;History;Women’s Studies;Abortion & Birth Control;Feminist Theory;History;Motherhood;Women Writers;Politics & Social Sciences,"0896728293,9780896728295"
30239922,Театрал,,,,Греч Н.И.,1853,,Типография Н. Греча,,,162,Russian,,,,-,,,,,,,,,,,0,,,,,,0,1,37959134,pdf,25c2fd4d768b164089e605624a96fb6a,,,Греч Н.И.;Театрал;;;Типография Н. Греча;1853;-;;Russian,0,2000-01-01 01:00:00,2017-06-16 14:07:38,1573000/25c2fd4d768b164089e605624a96fb6a-g.jpg,,
30239923,Иллюстрированный практический путеводитель по Одессе,,,,Москвич Г.Г.,1904,,Типография Л. Нитче (Одесса),,,193,Russian,,,,-,,,,,,,,,,,0,,,,,,0,1,114294202,pdf,6056c19c1332a4c10e4a7a718155860f,,,Москвич Г.Г.;Иллюстрированный практический путеводитель по Одессе;;;Типография Л. Нитче (Одесса);1904;-;;Russian,0,2000-01-01 01:00:00,2017-06-16 14:07:38,1577000/6056c19c1332a4c10e4a7a718155860f-g.jpg,,
30239924,«Отчизну сердцем защитили»  Стихи поэтов Тейковского района,,,,,2011,,"ОАО «Издательство «Иваново»,",,,64,Russian,,,,-,,,,,,,,,,,0,,,,,,0,1,2010197,pdf,ca229279281b8a331bc80b0e6cfa53f2,,,";«Отчизну сердцем защитили»  Стихи поэтов Тейковского района;;;ОАО «Издательство «Иваново»,;2011;-;;Russian",0,2000-01-01 01:00:00,2017-06-16 14:07:38,1585000/ca229279281b8a331bc80b0e6cfa53f2-g.jpg,,
30239925,Recettes Angéliques. Le bœuf: Le goût d’être ensemble,,,,(Collective),2012,,INTERBEV,,0,32,French,,,0,-,,,,,,,,,,,0,,,,,,0,1,3164060,pdf,be017384eb788f84803d6cf2728a3a68,,,;Recettes Angliques. Le boeuf Le got d’tre ensemble;;;INTERBEV;2012;-;;French,0,2000-01-01 01:00:00,2017-06-16 14:07:38,1585000/be017384eb788f84803d6cf2728a3a68-g.jpg,,
30239926,A World Of Animals Vol. 2,,Painting- Animals,,Ana Bernabe,2002,,Viking folk Art,,,60,English,,,,-,,,,,,,,,,,0,,,,,,0,0,50405079,pdf,857f613ba692b86d043d09c24061c24a,,,Ana Bernabe;A World Of Animals Vol. 2;Painting- Animals;;Viking folk Art;2002;-;;English,0,2000-01-01 01:00:00,2017-06-16 14:07:38,1585000/857f613ba692b86d043d09c24061c24a-g.jpg,,
30239927,A World Of Animals Vol. 3,,Painting- Animals,,Ana Bernabe,2003,,Viking folk Art,,,65,English,,,,-,,,,,,,,,,,0,,,,,,0,0,46544505,pdf,d2dbe9b1e95bf109a85cf033d923f5a2,,,Ana Bernabe;A World Of Animals Vol. 3;Painting- Animals;;Viking folk Art;2003;-;;English,0,2000-01-01 01:00:00,2017-06-16 14:07:38,1585000/d2dbe9b1e95bf109a85cf033d923f5a2-g.jpg,,
30239928,20 Easy DIY Holiday Craft,,,,Collective,2015,,FloraCraft,,0,58,English,,,0,-,,,,,,,,,,,0,,,,,,0,1,19194778,pdf,b5d1f6e32d9acffad14ecfb28dac3ac6,,,"Collective;20 Easy DIY Holiday Craft;;;FloraCraft, Prime Publishing LLC;2015;-;;English",0,2000-01-01 01:00:00,2017-06-16 14:07:38,1585000/b5d1f6e32d9acffad14ecfb28dac3ac6-g.jpg,,
30239929,Описание 3-х линейной винтовки образца 1891 года,,,,,1891,,"Издание Офицерской стрелковой школы, Типография И,Н, Скороходова (СПб",,,16,Russian,,,,-,,,,,,,,,,,0,,,,,,0,1,20685620,pdf,3249fcdc9c40bf854fcfbf1ef55e4d9d,,,";Описание 3-х линейной винтовки образца 1891 года;;;Издание Офицерской стрелковой школы, Типография И,Н, Скороходова (СПб;1891;-;;Russian",0,2000-01-01 01:00:00,2017-06-16 14:07:38,1630000/3249fcdc9c40bf854fcfbf1ef55e4d9d-g.jpg,,
30239930,Третье отделение при Николае I,,,,Троцкий И.М.,1930,,Издательство Всесоюзного общества политкаторжан и ссыльно-поселенцев,,,74,Russian,,,,-,,,,,,,,,,,0,,,,,,0,1,39399144,pdf,e7c5d9cf33dd069059147f4c08996e2b,,,Троцкий И.М.;Третье отделение при Николае I;;;Издательство Всесоюзного общества политкаторжан и ссыльно-поселенцев;1930;-;;Russian,0,2000-01-01 01:00:00,2017-06-16 14:07:38,1630000/e7c5d9cf33dd069059147f4c08996e2b-g.jpg,,
30239931,Занимательные задачи и опыты,,,,Перельман Я.И.,1972,,Детская литература,,,472,Russian,,,,-,,,,,,,,,,,0,,,,,,0,1,167718439,pdf,0fc1642694a8224f1a8df67f677f4c26,,,Перельман Я.И.;Занимательные задачи и опыты;;;Детская литература;1972;-;;Russian,0,2000-01-01 01:00:00,2017-06-16 14:07:38,1630000/0fc1642694a8224f1a8df67f677f4c26-g.jpg,,
30239932,Сад и огород в доме,,,,Попов Е.Б.,1985,,Детская литература,,,120,Russian,,,,-,,,,,,,,,,,0,,,,,,0,1,48066991,pdf,fe06f74051bf5081ef51978cd47a993c,,,Попов Е.Б.;Сад и огород в доме;;;Детская литература;1985;-;;Russian,0,2000-01-01 01:00:00,2017-06-16 14:07:38,1631000/fe06f74051bf5081ef51978cd47a993c-g.jpg,,
30239933,Oceanografie. eseuri,,,,Mircea Eliade,1934,1st edition,Cultura Populara,București,304,304,Romanian,195,,0,-,,,,,,,,,,ocr by epistematic,0,,,,,,,1,17299949,pdf,f5e05a11cfc53acb1e4e292fa66c1bd2,,,Eliade Oceanografie 1934 ocr lipsa.pdf,0,2000-01-01 01:00:00,2017-06-16 14:07:38,1685000/f5e05a11cfc53acb1e4e292fa66c1bd2-g.jpg,,
30239934,Cum ne construim dușmanul: și alte scrieri ocazionale,,,,Umberto Eco,2007,3rd edition,Polirom,Iasi,352,352,Romanian,,,0,-,,,,,,,,,,"ocr by epistematic, scan sdr",300,,,,,,0,1,11499669,pdf,9d2e9c43400588086e983e18322889e4,,,Umberto Eco - Cum ne construim dușmanii ocr.pdf,0,2000-01-01 01:00:00,2017-06-16 14:07:38,1689000/9d2e9c43400588086e983e18322889e4-g.jpg,,
30239935,Grief and loss psychology,,12,,Faramarz Asanjarani,2015,,Ay Sana,,53,53,Persian,198,,0,,,,,,,,,,,,0,,,,,,,1,1674722,pdf,acd05501313a58881a94356b715217eb,,,روانشناسی سوگ و فقدان - فرامرز آسنجرانی .pdf,0,2000-01-01 01:00:00,2017-06-16 14:12:52,,,
30239936,Grief and loss psychology,,12,,Faramarz Asanjarani,2015,,Ay Sana,,53,53,Persian,198,,0,,,,,,,,,,,,0,,,,,,,1,1674722,pdf,acd05501313a58881a94356b715217eb,,,روانشناسی سوگ و فقدان - فرامرز آسنجرانی .pdf,0,2000-01-01 01:00:00,2017-06-16 14:16:26,1693000/acd05501313a58881a94356b715217eb-g.jpg,,
30239937,Миф в культуре Возрождения.,,,,Брагина Л.М. (ред.),2003,,Наука,М.,362,362,Russian,191,,0,5-02-011802-8,,,,,,,,,,,0,,,,,,,1,19509037,pdf,3c4b01260c1519a67722f2a0e0bcd825,,,Брагина Л.М. (ред.) - Миф в культуре Возрождения. - 2003.pdf,0,2000-01-01 01:00:00,2017-06-16 14:21:13,,,5020118028
30239938,"Churchill’s Pocketbook of Differential Diagnosis, 4e",,Churchill Pocketbooks,,"Andrew T Raftery BSc MBChB(Hons)  MD FRCS(Eng) FRCS(Ed), Eric KS Lim MB ChB MD MSc FRCS(C-Th), Andrew J K Ostor MB BS FRACP",2014,4,Churchill Livingstone,,622,596,English,,,0,"070205402X,9780702054020",,,,,,,,,,,0,,,,,,,1,7526863,pdf,6039cc52a221df1d9df20f9833ebfa22,,,070205402x.pdf,0,2000-01-01 01:00:00,2017-06-16 14:26:54,https://images-na.ssl-images-amazon.com/images/I/416-jVn8wLL.jpg,Diagnosis;Medicine;Internal Medicine;Bariatrics;Cardiology;Critical Care;Dermatology;Emergency;Endocrinology & Metabolism;Epidemiology;Family Practice;Gastroenterology;Geriatrics;Hematology;Hepatology;Infectious Disease;Nephrology;Neurology;Obstetrics & Gynecology;Occupational;Oncology;Osteopathy;Pathology;Pediatrics;Physical Medicine & Rehabilitation;Psychiatry;Pulmonary;Radiology;Reproductive Medicine & Technology;Rheumatology;Urology;Medicine;Diagnosis;Clinical;Medicine;Medicine & Health Scie,"070205402X,9780702054020"
30239939,Образы любви и красоты в культуре Возрождения,,Культура Возрождения,,Брагина Л.М. (отв. ред.),2008,,Наука,М.,309,309,Russian,191,,0,978-5-02-035707-5,,,,,,,,,,,0,,,,,,,1,7056116,djvu,194f9352f6f16811efcaaf63f844546b,,,Брагина Л.М. (отв. ред.) - Образы любви и красоты в культуре Возрождения (Культура Возрождения) - 2008.djvu,0,2000-01-01 01:00:00,2017-06-16 14:28:23,,,9785020357075
30239940,Алексей Кондратьевич Саврасов,,Великие русские живописцы,,Орлова Е.,2014,,Рипол классик,М.,39,39,Russian,59,,0,978-5-386-06884-4,,,,,,,,,,,0,,,,,,1,0,22372962,djvu,eac3fe204fd71e2c7751c4e991637106,,,Орлова Е. - Алексей Кондратьевич Саврасов (Великие русские живописцы) - 2014.djvu,0,2000-01-01 01:00:00,2017-06-16 14:30:38,,,9785386068844
30239941,Momento decisivo en el Pacífico. Midway junio de 1942,13,La Segunda Guerra Mundial Osprey 13,,Mark Healy,2008,1,Osprey RBA,Barcelona,97,97,Spanish,67,,0,978-84-473-5563-1,,,,,,,,,,,300,1,,0,,1,,0,24842415,pdf,06fa1f9728648ab2829458b2be9b25e9,,,Osprey RBA WW2 13 Momento decisivo en el Pacífico Midway junio de 1942 M Healy Castellano 2008.pdf,0,2000-01-01 01:00:00,2017-06-16 14:31:12,,,9788447355631
30239942,Театральная критика нового времени,,,,Орлова Т.Д.,2010,,Лiтapaтypa i Мастацтва,,236,236,Russian,57,,0,978-985-6941-68-2,,,,,,,,,,,0,,,,,,,0,11321979,djvu,929db9a9c0a9da6c9f1494701013825c,,,Орлова Т. - Театральная критика нового времени - 2010.djvu,0,2000-01-01 01:00:00,2017-06-16 14:34:15,,,9789856941682
30239943,Rommel en retirada. El Alamein julio de 1942,14,La Segunda Guerra Mundial Osprey 14,,Ken Ford,2008,1,Osprey RBA,Barcelona,97,97,Spanish,67,,0,978-84-473-5564-8,,,,,,,,,,,300,1,,0,,0,,0,27339169,pdf,2f828ed7c7e1d5f7684850419da08627,,,Osprey RBA WW2 14 Rommel en retirada El Alamein julio de 1942 K Ford Castellano 2008.pdf,0,2000-01-01 01:00:00,2017-06-16 14:50:18,,,9788447355648
30239944,"Churchill’s Pocketbook of Differential Diagnosis, 4e",,Churchill Pocketbooks,,"Andrew T Raftery BSc MBChB(Hons)  MD FRCS(Eng) FRCS(Ed), Eric KS Lim MB ChB MD MSc FRCS(C-Th), Andrew J K Ostor MB BS FRACP",2014,4,Churchill Livingstone,,622,596,English,,,0,"070205402X,9780702054020",,,,,,,,,,,0,,,,,,,1,7526863,pdf,6039cc52a221df1d9df20f9833ebfa22,,,070205402x.pdf,0,2000-01-01 01:00:00,2017-06-16 14:53:08,1693000/6039cc52a221df1d9df20f9833ebfa22-d.jpg,Diagnosis;Medicine;Internal Medicine;Bariatrics;Cardiology;Critical Care;Dermatology;Emergency;Endocrinology & Metabolism;Epidemiology;Family Practice;Gastroenterology;Geriatrics;Hematology;Hepatology;Infectious Disease;Nephrology;Neurology;Obstetrics & Gynecology;Occupational;Oncology;Osteopathy;Pathology;Pediatrics;Physical Medicine & Rehabilitation;Psychiatry;Pulmonary;Radiology;Reproductive Medicine & Technology;Rheumatology;Urology;Medicine;Diagnosis;Clinical;Medicine;Medicine & Health Scie,"070205402X,9780702054020"
30239945,Grief and loss psychology روانشناسی سوگ و فقدان,,12,,Faramarz Asanjarani,2015,,Ay Sana,,53,53,Persian,198,,0,,,,,,,,,,,,0,,,,,,,1,1674722,pdf,acd05501313a58881a94356b715217eb,,,روانشناسی سوگ و فقدان - فرامرز آسنجرانی .pdf,0,2000-01-01 01:00:00,2017-06-16 14:53:28,1693000/acd05501313a58881a94356b715217eb-g.jpg,,
30239946,روانشناسی سوگ و فقدان,,,,Faramarz Asanjarani,2015,,Ay Sana,,53,53,Persian,198,,0,,,,,,,,,,,,0,,,,,,,1,1674722,pdf,acd05501313a58881a94356b715217eb,,,روانشناسی سوگ و فقدان - فرامرز آسنجرانی .pdf,0,2000-01-01 01:00:00,2017-06-16 14:54:01,1693000/acd05501313a58881a94356b715217eb-g.jpg,,
30239947,"Усадьбы и дачи петербургской интеллигенции XVIII - начала XX века. Владельцы, обитатели, гости",,,,Первушина Е.В.,2012,,Пари­тет,СПб.,372,372,Russian,191,,0,978-5-93437-294-2,,,908+ 947,,,,,,,,0,,,,,,1,1,162363842,djvu,6eac7e553854c8a4d4bce2875267d58a,,,"Первушина Е.В. - Усадьбы и дачи петербургской интеллигенции XVIII - начала XX века. Владельцы, обитатели, гости - 2012.djvu",0,2000-01-01 01:00:00,2017-06-16 14:55:21,,,9785934372942
30239948,El sitio de Stalingrado. Stalingrado septiembre de 1942,16,La Segunda Guerra Mundial Osprey 16,,Peter D. Antill,2008,1,Osprey RBA,Barcelona,97,97,Spanish,67,,0,948-84-473-5566-2,,,,,,,,,,,300,1,,0,,1,,1,23382840,pdf,42885a86d9af11f6da0596d1236a743a,,,Osprey RBA WW2 16 El sitio de Stalingrado Stalingrado septiembre de 1942 P Antill 2008.pdf,0,2000-01-01 01:00:00,2017-06-16 15:01:30,,,9488447355662
30239949,Словарь средневековой культуры,,Summa Culturologiae,,Под ред. А.Я. Гуревича,2003,,РОССПЭН,М.,664,664,Russian,191,,0,,,,,,,,,,,,0,,,,,,,1,158352615,pdf,1b3d0c581dbcf69dda847a74c7bb0aaa,,,Под ред. А.Я. Гуревича - Словарь средневековой культуры (Summa Culturologiae) - 2003.pdf,0,2000-01-01 01:00:00,2017-06-16 15:03:45,,,
30239950,Дальше – шум. Слушая ХХ век,,,,Алекс Росс,2015,,"АСТ, CORPUS",,0,0,Russian,191,,0,978-5-17-086985-5,,,,,,,,,,,0,,,,,,,,2842603,fb2,730cdf3cc0e89de332751a8edb4d9e67,,,Росс А. - Дальше – шум. Слушая ХХ век - 2012.fb2,0,2000-01-01 01:00:00,2017-06-16 15:04:38,http://127.0.0.1/covers/730cdf3cc0e89de332751a8edb4d9e67-temp.jpg,,9785170869855
30239951,Дальше – шум. Слушая ХХ век,,,,Алекс Росс,2015,,"АСТ, CORPUS",,0,468,Russian,191,,0,978-5-17-086985-5,,,,,,,,,,,0,,,,,,,1,4197311,pdf,b53690a49f8a42065422938b7fa6725d,,,Росс А. - Дальше – шум. Слушая ХХ век - 2012.pdf,0,2000-01-01 01:00:00,2017-06-16 15:05:53,,,9785170869855
30239952,Избранные статьи о русской живописи,,В мире прекрасного,,Стасов В.В.,1968,,Детская литература,М.,286,286,Russian,59,,0,,,,,,,,,,,,0,,,,,,,0,20234982,pdf,e33e23ababa89091fcc37a64ca04bef2,,,Стасов В.В. - Избранные статьи о русской живописи (В мире прекрасного) - 1968.pdf,0,2000-01-01 01:00:00,2017-06-16 15:07:36,,,
30239953,Театрал,,,,Греч Н.И.,1853,,Типография Н. Греча,,,162,Russian,,,,-,,,,,,,,,,,0,,,,,,0,1,37959134,pdf,25c2fd4d768b164089e605624a96fb6a,,,Греч Н.И.;Театрал;;;Типография Н. Греча;1853;-;;Russian,0,2000-01-01 01:00:00,2017-06-16 15:07:37,1573000/25c2fd4d768b164089e605624a96fb6a-g.jpg,,
30239954,Иллюстрированный практический путеводитель по Одессе,,,,Москвич Г.Г.,1904,,Типография Л. Нитче (Одесса),,,193,Russian,,,,-,,,,,,,,,,,0,,,,,,0,1,114294202,pdf,6056c19c1332a4c10e4a7a718155860f,,,Москвич Г.Г.;Иллюстрированный практический путеводитель по Одессе;;;Типография Л. Нитче (Одесса);1904;-;;Russian,0,2000-01-01 01:00:00,2017-06-16 15:07:37,1577000/6056c19c1332a4c10e4a7a718155860f-g.jpg,,
30239955,«Отчизну сердцем защитили»  Стихи поэтов Тейковского района,,,,,2011,,"ОАО «Издательство «Иваново»,",,,64,Russian,,,,-,,,,,,,,,,,0,,,,,,0,1,2010197,pdf,ca229279281b8a331bc80b0e6cfa53f2,,,";«Отчизну сердцем защитили»  Стихи поэтов Тейковского района;;;ОАО «Издательство «Иваново»,;2011;-;;Russian",0,2000-01-01 01:00:00,2017-06-16 15:07:37,1585000/ca229279281b8a331bc80b0e6cfa53f2-g.jpg,,
30239956,Recettes Angéliques. Le bœuf: Le goût d’être ensemble,,,,(Collective),2012,,INTERBEV,,0,32,French,,,0,-,,,,,,,,,,,0,,,,,,0,1,3164060,pdf,be017384eb788f84803d6cf2728a3a68,,,;Recettes Angliques. Le boeuf Le got d’tre ensemble;;;INTERBEV;2012;-;;French,0,2000-01-01 01:00:00,2017-06-16 15:07:37,1585000/be017384eb788f84803d6cf2728a3a68-g.jpg,,
30239957,A World Of Animals Vol. 2,,Painting- Animals,,Ana Bernabe,2002,,Viking folk Art,,,60,English,,,,-,,,,,,,,,,,0,,,,,,0,0,50405079,pdf,857f613ba692b86d043d09c24061c24a,,,Ana Bernabe;A World Of Animals Vol. 2;Painting- Animals;;Viking folk Art;2002;-;;English,0,2000-01-01 01:00:00,2017-06-16 15:07:37,1585000/857f613ba692b86d043d09c24061c24a-g.jpg,,
30239958,A World Of Animals Vol. 3,,Painting- Animals,,Ana Bernabe,2003,,Viking folk Art,,,65,English,,,,-,,,,,,,,,,,0,,,,,,0,0,46544505,pdf,d2dbe9b1e95bf109a85cf033d923f5a2,,,Ana Bernabe;A World Of Animals Vol. 3;Painting- Animals;;Viking folk Art;2003;-;;English,0,2000-01-01 01:00:00,2017-06-16 15:07:37,1585000/d2dbe9b1e95bf109a85cf033d923f5a2-g.jpg,,
30239959,20 Easy DIY Holiday Craft,,,,Collective,2015,,FloraCraft,,0,58,English,,,0,-,,,,,,,,,,,0,,,,,,0,1,19194778,pdf,b5d1f6e32d9acffad14ecfb28dac3ac6,,,"Collective;20 Easy DIY Holiday Craft;;;FloraCraft, Prime Publishing LLC;2015;-;;English",0,2000-01-01 01:00:00,2017-06-16 15:07:37,1585000/b5d1f6e32d9acffad14ecfb28dac3ac6-g.jpg,,
30239960,Описание 3-х линейной винтовки образца 1891 года,,,,,1891,,"Издание Офицерской стрелковой школы, Типография И,Н, Скороходова (СПб",,,16,Russian,,,,-,,,,,,,,,,,0,,,,,,0,1,20685620,pdf,3249fcdc9c40bf854fcfbf1ef55e4d9d,,,";Описание 3-х линейной винтовки образца 1891 года;;;Издание Офицерской стрелковой школы, Типография И,Н, Скороходова (СПб;1891;-;;Russian",0,2000-01-01 01:00:00,2017-06-16 15:07:37,1630000/3249fcdc9c40bf854fcfbf1ef55e4d9d-g.jpg,,
30239961,Третье отделение при Николае I,,,,Троцкий И.М.,1930,,Издательство Всесоюзного общества политкаторжан и ссыльно-поселенцев,,,74,Russian,,,,-,,,,,,,,,,,0,,,,,,0,1,39399144,pdf,e7c5d9cf33dd069059147f4c08996e2b,,,Троцкий И.М.;Третье отделение при Николае I;;;Издательство Всесоюзного общества политкаторжан и ссыльно-поселенцев;1930;-;;Russian,0,2000-01-01 01:00:00,2017-06-16 15:07:37,1630000/e7c5d9cf33dd069059147f4c08996e2b-g.jpg,,
30239962,Занимательные задачи и опыты,,,,Перельман Я.И.,1972,,Детская литература,,,472,Russian,,,,-,,,,,,,,,,,0,,,,,,0,1,167718439,pdf,0fc1642694a8224f1a8df67f677f4c26,,,Перельман Я.И.;Занимательные задачи и опыты;;;Детская литература;1972;-;;Russian,0,2000-01-01 01:00:00,2017-06-16 15:07:37,1630000/0fc1642694a8224f1a8df67f677f4c26-g.jpg,,
30239963,Сад и огород в доме,,,,Попов Е.Б.,1985,,Детская литература,,,120,Russian,,,,-,,,,,,,,,,,0,,,,,,0,1,48066991,pdf,fe06f74051bf5081ef51978cd47a993c,,,Попов Е.Б.;Сад и огород в доме;;;Детская литература;1985;-;;Russian,0,2000-01-01 01:00:00,2017-06-16 15:07:37,1631000/fe06f74051bf5081ef51978cd47a993c-g.jpg,,
30239964,Oceanografie. eseuri,,,,Mircea Eliade,1934,1st edition,Cultura Populara,București,304,304,Romanian,195,,0,-,,,,,,,,,,ocr by epistematic,0,,,,,,,1,17299949,pdf,f5e05a11cfc53acb1e4e292fa66c1bd2,,,Eliade Oceanografie 1934 ocr lipsa.pdf,0,2000-01-01 01:00:00,2017-06-16 15:07:37,1685000/f5e05a11cfc53acb1e4e292fa66c1bd2-g.jpg,,
30239965,Cum ne construim dușmanul: și alte scrieri ocazionale,,,,Umberto Eco,2007,3rd edition,Polirom,Iasi,352,352,Romanian,,,0,-,,,,,,,,,,"ocr by epistematic, scan sdr",300,,,,,,0,1,11499669,pdf,9d2e9c43400588086e983e18322889e4,,,Umberto Eco - Cum ne construim dușmanii ocr.pdf,0,2000-01-01 01:00:00,2017-06-16 15:07:37,1689000/9d2e9c43400588086e983e18322889e4-g.jpg,,
30239966,Театр и театральность в культуре Возрождения,,Культура Возрождения,,Брагина Л.М. (отв. ред.),2005,,Наука,М.,248,248,Russian,191,,0,5-02-033546-0,,,,,,,,,,,0,,,,,,,1,7624415,djvu,63f15a00126da6b0926b899428fbc711,,,Брагина Л.М. (отв. ред.) - Театр и театральность в культуре Возрождения (Культура Возрождения) - 2005.djvu,0,2000-01-01 01:00:00,2017-06-16 15:10:50,,,5020335460
30239967,Rommel última victoria: El paso de Kasserine noviembre de 1942,17,La Segunda Guerra Mundial Osprey 17,,Steven J. Zaloga,2008,1,Osprey RBA,Barcelona,97,97,Spanish,67,,0,978-84-473-5567-9,,,,,,,,,,,300,1,,0,,1,,0,27164362,pdf,c597f2e23cb002cf2283c1a4ea465054,,,Osprey RBA WW2 17 Rommel ultima victoria El paso de Kasserine noviembre de 1942 S Zaloga Castellano 2008.pdf,0,2000-01-01 01:00:00,2017-06-16 15:15:34,,,9788447355679
30239968,В поисках редких книг,,,,Челышев Б.Д.,1970,,Просвещение,М.,114,114,Russian,104,,0,,,,,,,,,,,,0,,,,,,,1,33687033,pdf,ad811cbbda52a0fe2e76835ecfbfc513,,,Челышев Б. Д. - В поисках редких книг - 1970.pdf,0,2000-01-01 01:00:00,2017-06-16 15:26:17,,,
30239969,Akropolisz,,Az Ókor Müvészete és Kultúrája.,,"Dobos, Lídia; Dziewanowski, Andrzej; Michałowski, Kazimierz",1983,,"\Arkady\"""," \""Corvina\""""","Ateny (Grecja), Budapest, Warszawa",92,92,Polish,,,0,"9789631309737,9631309738,9789631312119,9631312119",,,,,,,,,,,0,,,,,,,1,75645392,pdf,8b049ead1902edfda3f571c4ffa77f9c,,,K. Michałowski - Akropolisz (Az ókor  művészete  és  kultúrája) - 1983.pdf,0,2000-01-01 01:00:00,2017-06-16 15:29:35,,Architektura sakralna grecka;Ateny (Grecja) -- Akropol
30239970,"The history of philosophy : the lives, opinions, actions adn dircourges of the philosophers of every sect.",,,,"Stanley, Thomas",2006,3rd ed.,Apocryphile Press,"Berkeley, Ca.",655,820,English,195,,0,"9781933993096,193399309X",,,,,,,,,,,0,,,,,1,0,0,79496369,pdf,3f71480126e7f7f837e7ba099bd8ec5f,,,Binder1.pdf,0,2000-01-01 01:00:00,2017-06-16 15:33:28,https://images-na.ssl-images-amazon.com/images/I/519X6YZN89L.jpg,"Philosophy, Ancient","9781933993096,193399309X"
30239971,Повести каменных горожан. Очерки о декоративной скульптуре Санкт-Петербурга,,,,Алмазов Борис,2012,,Центрполиграф,М.,426,426,Russian,58,,0,978-5-227-03949-1,,,72.04.03,85.113(2),,,,,,,0,,,,,,,1,63739745,pdf,0bfff456a64ce29a6e7557637b16592f,,,Алмазов Борис-Повести каменных горожан-2012.pdf,0,2000-01-01 01:00:00,2017-06-16 15:35:42,,,9785227039491
30239972,Politika és igazság a nyilvános játéktérben.Tényigazság és észigazság Hannah Arendt gondolkodásában,,,,Eva Tanko,2016,,Egyetemi Műhely Kiadó Bolyai Társaság,,299,299,Hungarian,192,,0,978-606-8145-92-1,,,,,,,,,,,0,,,,,,,1,2291566,pdf,97cc0c454ccb6c9c70d86b08bb8468e8,,,TankoE_final.pdf,0,2000-01-01 01:00:00,2017-06-16 15:36:43,,"Hannah Arendt, truth, politics, lies, totalitarism",9786068145921
30239973,Художественное наследие Cерпуховской земли,,Дороги к прекрасному,,Разумовский Ф.В.,1979,,Искусство,М.,195,195,Russian,191,,0,,,,,,,,,,,,0,,,,,,,1,42837082,pdf,98dd6db4ea8cd56a985c14beaedf46ba,,,Разумовский Ф.В. - Художественное наследие Cерпуховской земли (Дороги к прекрасному) - 1979.pdf,0,2000-01-01 01:00:00,2017-06-16 15:37:46,,,
30239974,Organic Chemistry,,,,"William H. Brown, Brent L. Iverson, Eric Anslyn, Christopher S. Foote",2017,8,Brooks Cole,,1312,1424,English,,,0,"1305580354,9781305580350",,,,,,,,,,,0,,,,,,,1,143904070,pdf,d4356fc81dce55e94fa10d30a55a7c7d,,,Organic Chemistry - 8th Edition (2017).pdf,0,2000-01-01 01:00:00,2017-06-16 15:38:12,https://images-na.ssl-images-amazon.com/images/I/51-pou2smbL.jpg,Organic;Heterocyclic;Organometallic Compounds;Reactions;Synthesis;Chemistry;Science & Math;Schools & Teaching;Certification & Development;Common Core;Computers & Technology;Counseling;Curriculum & Lesson Plans;Distance & Online Learning;Early Childhood Education;Education Theory;Funding;Homeschooling;Instruction Methods;Parent Participation;Special Education;Student Life;Teacher & Student Mentoring;Education & Teaching;Education;Administration;Counseling;Curriculum & Instruction;Educational Phil,"1305580354,9781305580350"
30239975,Blockchain For Dummies (For Dummies,,Computers,,Tiana Laurence,2017,1,For Dummies,,240,235,English,,,0,"1119365597,9781119365594",,,,,,,,,,,0,,,,,,,1,11682541,pdf,13cb9cfbea33a78f62e31a77cdf23b6c,,,Blockchain_For_Dummies.pdf,0,2000-01-01 01:00:00,2017-06-16 15:39:49,https://images-na.ssl-images-amazon.com/images/I/51tvK7o-kjL.jpg,"Databases & Big Data;Access;Data Mining;Data Modeling & Design;Data Processing;Data Warehousing;MySQL;Oracle;Other Databases;Relational Databases;SQL;Computers & Technology;Digital Currencies;History & Culture;Computers & Technology;Database Storage & Design;Computer Science;New, Used & Rental Textbooks;Specialty Boutique","1119365597,9781119365594"
30239976,Реставрация в Эрмитаже. Взгляд сквозь призму времени,,,,Немчинова Л.Е.,2014,,Эрмитаж,,389,389,Russian,57,,0,978-5-93572-594-5,,,,,,,,,,,0,,,,,,,1,38971397,pdf,57ee228695f613f25a8cc3dd56a17051,,,Немчинова Л.Е. - Реставрация в Эрмитаже. Взгляд сквозь призму времени - 2014.pdf,0,2000-01-01 01:00:00,2017-06-16 15:40:17,,,9785935725945
30239977,Древний город Афины и его памятники,,,,Колобова К.М.,1961,,Лениградский университет,Ленинград,376,376,Russian,64,,0,,,,,,,,,,,,0,,,,,,,1,37116500,pdf,3d56b6c7be34a7c0dcb5cedf730c75f6,,,Колобова К.М. - Древний город Афины и его памятники - 1961.pdf,0,2000-01-01 01:00:00,2017-06-16 15:42:33,,,
30239978,Рязанские достопамятности,,Дороги к прекрасному,,Вагнер Г.К.,1989,2,Искусство,М.,172,172,Russian,191,,0,5-210-00025-7,,,,,,,,,,,0,,,,,,,1,34008017,pdf,5de816f87a96689b82e5d7d5de547d05,,,Вагнер Г.К. - Рязанские достопамятности (Дороги к прекрасному) - 1989.pdf,0,2000-01-01 01:00:00,2017-06-16 15:44:48,,,5210000257
30239979,На берегах Оки. От Серпухова до Каширы,,Дороги к прекрасному,,Разумовский Ф.В.,1988,,Искусство,М.,220,220,Russian,191,,0,,,,,,,,,,,,0,,,,,,,1,30640642,pdf,cf6f613ff0f3417ff50ba0471cb368dd,,,Разумовский Ф.В. - На берегах Оки. От Серпухова до Каширы (Дороги к прекрасному) - 1988.pdf,0,2000-01-01 01:00:00,2017-06-16 15:46:23,,,
30239980,Поклонные кресты Молдовы,,,,Гоберман Д.Н.,2004,,Искусство,СПб.,177,177,Russian,191,,0,,,,,,,,,,,,0,,,,,,,1,24698949,pdf,c8d94fe9b38dbf71239011f7b595e2b2,,,Гоберман Д.Н. - Поклонные кресты Молдовы - 2004.pdf,0,2000-01-01 01:00:00,2017-06-16 15:49:18,,,
30239981,"Первобытное искусство. Каменный век, Бронзовый век.",,,,Семёнов В.,2008,,Азбука-классика,СПб.,160,160,Russian,66,,0,978-5-91181-903-3,,,,,,,,,,,0,,,,,,,0,23508004,djvu,04b713807aef99d958e7c530a95c7d2e,,,Семёнов В. Первобытное искусство (2008).djvu,0,2000-01-01 01:00:00,2017-06-16 15:56:56,,,9785911819033
30239982,Фарфор государственного завода,,,,Голлербах Э.Ф.,1922,,Среди коллекционеров,М.,61,61,Russian,191,,0,,,,,,,,,,,,0,,,,,,,0,23411358,pdf,da7693e8ca095a4873b506ea51b5cae4,,,Голлербах Э.Ф. – Фарфор государственного завода - 1922.pdf,0,2000-01-01 01:00:00,2017-06-16 15:59:40,,,
30239983,Музей И.С. Тургенева,,,,В.А. Громов,1958,,Орловское книжное издательство,Орел,94,94,Russian,108,,0,,,,,,,,,,,,0,,,,,,,0,18252894,djvu,77f42c56607efff2d7bdae52027c6bfb,,,В.А. Громов - Музей И.С. Тургенева - 1958.djvu,0,2000-01-01 01:00:00,2017-06-16 16:02:25,,,
30239984,История Эрмитажа. Краткий очерк. Материалы и документы,,,,Пиотровский Б.Б.,2000,,Искусство,,575,575,Russian,57,,0,5-210-01374-Х,,,,,,,,,,,0,,,,,,1,1,16321477,djvu,b21202e7de7a51bc66f8250d68d5bbbb,,,Пиотровский Б.Б. - История Эрмитажа. Краткий очерк. Материалы и документы - 2000.djvu,0,2000-01-01 01:00:00,2017-06-16 16:05:02,,,521001374Х
30239985,Театрал,,,,Греч Н.И.,1853,,Типография Н. Греча,,,162,Russian,,,,-,,,,,,,,,,,0,,,,,,0,1,37959134,pdf,25c2fd4d768b164089e605624a96fb6a,,,Греч Н.И.;Театрал;;;Типография Н. Греча;1853;-;;Russian,0,2000-01-01 01:00:00,2017-06-16 16:07:36,1573000/25c2fd4d768b164089e605624a96fb6a-g.jpg,,
30239986,Иллюстрированный практический путеводитель по Одессе,,,,Москвич Г.Г.,1904,,Типография Л. Нитче (Одесса),,,193,Russian,,,,-,,,,,,,,,,,0,,,,,,0,1,114294202,pdf,6056c19c1332a4c10e4a7a718155860f,,,Москвич Г.Г.;Иллюстрированный практический путеводитель по Одессе;;;Типография Л. Нитче (Одесса);1904;-;;Russian,0,2000-01-01 01:00:00,2017-06-16 16:07:36,1577000/6056c19c1332a4c10e4a7a718155860f-g.jpg,,
30239987,«Отчизну сердцем защитили»  Стихи поэтов Тейковского района,,,,,2011,,"ОАО «Издательство «Иваново»,",,,64,Russian,,,,-,,,,,,,,,,,0,,,,,,0,1,2010197,pdf,ca229279281b8a331bc80b0e6cfa53f2,,,";«Отчизну сердцем защитили»  Стихи поэтов Тейковского района;;;ОАО «Издательство «Иваново»,;2011;-;;Russian",0,2000-01-01 01:00:00,2017-06-16 16:07:36,1585000/ca229279281b8a331bc80b0e6cfa53f2-g.jpg,,
30239988,Recettes Angéliques. Le bœuf: Le goût d’être ensemble,,,,(Collective),2012,,INTERBEV,,0,32,French,,,0,-,,,,,,,,,,,0,,,,,,0,1,3164060,pdf,be017384eb788f84803d6cf2728a3a68,,,;Recettes Angliques. Le boeuf Le got d’tre ensemble;;;INTERBEV;2012;-;;French,0,2000-01-01 01:00:00,2017-06-16 16:07:36,1585000/be017384eb788f84803d6cf2728a3a68-g.jpg,,
30239989,A World Of Animals Vol. 2,,Painting- Animals,,Ana Bernabe,2002,,Viking folk Art,,,60,English,,,,-,,,,,,,,,,,0,,,,,,0,0,50405079,pdf,857f613ba692b86d043d09c24061c24a,,,Ana Bernabe;A World Of Animals Vol. 2;Painting- Animals;;Viking folk Art;2002;-;;English,0,2000-01-01 01:00:00,2017-06-16 16:07:36,1585000/857f613ba692b86d043d09c24061c24a-g.jpg,,
30239990,A World Of Animals Vol. 3,,Painting- Animals,,Ana Bernabe,2003,,Viking folk Art,,,65,English,,,,-,,,,,,,,,,,0,,,,,,0,0,46544505,pdf,d2dbe9b1e95bf109a85cf033d923f5a2,,,Ana Bernabe;A World Of Animals Vol. 3;Painting- Animals;;Viking folk Art;2003;-;;English,0,2000-01-01 01:00:00,2017-06-16 16:07:36,1585000/d2dbe9b1e95bf109a85cf033d923f5a2-g.jpg,,
30239991,20 Easy DIY Holiday Craft,,,,Collective,2015,,FloraCraft,,0,58,English,,,0,-,,,,,,,,,,,0,,,,,,0,1,19194778,pdf,b5d1f6e32d9acffad14ecfb28dac3ac6,,,"Collective;20 Easy DIY Holiday Craft;;;FloraCraft, Prime Publishing LLC;2015;-;;English",0,2000-01-01 01:00:00,2017-06-16 16:07:36,1585000/b5d1f6e32d9acffad14ecfb28dac3ac6-g.jpg,,
30239992,Описание 3-х линейной винтовки образца 1891 года,,,,,1891,,"Издание Офицерской стрелковой школы, Типография И,Н, Скороходова (СПб",,,16,Russian,,,,-,,,,,,,,,,,0,,,,,,0,1,20685620,pdf,3249fcdc9c40bf854fcfbf1ef55e4d9d,,,";Описание 3-х линейной винтовки образца 1891 года;;;Издание Офицерской стрелковой школы, Типография И,Н, Скороходова (СПб;1891;-;;Russian",0,2000-01-01 01:00:00,2017-06-16 16:07:36,1630000/3249fcdc9c40bf854fcfbf1ef55e4d9d-g.jpg,,
30239993,Третье отделение при Николае I,,,,Троцкий И.М.,1930,,Издательство Всесоюзного общества политкаторжан и ссыльно-поселенцев,,,74,Russian,,,,-,,,,,,,,,,,0,,,,,,0,1,39399144,pdf,e7c5d9cf33dd069059147f4c08996e2b,,,Троцкий И.М.;Третье отделение при Николае I;;;Издательство Всесоюзного общества политкаторжан и ссыльно-поселенцев;1930;-;;Russian,0,2000-01-01 01:00:00,2017-06-16 16:07:36,1630000/e7c5d9cf33dd069059147f4c08996e2b-g.jpg,,
30239994,Занимательные задачи и опыты,,,,Перельман Я.И.,1972,,Детская литература,,,472,Russian,,,,-,,,,,,,,,,,0,,,,,,0,1,167718439,pdf,0fc1642694a8224f1a8df67f677f4c26,,,Перельман Я.И.;Занимательные задачи и опыты;;;Детская литература;1972;-;;Russian,0,2000-01-01 01:00:00,2017-06-16 16:07:36,1630000/0fc1642694a8224f1a8df67f677f4c26-g.jpg,,
30239995,Сад и огород в доме,,,,Попов Е.Б.,1985,,Детская литература,,,120,Russian,,,,-,,,,,,,,,,,0,,,,,,0,1,48066991,pdf,fe06f74051bf5081ef51978cd47a993c,,,Попов Е.Б.;Сад и огород в доме;;;Детская литература;1985;-;;Russian,0,2000-01-01 01:00:00,2017-06-16 16:07:36,1631000/fe06f74051bf5081ef51978cd47a993c-g.jpg,,
30239996,Oceanografie. eseuri,,,,Mircea Eliade,1934,1st edition,Cultura Populara,București,304,304,Romanian,195,,0,-,,,,,,,,,,ocr by epistematic,0,,,,,,,1,17299949,pdf,f5e05a11cfc53acb1e4e292fa66c1bd2,,,Eliade Oceanografie 1934 ocr lipsa.pdf,0,2000-01-01 01:00:00,2017-06-16 16:07:36,1685000/f5e05a11cfc53acb1e4e292fa66c1bd2-g.jpg,,
30239997,Cum ne construim dușmanul: și alte scrieri ocazionale,,,,Umberto Eco,2007,3rd edition,Polirom,Iasi,352,352,Romanian,,,0,-,,,,,,,,,,"ocr by epistematic, scan sdr",300,,,,,,0,1,11499669,pdf,9d2e9c43400588086e983e18322889e4,,,Umberto Eco - Cum ne construim dușmanii ocr.pdf,0,2000-01-01 01:00:00,2017-06-16 16:07:36,1689000/9d2e9c43400588086e983e18322889e4-g.jpg,,
30239998,Лекции по курсу Мировая художественная культура: учебное пособие,,,,Лескова И.А.,2009,,ВГПУ Перемена,Волгоград,74,74,Russian,191,,0,978-5-9935-0150-5,,,,,,,,,,,0,,,,,,,1,15594666,djvu,d467b00d7a8157a4c93fae8ff89ffc46,,,Лескова И.А. - Лекции по курсу Мировая художественная культура учебное пособие - 2009.djvu,0,2000-01-01 01:00:00,2017-06-16 16:08:16,,,9785993501505
30239999,Die gesamte Möbelschreinerei,,Das Schreinerbuch 2,,"Krauth, Theodor; Meyer, Franz Sales",2009,4. durchgesehene und verm. Aufl. [of 1902 ed.].,Vincentz Network,Hannover,0,128,German,,,0,"9783866309586,3866309589",,,,,,,,,,,0,,,,,,,0,14834032,pdf,21222d62e28c3d3e10b00a41001b241a,,,Mobelschreinerei.pdf,0,2000-01-01 01:00:00,2017-06-16 16:11:21,,Carpentry;Woodwork;Architecture -- Details;Furniture making,"9783866309586,3866309589"
30240000,Фрески средневекового Крыма,,,,Домбровский О.И.,1966,,АН УССР,,63,63,Russian,58,,0,,,,,,,,,,,,0,,,,,,,0,12982799,pdf,8cc6da59cbc20e25fd8f33dad0bea4e0,,,Домбровский О.И. Фрески средневекового Крыма  1966.pdf,0,2000-01-01 01:00:00,2017-06-16 16:14:27,,,
30240001,Ван Дейк. Картины в Эрмитаже,,,,Варшавская М.Я.,1963,,Эрмитаж,Ленинград,156,156,Russian,59,,0,,,,,,,,,,,,0,,,,,,1,1,11560642,djvu,0ac1872f316d856265d46c53af0d9a31,,,Варшавская М.Я. - Ван Дейк. Картины в Эрмитаже - 1963.djvu,0,2000-01-01 01:00:00,2017-06-16 16:15:54,,,
30240002,Воля к сакральному.,,,,Хренов Н.А.,2006,,Алетейя,СПб.,572,572,Russian,191,,0,5-89329-893-4,,,2-42:17.021.2,86.2+87.7,,,,,,,0,,,,,,,1,11437687,djvu,b70ec3618a06ba774d1ab53b881df0ef,,,Хренов Н.А. Воля к сакральному. 2006.djvu,0,2000-01-01 01:00:00,2017-06-16 16:19:31,,,5893298934
30240003,Salesforce.com For Dummies,,,,"Liz Kao, Jon Paz",2016,6,For Dummies,,456,455,English,,,0,"812656301X,9781119239314",,,,,,,,,,,0,,,,,,,1,17132254,pdf,c1e01e09d848cf2c8107c3f974cc9c3d,,,"Salesforce.com_For_Dummies,_6th.pdf",0,2000-01-01 01:00:00,2017-06-16 16:22:22,https://images-na.ssl-images-amazon.com/images/I/51zg-i7sl-L.jpg,"Sales & Selling;Marketing & Sales;Business & Money;Enterprise Applications;Software;Computers & Technology;Sales;Business & Finance;New, Used & Rental Textbooks;Specialty Boutique;Computer Science;Algorithms;Artificial Intelligence;Database Storage & Design;Graphics & Visualization;Networking;Object-Oriented Software Design;Operating Systems;Programming Languages;Software Design & Engineering;New, Used & Rental Textbooks;Specialty Boutique","812656301X,9781119239314"
30240004,Шедевры мировой живописи. Выпуск 2. Иероним Босх,,,,Коллектив авторов,1993,,,,68,68,Russian,59,,0,,,,,,,,,,,,0,,,,,,,1,11436303,pdf,ee32d46448362ee9bb74c4e0b7522853,,,Шедевры мировой живописи. Выпуск 2. Иероним Босх (1993).pdf,0,2000-01-01 01:00:00,2017-06-16 16:22:37,,,
30240005,Zonas de tensión dialógica. Perspectivas sobre la filosofía griega,,,,Claudia Mársico,2010,,,Buenos Aires,63,63,Spanish,,,0,,978987599,,,,,,,,,,0,,,,,,,0,5207813,pdf,d61576186c31cc0fac7afbc1e44abb42,,,Mársico - Zonas de tensión dialógica.pdf,0,2000-01-01 01:00:00,2017-06-16 16:26:00,,,
30240006,Мифопоэтические основы славянского народного календаря. Весенне-летний цикл.,,Традиционная духовная культура славян. Современные исследования,,Агапкина Т.А.,2002,,Индрик,М.,818,818,Russian,191,,0,5-85759-143-0,,,,,,,,,,,0,,,,,,,0,9633123,pdf,c1fd08a46aedbe207929f2e7fd006c22,,,Агапкина Т.А. - Мифопоэтические основы славянского народного календаря. Весенне-летний цикл (Традиционная духовная культура славян. Современные исследования) - 2002.pdf,0,2000-01-01 01:00:00,2017-06-16 16:27:09,,,5857591430
30240007,"Platón, Alegorías del sol, la línea y la caverna",,,,Claudia Mársico,2011,,Losada,Buenos Aires,116,116,Spanish,,,0,9789500398169,,,,,,,,,,,0,,,,,,,0,10908122,pdf,92fc4fe3cdec925afb2b49d62c664d77,,,"Platón - Alegorías del sol, la línea y la caverna. Bilingüe.pdf",0,2000-01-01 01:00:00,2017-06-16 16:29:24,,,9789500398169
30240008,"Platón, República, introducción, traducción y notas",,,,Claudia Marsico,2005,,Losada,Buenos Aires,323,323,Spanish,,,0,,950039313,,,,,,,,,,0,,,,,,,0,40018561,pdf,445e149c9446456b38ca35a943be5f28,,,Platón - República.pdf,0,2000-01-01 01:00:00,2017-06-16 16:35:29,,,
30240009,Культура и пространство. Моделирование географических образов,,,,Замятин А.Н.,2006,,Знак,М.,486,486,Russian,191,,0,5-9551-0144-6,,,,71,,,,,,,0,,,,,,,1,6620582,pdf,34ceb34e508063707b11392c8ae30059,,,Замятин А.Н. - Культура и пространство - 2006_1.pdf,0,2000-01-01 01:00:00,2017-06-16 16:36:22,,,5955101446
30240010,Мужское тело в истории культуры,,,,Кон И.,2003,,,,162,162,Russian,191,,0,5-85050-704-3,,,,,,,,,,,0,,,,,,,0,6190356,pdf,aba5d7cf416972c8daaacea6ccdcf8b9,,,Кон И. - Мужское тело в истории культуры - 2003.pdf,0,2000-01-01 01:00:00,2017-06-16 16:38:24,,,5850507043
30240011,Film,,Eyewitness Companions,,"Ronald Bergan, Anita Ganeri",2006,,DK ADULT,,512,516,English,,,0,"0756622034,9780756622039",,,,,,,,,,,0,,,,,,,1,111180067,pdf,e03592be6887469bd7e194eaa3b535ef,,,Bergan R. - Film - 2006.pdf,0,2000-01-01 01:00:00,2017-06-16 16:43:35,https://images-na.ssl-images-amazon.com/images/I/51GFKZQNR3L.jpg,Performing Arts;Dance;Individual Directors;Magic & Illusion;Reference;Theater;Arts & Photography;Guides & Reviews;Movies;Humor & Entertainment,"0756622034,9780756622039"
30240012,100 Meisterwerke Masterpeices Kurzitel,,in German,,Kunsthistorische Museum,1994,,Kunsthistorische Museum,,0,122,German,,,0,"3900325375,9783900325374",,,,,,,,,,,0,,,,,,,1,126544303,pdf,edd1ec23c1f419ac38c351061a3f90a0,,,100 Meisterwerke = Masterpieces.  Kunsthistorisches Museum Wien (1994).pdf,0,2000-01-01 01:00:00,2017-06-16 16:45:53,,"Arts & Photography;Biographies & Memoirs;Business & Money;Calendars;Comics & Graphic Novels;Computers & Technology;Cookbooks, Food & Wine;Crafts, Hobbies & Home;Education & Teaching;Engineering & Transportation;Gay & Lesbian;Health, Fitness & Dieting;History;Humor & Entertainment;Law;Literature & Fiction;Mystery, Thriller & Suspense;Parenting & Relationships;Politics & Social Sciences;Reference;Religion & Spirituality;Romance;Science & Math;Science Fiction & Fantasy;Self-Help;Sports & Outdoors;T","3900325375,9783900325374"
30240013,Жемчужины русского зодчества по преданиям старины,,,,Суслов В.В.,2003,,,М.,58,58,Russian,58,,0,5-98349-001-Х,,,,,,,,,,,0,,,,,,,0,106738601,pdf,54060f30f73433cc5b71aaafdca15dea,,,Суслов В. - Жемчужины русского зодчества по преданиям старины - 2003.pdf,0,2000-01-01 01:00:00,2017-06-16 16:50:39,,,598349001Х
30240014,Москва в русской и советской живописи,,,,Гусарова А.П.,1987,,Советский художник,М.,139,139,Russian,59,,0,,,,,,,,,,,,0,,,,,,,1,68984985,pdf,92c258d398ae6ebd1175e801505f90a9,,,Гусарова А.П. - Москва в русской и советской живописи - 1987.pdf,0,2000-01-01 01:00:00,2017-06-16 16:52:02,,,
30240015,Театрал,,,,Греч Н.И.,1853,,Типография Н. Греча,,,162,Russian,,,,-,,,,,,,,,,,0,,,,,,0,1,37959134,pdf,25c2fd4d768b164089e605624a96fb6a,,,Греч Н.И.;Театрал;;;Типография Н. Греча;1853;-;;Russian,0,2000-01-01 01:00:00,2017-06-16 17:07:36,1573000/25c2fd4d768b164089e605624a96fb6a-g.jpg,,
30240016,Иллюстрированный практический путеводитель по Одессе,,,,Москвич Г.Г.,1904,,Типография Л. Нитче (Одесса),,,193,Russian,,,,-,,,,,,,,,,,0,,,,,,0,1,114294202,pdf,6056c19c1332a4c10e4a7a718155860f,,,Москвич Г.Г.;Иллюстрированный практический путеводитель по Одессе;;;Типография Л. Нитче (Одесса);1904;-;;Russian,0,2000-01-01 01:00:00,2017-06-16 17:07:36,1577000/6056c19c1332a4c10e4a7a718155860f-g.jpg,,
30240017,«Отчизну сердцем защитили»  Стихи поэтов Тейковского района,,,,,2011,,"ОАО «Издательство «Иваново»,",,,64,Russian,,,,-,,,,,,,,,,,0,,,,,,0,1,2010197,pdf,ca229279281b8a331bc80b0e6cfa53f2,,,";«Отчизну сердцем защитили»  Стихи поэтов Тейковского района;;;ОАО «Издательство «Иваново»,;2011;-;;Russian",0,2000-01-01 01:00:00,2017-06-16 17:07:36,1585000/ca229279281b8a331bc80b0e6cfa53f2-g.jpg,,
30240018,Recettes Angéliques. Le bœuf: Le goût d’être ensemble,,,,(Collective),2012,,INTERBEV,,0,32,French,,,0,-,,,,,,,,,,,0,,,,,,0,1,3164060,pdf,be017384eb788f84803d6cf2728a3a68,,,;Recettes Angliques. Le boeuf Le got d’tre ensemble;;;INTERBEV;2012;-;;French,0,2000-01-01 01:00:00,2017-06-16 17:07:36,1585000/be017384eb788f84803d6cf2728a3a68-g.jpg,,
30240019,A World Of Animals Vol. 2,,Painting- Animals,,Ana Bernabe,2002,,Viking folk Art,,,60,English,,,,-,,,,,,,,,,,0,,,,,,0,0,50405079,pdf,857f613ba692b86d043d09c24061c24a,,,Ana Bernabe;A World Of Animals Vol. 2;Painting- Animals;;Viking folk Art;2002;-;;English,0,2000-01-01 01:00:00,2017-06-16 17:07:36,1585000/857f613ba692b86d043d09c24061c24a-g.jpg,,
30240020,A World Of Animals Vol. 3,,Painting- Animals,,Ana Bernabe,2003,,Viking folk Art,,,65,English,,,,-,,,,,,,,,,,0,,,,,,0,0,46544505,pdf,d2dbe9b1e95bf109a85cf033d923f5a2,,,Ana Bernabe;A World Of Animals Vol. 3;Painting- Animals;;Viking folk Art;2003;-;;English,0,2000-01-01 01:00:00,2017-06-16 17:07:36,1585000/d2dbe9b1e95bf109a85cf033d923f5a2-g.jpg,,
30240021,20 Easy DIY Holiday Craft,,,,Collective,2015,,FloraCraft,,0,58,English,,,0,-,,,,,,,,,,,0,,,,,,0,1,19194778,pdf,b5d1f6e32d9acffad14ecfb28dac3ac6,,,"Collective;20 Easy DIY Holiday Craft;;;FloraCraft, Prime Publishing LLC;2015;-;;English",0,2000-01-01 01:00:00,2017-06-16 17:07:36,1585000/b5d1f6e32d9acffad14ecfb28dac3ac6-g.jpg,,
30240022,Описание 3-х линейной винтовки образца 1891 года,,,,,1891,,"Издание Офицерской стрелковой школы, Типография И,Н, Скороходова (СПб",,,16,Russian,,,,-,,,,,,,,,,,0,,,,,,0,1,20685620,pdf,3249fcdc9c40bf854fcfbf1ef55e4d9d,,,";Описание 3-х линейной винтовки образца 1891 года;;;Издание Офицерской стрелковой школы, Типография И,Н, Скороходова (СПб;1891;-;;Russian",0,2000-01-01 01:00:00,2017-06-16 17:07:36,1630000/3249fcdc9c40bf854fcfbf1ef55e4d9d-g.jpg,,
30240023,Третье отделение при Николае I,,,,Троцкий И.М.,1930,,Издательство Всесоюзного общества политкаторжан и ссыльно-поселенцев,,,74,Russian,,,,-,,,,,,,,,,,0,,,,,,0,1,39399144,pdf,e7c5d9cf33dd069059147f4c08996e2b,,,Троцкий И.М.;Третье отделение при Николае I;;;Издательство Всесоюзного общества политкаторжан и ссыльно-поселенцев;1930;-;;Russian,0,2000-01-01 01:00:00,2017-06-16 17:07:36,1630000/e7c5d9cf33dd069059147f4c08996e2b-g.jpg,,
30240024,Занимательные задачи и опыты,,,,Перельман Я.И.,1972,,Детская литература,,,472,Russian,,,,-,,,,,,,,,,,0,,,,,,0,1,167718439,pdf,0fc1642694a8224f1a8df67f677f4c26,,,Перельман Я.И.;Занимательные задачи и опыты;;;Детская литература;1972;-;;Russian,0,2000-01-01 01:00:00,2017-06-16 17:07:36,1630000/0fc1642694a8224f1a8df67f677f4c26-g.jpg,,
30240025,Сад и огород в доме,,,,Попов Е.Б.,1985,,Детская литература,,,120,Russian,,,,-,,,,,,,,,,,0,,,,,,0,1,48066991,pdf,fe06f74051bf5081ef51978cd47a993c,,,Попов Е.Б.;Сад и огород в доме;;;Детская литература;1985;-;;Russian,0,2000-01-01 01:00:00,2017-06-16 17:07:36,1631000/fe06f74051bf5081ef51978cd47a993c-g.jpg,,
30240026,Oceanografie. eseuri,,,,Mircea Eliade,1934,1st edition,Cultura Populara,București,304,304,Romanian,195,,0,-,,,,,,,,,,ocr by epistematic,0,,,,,,,1,17299949,pdf,f5e05a11cfc53acb1e4e292fa66c1bd2,,,Eliade Oceanografie 1934 ocr lipsa.pdf,0,2000-01-01 01:00:00,2017-06-16 17:07:36,1685000/f5e05a11cfc53acb1e4e292fa66c1bd2-g.jpg,,
30240027,Cum ne construim dușmanul: și alte scrieri ocazionale,,,,Umberto Eco,2007,3rd edition,Polirom,Iasi,352,352,Romanian,,,0,-,,,,,,,,,,"ocr by epistematic, scan sdr",300,,,,,,0,1,11499669,pdf,9d2e9c43400588086e983e18322889e4,,,Umberto Eco - Cum ne construim dușmanii ocr.pdf,0,2000-01-01 01:00:00,2017-06-16 17:07:36,1689000/9d2e9c43400588086e983e18322889e4-g.jpg,,
30240028,Bison and People on the North American Great Plains: A Deep Environmental History,,Connecting the Greater West Series,,"Geoff Cunfer, Bill Waiser",2016,,Texas A&M University Press,,344,341,English,,,0,"1623494745,9781623494742",,,,,,,,,,,0,,,,,,,1,81892891,pdf,9db50609a1de1c5609c90696e18b6fa1,,,Bison and People on the North American Great Plains. A Deep Environmental History.pdf,0,2000-01-01 01:00:00,2017-06-16 17:20:38,https://images-na.ssl-images-amazon.com/images/I/513eIYbOqeL.jpg,Canada;Exploration;First Nations;Founding;Pre-Confederation;Province & Local;Americas;History;Native American;Americas;History;State & Local;United States;Americas;History;Mammals;Animals;Biological Sciences;Science & Math;Natural History;Nature & Ecology;Science & Math;Conservation;Energy;Nature & Ecology;Science & Math;Hunting;Hunting & Fishing;Sports & Outdoors,"1623494745,9781623494742"
30240029,African Theatre 14: Contemporary Women,,,,"Martin Banham, James Gibbs, Femi Osofisan",2015,,James Currey,,160,158,English,,,0,"1847011314,9781847011312",,,,,,,,,,,0,,,,,,,1,32496280,pdf,eaf1981cc98c71c38705342f823ef5af,,,Contemporary Women.pdf,0,2000-01-01 01:00:00,2017-06-16 17:25:11,https://images-na.ssl-images-amazon.com/images/I/51hRx4T76KL.jpg,Drama;Genres & Styles;History & Criticism;Literature & Fiction,"1847011314,9781847011312"
30240030,What Went Wrong? the Nicaraguan Revolution: A Marxist Analysis,,Historical Materialism Book,,Dan LA Botz,2016,Lam,Brill Academic Pub,,0,429,English,,,0,"900429130X,9789004291300",,,,,,,,,,,0,,,,,,,1,1662752,pdf,d6df45a88468afd4414901b5b81e62d5,,,What Went Wrong. The Nicaraguan Revolution. A Marxist Analysis.pdf,0,2000-01-01 01:00:00,2017-06-16 17:27:00,https://images-na.ssl-images-amazon.com/images/I/41xyTyhYJjL.jpg,"Communism & Socialism;Ideologies & Doctrines;Politics & Government;Politics & Social Sciences;Political Ideologies;Political Science;Social Sciences;New, Used & Rental Textbooks;Specialty Boutique","900429130X,9789004291300"
30240031,Comrade Baron: A Journey through the Vanishing World of the Transylvanian Aristocracy,,,,Jaap Scholten,2016,,Helena History Press,,404,427,English,,,0,"1943596026,9781943596027",,,,,,,,,,,0,,,,,,,1,7976660,pdf,d38f0d5dd21ca51254345ad33228e2bd,,,Comrade Baron. A Journey through the Vanishing World of the Transylvanian Aristocracy.pdf,0,2000-01-01 01:00:00,2017-06-16 17:29:23,https://images-na.ssl-images-amazon.com/images/I/51gSjWzTM9L.jpg,Europe;Belgium;France;Germany;Great Britain;Greenland;Italy;Netherlands;Romania;Scandinavia;History;Historical Study & Educational Resources;Archaeology;Essays;Historical Geography;Historical Maps;Historiography;Reference;Study & Teaching;History;Class;Sociology;Politics & Social Sciences;Communism & Socialism;Ideologies & Doctrines;Politics & Government;Politics & Social Sciences;European;International & World Politics;Politics & Government;Politics & Social Sciences,"1943596026,9781943596027"
30240032,Atlantic Bonds: A Nineteenth-Century Odyssey from America to Africa,,H. Eugene and Lillian Youngs Lehman Series,,Lisa A. Lindsay,2017,,The University of North Carolina Press,,328,329,English,,,0,"1469631121,9781469631127",,,,,,,,,,,0,,,,,,,1,4767146,pdf,42e96cbdf2b592bb89ac7cb44d094df1,,,Atlantic Bonds. A Nineteenth-Century Odyssey from America to Africa.pdf,0,2000-01-01 01:00:00,2017-06-16 17:30:40,https://images-na.ssl-images-amazon.com/images/I/51HmYpIxfmL.jpg,African-American & Black;Ethnic & National;Biographies & Memoirs;United States;American Revolution;Civil War;US Presidents;Historical;Biographies & Memoirs;Africa;Historical;Biographies & Memoirs;Nigeria;Africa;History;West Africa;Africa;History;Abolition;Civil War;United States;Americas;History;Discrimination & Racism;Race Relations;Sociology;Politics & Social Sciences,"1469631121,9781469631127"
30240033,Romantic Mediations: Media Theory and British Romanticism,,"Suny Series, Studies in the Long Nineteenth Century",,Andrew Burkett,2016,,State Univ of New York Pr,,195,214,English,,,0,"1438463278,9781438463278",,,,,,,,,,,0,,,,,,,1,3867428,pdf,cf7e5789980bdde744819db434481d0b,,,Romantic Mediations. Media Theory and British Romanticism.pdf,0,2000-01-01 01:00:00,2017-06-16 17:32:45,https://images-na.ssl-images-amazon.com/images/I/41P1ppmYGQL.jpg,Gothic & Romantic;Movements & Periods;History & Criticism;Literature & Fiction;British & Irish;European;Regional & Cultural;History & Criticism;Literature & Fiction;British & Irish;Contemporary;Dramas & Plays;Historical;Horror;Humor & Satire;Literature;Poetry;Shakespeare;Literature & Fiction;Communication & Media Studies;Social Sciences;Politics & Social Sciences,"1438463278,9781438463278"
30240034,World Market Transformation: Inside the German Fur Capital Leipzig 1870 and 1939,,Routledge International Studies in Business History,,Robrecht Declercq,2017,1,Routledge,,248,248,English,,,0,"1138667250,9781138667259",,,,,,,,,,,0,,,,,,,1,5168451,pdf,ee3ef1499a18cf0a698948c2fa5de0f6,,,World Market Transformation. Inside the German Fur Capital Leipzig 1870-1939 .pdf,0,2000-01-01 01:00:00,2017-06-16 17:34:17,https://images-na.ssl-images-amazon.com/images/I/41zNTARvhzL.jpg,"Fashion & Textile;Industries;Business & Money;Exports & Imports;International;Business & Money;Economics;Economic Theory;Macroeconomics;Microeconomics;Business & Finance;New, Used & Rental Textbooks;Specialty Boutique;International Business;Business & Finance;New, Used & Rental Textbooks;Specialty Boutique","1138667250,9781138667259"
30240035,"Radical Poetry: Aesthetics, Politics, Technology, and the Ibero-American Avant-Gardes, 1900-2015",,Suny Series in Latin American and Iberian Thought and Culture,,Eduardo Ledesma,2016,,State University of New York Press,,348,360,English,,,0,"1438462018,9781438462011",,,,,,,,,,,0,,,,,,,1,18651629,pdf,8834952ab0d9d4f72ede248b20a05a92,,,"Radical Poetry. Aesthetics, Politics, Technology, and the Ibero-American Avant-Gardes, 1900-2015.pdf",0,2000-01-01 01:00:00,2017-06-16 17:37:35,https://images-na.ssl-images-amazon.com/images/I/51JLoDVRj4L.jpg,Criticism & Theory;History & Criticism;Literature & Fiction;Modernism;Movements & Periods;History & Criticism;Literature & Fiction;Poetry;Genres & Styles;History & Criticism;Literature & Fiction;Hispanic American;United States;Regional & Cultural;History & Criticism;Literature & Fiction;Spanish & Portuguese;European;Regional & Cultural;History & Criticism;Literature & Fiction,"1438462018,9781438462011"
30240036,A Galaxy Here and Now: Historical and Cultural Readings of Star Wars,,,,"Peter W. Lee, Peter W. Lee",2016,,McFarland,,256,255,English,,,0,"1476662207,9781476662206",,,,,,,,,,,0,,,,,,,1,2034002,pdf,86e9891a44612a71f76bf74ffe0a8e3c,,,A Galaxy Here and Now. Historical and Cultural Readings of Star Wars.pdf,0,2000-01-01 01:00:00,2017-06-16 17:39:04,https://images-na.ssl-images-amazon.com/images/I/51TaqqqhnvL.jpg,"Performing Arts;Dance;Individual Directors;Magic & Illusion;Reference;Theater;Arts & Photography;History & Criticism;Movies;Humor & Entertainment;Genre Films;Movies;Humor & Entertainment;Popular Culture;Social Sciences;Politics & Social Sciences;Film & Television;Performing Arts;Humanities;New, Used & Rental Textbooks;Specialty Boutique;Social Sciences;Anthropology;Archaeology;Criminology;Gay & Lesbian Studies;Gender Studies;Geography;Military Sciences;Political Science;Psychology;Sociology;New,","1476662207,9781476662206"
30240037,Thinking and Killing: Philosophical Discourse in the Shadow of the Third Reich,,,,Alon Segev,2013,,De Gruyter,,104,117,English,,,0,"1614511284,9781614511281",,,,,,,,,,,0,,,,,,,1,1414422,pdf,c56682c9833cc19abc1fe6a1d84f46a7,,,Thinking and Killing. Philosophical Discourse in the Shadow of the Third Reich.pdf,0,2000-01-01 01:00:00,2017-06-16 17:42:32,https://images-na.ssl-images-amazon.com/images/I/41GSeGrT2AL.jpg,"History;Africa;Americas;Arctic & Antarctica;Asia;Australia & Oceania;Europe;Middle East;Russia;United States;World;Ancient Civilizations;Military;Historical Study & Educational Resources;Modern;Philosophy;Politics & Social Sciences;History & Surveys;Philosophy;Humanities;New, Used & Rental Textbooks;Specialty Boutique","1614511284,9781614511281"
30240038,C# Księga Przykładów,,,,Jones Allen,2006,,,,526,526,Polish,,,0,,,,,,,,,,,Jakość: Skan zwektorowany,0,,,,,,,1,11631548,pdf,fd88d19d833ea8db79f5d68d27989704,,,C_ Księga Przykładów (2006) - Jones Allen [wersja 11 MB] [Sharp].pdf,0,2000-01-01 01:00:00,2017-06-16 17:48:35,,,
30240039,Театрал,,,,Греч Н.И.,1853,,Типография Н. Греча,,,162,Russian,,,,-,,,,,,,,,,,0,,,,,,0,1,37959134,pdf,25c2fd4d768b164089e605624a96fb6a,,,Греч Н.И.;Театрал;;;Типография Н. Греча;1853;-;;Russian,0,2000-01-01 01:00:00,2017-06-16 18:07:37,1573000/25c2fd4d768b164089e605624a96fb6a-g.jpg,,
30240040,Иллюстрированный практический путеводитель по Одессе,,,,Москвич Г.Г.,1904,,Типография Л. Нитче (Одесса),,,193,Russian,,,,-,,,,,,,,,,,0,,,,,,0,1,114294202,pdf,6056c19c1332a4c10e4a7a718155860f,,,Москвич Г.Г.;Иллюстрированный практический путеводитель по Одессе;;;Типография Л. Нитче (Одесса);1904;-;;Russian,0,2000-01-01 01:00:00,2017-06-16 18:07:37,1577000/6056c19c1332a4c10e4a7a718155860f-g.jpg,,
30240041,«Отчизну сердцем защитили»  Стихи поэтов Тейковского района,,,,,2011,,"ОАО «Издательство «Иваново»,",,,64,Russian,,,,-,,,,,,,,,,,0,,,,,,0,1,2010197,pdf,ca229279281b8a331bc80b0e6cfa53f2,,,";«Отчизну сердцем защитили»  Стихи поэтов Тейковского района;;;ОАО «Издательство «Иваново»,;2011;-;;Russian",0,2000-01-01 01:00:00,2017-06-16 18:07:37,1585000/ca229279281b8a331bc80b0e6cfa53f2-g.jpg,,
30240042,Recettes Angéliques. Le bœuf: Le goût d’être ensemble,,,,(Collective),2012,,INTERBEV,,0,32,French,,,0,-,,,,,,,,,,,0,,,,,,0,1,3164060,pdf,be017384eb788f84803d6cf2728a3a68,,,;Recettes Angliques. Le boeuf Le got d’tre ensemble;;;INTERBEV;2012;-;;French,0,2000-01-01 01:00:00,2017-06-16 18:07:37,1585000/be017384eb788f84803d6cf2728a3a68-g.jpg,,
30240043,A World Of Animals Vol. 2,,Painting- Animals,,Ana Bernabe,2002,,Viking folk Art,,,60,English,,,,-,,,,,,,,,,,0,,,,,,0,0,50405079,pdf,857f613ba692b86d043d09c24061c24a,,,Ana Bernabe;A World Of Animals Vol. 2;Painting- Animals;;Viking folk Art;2002;-;;English,0,2000-01-01 01:00:00,2017-06-16 18:07:37,1585000/857f613ba692b86d043d09c24061c24a-g.jpg,,
30240044,A World Of Animals Vol. 3,,Painting- Animals,,Ana Bernabe,2003,,Viking folk Art,,,65,English,,,,-,,,,,,,,,,,0,,,,,,0,0,46544505,pdf,d2dbe9b1e95bf109a85cf033d923f5a2,,,Ana Bernabe;A World Of Animals Vol. 3;Painting- Animals;;Viking folk Art;2003;-;;English,0,2000-01-01 01:00:00,2017-06-16 18:07:37,1585000/d2dbe9b1e95bf109a85cf033d923f5a2-g.jpg,,
30240045,20 Easy DIY Holiday Craft,,,,Collective,2015,,FloraCraft,,0,58,English,,,0,-,,,,,,,,,,,0,,,,,,0,1,19194778,pdf,b5d1f6e32d9acffad14ecfb28dac3ac6,,,"Collective;20 Easy DIY Holiday Craft;;;FloraCraft, Prime Publishing LLC;2015;-;;English",0,2000-01-01 01:00:00,2017-06-16 18:07:37,1585000/b5d1f6e32d9acffad14ecfb28dac3ac6-g.jpg,,
30240046,Описание 3-х линейной винтовки образца 1891 года,,,,,1891,,"Издание Офицерской стрелковой школы, Типография И,Н, Скороходова (СПб",,,16,Russian,,,,-,,,,,,,,,,,0,,,,,,0,1,20685620,pdf,3249fcdc9c40bf854fcfbf1ef55e4d9d,,,";Описание 3-х линейной винтовки образца 1891 года;;;Издание Офицерской стрелковой школы, Типография И,Н, Скороходова (СПб;1891;-;;Russian",0,2000-01-01 01:00:00,2017-06-16 18:07:37,1630000/3249fcdc9c40bf854fcfbf1ef55e4d9d-g.jpg,,
30240047,Третье отделение при Николае I,,,,Троцкий И.М.,1930,,Издательство Всесоюзного общества политкаторжан и ссыльно-поселенцев,,,74,Russian,,,,-,,,,,,,,,,,0,,,,,,0,1,39399144,pdf,e7c5d9cf33dd069059147f4c08996e2b,,,Троцкий И.М.;Третье отделение при Николае I;;;Издательство Всесоюзного общества политкаторжан и ссыльно-поселенцев;1930;-;;Russian,0,2000-01-01 01:00:00,2017-06-16 18:07:37,1630000/e7c5d9cf33dd069059147f4c08996e2b-g.jpg,,
30240048,Занимательные задачи и опыты,,,,Перельман Я.И.,1972,,Детская литература,,,472,Russian,,,,-,,,,,,,,,,,0,,,,,,0,1,167718439,pdf,0fc1642694a8224f1a8df67f677f4c26,,,Перельман Я.И.;Занимательные задачи и опыты;;;Детская литература;1972;-;;Russian,0,2000-01-01 01:00:00,2017-06-16 18:07:37,1630000/0fc1642694a8224f1a8df67f677f4c26-g.jpg,,
30240049,Сад и огород в доме,,,,Попов Е.Б.,1985,,Детская литература,,,120,Russian,,,,-,,,,,,,,,,,0,,,,,,0,1,48066991,pdf,fe06f74051bf5081ef51978cd47a993c,,,Попов Е.Б.;Сад и огород в доме;;;Детская литература;1985;-;;Russian,0,2000-01-01 01:00:00,2017-06-16 18:07:37,1631000/fe06f74051bf5081ef51978cd47a993c-g.jpg,,
30240050,Oceanografie. eseuri,,,,Mircea Eliade,1934,1st edition,Cultura Populara,București,304,304,Romanian,195,,0,-,,,,,,,,,,ocr by epistematic,0,,,,,,,1,17299949,pdf,f5e05a11cfc53acb1e4e292fa66c1bd2,,,Eliade Oceanografie 1934 ocr lipsa.pdf,0,2000-01-01 01:00:00,2017-06-16 18:07:37,1685000/f5e05a11cfc53acb1e4e292fa66c1bd2-g.jpg,,
30240051,Cum ne construim dușmanul: și alte scrieri ocazionale,,,,Umberto Eco,2007,3rd edition,Polirom,Iasi,352,352,Romanian,,,0,-,,,,,,,,,,"ocr by epistematic, scan sdr",300,,,,,,0,1,11499669,pdf,9d2e9c43400588086e983e18322889e4,,,Umberto Eco - Cum ne construim dușmanii ocr.pdf,0,2000-01-01 01:00:00,2017-06-16 18:07:37,1689000/9d2e9c43400588086e983e18322889e4-g.jpg,,
30240052,Tissue engineering of the aortic heart valve : fundamentals and developments,,Cardiology research and clinical developments series.,,"Morsi, Yosry S.",2012,,"Nova Biomedical, Nova Science Publishers, Inc.",Hauppauge New York,0,201,English,,,0,"9781619429628,1619429624",,,,,,,,,,,0,,,,,,,1,10771367,pdf,683987fc7bc8d2dd755effe1c57c7042,,,Tissue Engineering of the Aortic Heart Valve Fundamentals and De.pdf,0,2000-01-01 01:00:00,2017-06-16 18:09:42,http://coverart.oclc.org/ImageWebSvc/oclc/+-+151042703_140.jpg,Heart valve prosthesis;Aortic valve -- Transplantation;Tissue engineering;MEDICAL -- Surgery -- General;Electronic books,"9781619429628,1619429624"
30240053,Amplification as gloss in two twelfth-century texts: Robert de Boron’s Joseph d’Arimathie and Renault de Beaujeu’s Li Biaus Descouneüs,,PhD dissertation,,Joanne Rittey,1998,,University of Canterbury,Canterbury,308,308,English,102,,0,,,,,,,,,,,,0,,,,,,,1,15361116,pdf,58702470cbabccd67bcc7d7425f5ece9,,,rittey_thesis.pdf,0,2000-01-01 01:00:00,2017-06-16 18:23:06,,"Renaut de Beujeu, Le bel inconnu, Robert de Boron, Joseph d’Arimathie",
30240054,"The Electrification of Russia, 1880-1926",,,,Jonathan Coopersmith,1992,1,Cornell University Press,,274,289,English,,,0,"0801427231,9780801427237",,,,,,,,,,,0,,,,,,,1,7754017,pdf,489d036516ac28b3afa1745210e8e71d,,,"The Electrification of Russia, 1880-1926.pdf",0,2000-01-01 01:00:00,2017-06-16 18:31:53,https://images-na.ssl-images-amazon.com/images/I/51yGT6%2BtAdL.jpg,Economics;Banks & Banking;Commerce;Commercial Policy;Comparative;Development & Growth;Digital Currencies;Econometrics;Economic Conditions;Economic History;Economic Policy & Development;Environmental Economics;Free Enterprise;Income Inequality;Inflation;Interest;Labor & Industrial Relations;Macroeconomics;Microeconomics;Money & Monetary Policy;Public Finance;Sustainable Development;Theory;Unemployment;Urban & Regional;Business & Money;Russia;History;World;Civilization & Culture;Expeditions & Disc,"0801427231,9780801427237"
30240055,"Rewolucja: Russian Poland, 1904-1907",,,,Robert E. Blobaum,1995,1,Cornell University Press,,300,321,English,,,0,"0801430542,9780801430541",,,,,,,,,,,0,,,,,,,1,5960541,pdf,38dc54c2fb7092cbf5dd0a81514419c3,,,"Rewolucja. Russian Poland, 1904-1907.pdf",0,2000-01-01 01:00:00,2017-06-16 18:32:52,https://images-na.ssl-images-amazon.com/images/I/41MrA4J3IzL.jpg,"Germany;Europe;History;Russia;History;World;Civilization & Culture;Expeditions & Discoveries;Jewish;Maritime History & Piracy;Religious;Slavery & Emancipation;Women in History;History;Europe;History;Humanities;New, Used & Rental Textbooks;Specialty Boutique","0801430542,9780801430541"
30240056,Tracing Manuscripts in Time and Space Through Paratexts,,Studies in Manuscript Cultures,,"Giovanni Ciotti, Hang Lin",2016,,Walter De Gruyter Inc,,280,320,English,,,0,"3110473143,9783110473148",,,,,,,,,,,0,,,,,,,1,16263016,pdf,a5947ad6bf32bf9f1ed92c2b89428e98,,,Tracing Manuscripts in Time and Space through Paratexts.pdf,0,2000-01-01 01:00:00,2017-06-16 18:34:43,https://images-na.ssl-images-amazon.com/images/I/41BeDVx68nL.jpg,"Asian;Chinese;Indian;Japanese;Regional & Cultural;History & Criticism;Literature & Fiction;Asian;World Literature;Literature;Humanities;New, Used & Rental Textbooks;Specialty Boutique","3110473143,9783110473148"
30240057,Keys to Play: Music as a Ludic Medium from Apollo to Nintendo,,,,Roger Moseley,2016,,University of California Press,,470,470,English,,,0,"0520291247,9780520291249",,,,,,,,,,,0,,,,,,,1,10731729,pdf,ee5b9c48ad3a0aa4b906cc47244494b7,,,Keys to Play. Music as a Ludic Medium from Apollo to Nintendo.pdf,0,2000-01-01 01:00:00,2017-06-16 18:36:04,https://images-na.ssl-images-amazon.com/images/I/514vlnHDdjL.jpg,"History & Criticism;Music;Arts & Photography;Piano;Instruments;Music;Arts & Photography;Classical;Chamber Music;Orchestral Songbooks;Musical Genres;Music;Arts & Photography;Ethnomusicology;Ethnic & International;Musical Genres;Music;Arts & Photography;Philosophy & Social Aspects;Theory, Composition & Performance;Music;Arts & Photography","0520291247,9780520291249"
30240058,Counter-Memorial Aesthetics: Refugee Histories and the Politics of Contemporary Art,,Radical Aesthetics-Radical Art,,"Veronica Tello, Gillian Whiteley, Jane Tormey",2016,,Bloomsbury Academic,,272,273,English,,,0,"1474252745,9781474252744",,,,,,,,,,,0,,,,,,,1,2719240,pdf,62d8182729d447922157e6a052b51260,,,Counter-Memorial Aesthetics. Refugee Histories and the Politics of Contemporary Art.pdf,0,2000-01-01 01:00:00,2017-06-16 18:37:38,https://images-na.ssl-images-amazon.com/images/I/51L2EfaMajL.jpg,"Aesthetics;Philosophy;Politics & Social Sciences;History & Surveys;Philosophy;Politics & Social Sciences;Political;Philosophy;Politics & Social Sciences;International & World Politics;Arms Control;Diplomacy;Security;Trades & Tariffs;Treaties;African;Asian;Australian & Oceanian;Canadian;Caribbean & Latin American;European;Middle Eastern;Russian & Former Soviet Union;Politics & Government;Politics & Social Sciences;Aesthetics;Philosophy;Humanities;New, Used & Rental Textbooks;Specialty Boutique;Hi","1474252745,9781474252744"
30240059,Beastly Journeys: Travel and Transformation at the fin de siècle,,Liverpool English Texts and Studies,,Tim Youngs,2014,1,Liverpool University Press,,288,235,English,,,0,"1846319587,9781846319587",,,,,,,,,,,0,,,,,,,1,1192727,pdf,d6c2c0b5db131e5646b4b0a317738c49,,,Beastly Journeys. Travel and Transformation at the fin de siècle.pdf,0,2000-01-01 01:00:00,2017-06-16 18:39:34,https://images-na.ssl-images-amazon.com/images/I/51XbqqVSH7L.jpg,"Comparative Literature;History & Criticism;Literature & Fiction;Literature;American Literature;Creative Writing & Composition;English Literature;Literary Theory;World Literature;Humanities;New, Used & Rental Textbooks;Specialty Boutique","1846319587,9781846319587"
30240060,After the Break: Television Theory Today,,Amsterdam University Press - Televisual Culture,,"Marijke de Valck, Jan Teurlings",2013,,Amsterdam University Press,,204,204,English,,,0,"9089645225,9789089645227",,,,,,,,,,,0,,,,,,,1,3069515,pdf,b6271f6cf85cc3b3373261986627c729,,,After the Break. Television Theory Today.pdf,0,2000-01-01 01:00:00,2017-06-16 18:40:47,https://images-na.ssl-images-amazon.com/images/I/51hpSSmRUwL.jpg,Film & Video Art;Photography & Video;Arts & Photography,"9089645225,9789089645227"
30240061,Synaesthesia and the Ancient Senses,,The Senses in Antiquity,,"Shane Butler, Alex C. Purves",2013,,Routledge,,240,239,English,,,0,"184465561X,9781844655618",,,,,,,,,,,0,,,,,,,1,1848115,pdf,fdd9bb1456f1534145fa870cc7a70ce0,,,Synaesthesia and the Ancient Senses.pdf,0,2000-01-01 01:00:00,2017-06-16 18:41:55,https://images-na.ssl-images-amazon.com/images/I/512FBbH6QbL.jpg,"Medieval;Movements & Periods;History & Criticism;Literature & Fiction;Ancient & Classical;Movements & Periods;History & Criticism;Literature & Fiction;Greek & Roman;Philosophy;Politics & Social Sciences;Literature;American Literature;Creative Writing & Composition;English Literature;Literary Theory;World Literature;Humanities;New, Used & Rental Textbooks;Specialty Boutique;Ancient;History;Humanities;New, Used & Rental Textbooks;Specialty Boutique;History & Surveys;Philosophy;Humanities;New, Used","184465561X,9781844655618"
30240062,Composing the Party Line: Music and Politics in Early Cold War Poland and East Germany,,Central European Studies,,David G. Tompkins,2013,,Purdue University Press,,290,314,English,,,0,"1557536473,9781557536471",,,,,,,,,,,0,,,,,,,1,18238932,pdf,f7439b0cbf49da090ce6dcb7b12a3b91,,,Composing the Party Line. Music and Politics in Early Cold War Poland and East Germany.pdf,0,2000-01-01 01:00:00,2017-06-16 18:44:04,https://images-na.ssl-images-amazon.com/images/I/51QvYHgXDYL.jpg,Ethnomusicology;Ethnic & International;Musical Genres;Music;Arts & Photography;International;Ethnic & International;Musical Genres;Music;Arts & Photography;Germany;Europe;History;World;Civilization & Culture;Expeditions & Discoveries;Jewish;Maritime History & Piracy;Religious;Slavery & Emancipation;Women in History;History;Communism & Socialism;Ideologies & Doctrines;Politics & Government;Politics & Social Sciences;European;International & World Politics;Politics & Government;Politics & Social S,"1557536473,9781557536471"
30240063,Imagined Theatres: Writing for a Theoretical Stage,,,,Daniel Sack,2017,1,Routledge,,312,313,English,,,0,"1138122041,9781138122048",,,,,,,,,,,0,,,,,,,1,4113639,pdf,c0b4d04075f27759a90d3d8bb24869e7,,,Imagined Theatres. Writing for a Theoretical Stage.pdf,0,2000-01-01 01:00:00,2017-06-16 18:51:18,https://images-na.ssl-images-amazon.com/images/I/31yp4u3SlCL.jpg,"History & Criticism;Theater;Performing Arts;Arts & Photography;Stagecraft;Theater;Performing Arts;Arts & Photography;Dramas & Plays;Ancient & Classical;Anthologies;British & Irish;Children’s;Comedy;LGBT;Medieval;Regional & Cultural;Religious & Liturgical;Shakespeare;Tragedy;United States;Women Authors;Literature & Fiction;Literature;American Literature;Creative Writing & Composition;English Literature;Literary Theory;World Literature;Humanities;New, Used & Rental Textbooks;Specialty Boutique;T","1138122041,9781138122048"
30240064,Hesychasm and Art: The Appearance of New Iconographic Trends in Byzantine and Slavic Lands in the 14th and 15th Centuries,,,,Anita Strezova,2014,,ANU Press,,328,328,English,,,0,"1925021831,9781925021837",,,,,,,,,,,0,,,,,,,1,4543660,pdf,d0e7da4df1e6a4e61d9062aa5f5d4601,,,Hesychasm and Art. The Appearance of New Iconographic Trends in Byzantine and Slavic Lands in the 14th and 15th Centuries.pdf,0,2000-01-01 01:00:00,2017-06-16 18:52:29,https://images-na.ssl-images-amazon.com/images/I/417SXl8cikL.jpg,Criticism;History & Criticism;Arts & Photography,"1925021831,9781925021837"
30240065,Fashion Meets Socialism: Fashion Industry in the Soviet Union after the Second World War,,,,"Jukka Gronow, Sergey Zhuravlev",2015,,Finish Literature Society,,303,306,English,,,0,"9522226653,9789522226655",,,,,,,,,,,0,,,,,,,1,7021878,pdf,3674833e9e2f05780f1d42f9df59ff1b,,,Fashion Meets Socialism. Fashion Industry in the Soviet Union after the Second World War.pdf,0,2000-01-01 01:00:00,2017-06-16 18:53:31,https://images-na.ssl-images-amazon.com/images/I/41kjyKhM5-L.jpg,Fashion;Designers;Fashion Photography;History;Models;Arts & Photography,"9522226653,9789522226655"
30240066,Imagined Theatres: Writing for a Theoretical Stage,,,,Daniel Sack,2017,1,Routledge,,312,313,English,,,0,"1138122041,9781138122048",,,,,,,,,,,0,,,,,,,1,4113639,pdf,c0b4d04075f27759a90d3d8bb24869e7,,,Imagined Theatres. Writing for a Theoretical Stage.pdf,0,2000-01-01 01:00:00,2017-06-16 18:54:05,1693000/c0b4d04075f27759a90d3d8bb24869e7-d.jpg,"History & Criticism;Theater;Performing Arts;Arts & Photography;Stagecraft;Theater;Performing Arts;Arts & Photography;Dramas & Plays;Ancient & Classical;Anthologies;British & Irish;Children’s;Comedy;LGBT;Medieval;Regional & Cultural;Religious & Liturgical;Shakespeare;Tragedy;United States;Women Authors;Literature & Fiction;Literature;American Literature;Creative Writing & Composition;English Literature;Literary Theory;World Literature;Humanities;New, Used & Rental Textbooks;Specialty Boutique;T","1138122041,9781138122048"
30240067,Imagined Theatres: Writing for a Theoretical Stage,,,,Daniel Sack,2017,1,Routledge,,312,313,English,,,0,"1138122041,9781138122048",,,,,,,,,,,0,,,,,,,1,4113639,pdf,c0b4d04075f27759a90d3d8bb24869e7,,,Imagined Theatres. Writing for a Theoretical Stage.pdf,0,2000-01-01 01:00:00,2017-06-16 18:54:11,,"History & Criticism;Theater;Performing Arts;Arts & Photography;Stagecraft;Theater;Performing Arts;Arts & Photography;Dramas & Plays;Ancient & Classical;Anthologies;British & Irish;Children’s;Comedy;LGBT;Medieval;Regional & Cultural;Religious & Liturgical;Shakespeare;Tragedy;United States;Women Authors;Literature & Fiction;Literature;American Literature;Creative Writing & Composition;English Literature;Literary Theory;World Literature;Humanities;New, Used & Rental Textbooks;Specialty Boutique;T","1138122041,9781138122048"
30240068,"Alienation Effects: Performance and Self-Management in Yugoslavia, 1945-91",,Theater: Theory/Text/Performance,,Branislav Jakovljevic,2016,,University of Michigan Press,,382,383,English,,,0,"0472073141,9780472073146",,,,,,,,,,,0,,,,,,,1,3104456,pdf,99c652bbc5eca8c9d1eb1647a6d6a8d0,,,"Alienation Effects. Performance and Self-Management In Yugoslavia, 1945-91.pdf",0,2000-01-01 01:00:00,2017-06-16 18:54:27,https://images-na.ssl-images-amazon.com/images/I/61sR1MrlrOL.jpg,History & Criticism;Theater;Performing Arts;Arts & Photography;Humor & Entertainment;Humor;Movies;Performing Arts;Pop Culture;Puzzles & Games;Radio;Sheet Music & Scores;Television;Trivia & Fun Facts;Europe;Belgium;France;Germany;Great Britain;Greenland;Italy;Netherlands;Romania;Scandinavia;History,"0472073141,9780472073146"
30240069,"Of Elephants and Toothaches: Ethics, Politics, and Religion in Krzysztof Kieslowski’s Decalogue",,,,"Eva Badowska, Francesca Parmeggiani",2016,1,Fordham University Press,,288,253,English,,,0,"0823267105,9780823267101",,,,,,,,,,,0,,,,,,,1,4517582,pdf,5a0cb6e9e02dc65ef4e932ec41fb2b26,,,"Of Elephants and Toothaches. Ethics, Politics, and Religion in Krzysztof Kieslowski__039;s Decalogue.pdf",0,2000-01-01 01:00:00,2017-06-16 18:55:48,https://images-na.ssl-images-amazon.com/images/I/41XoQEUrbsL.jpg,Performing Arts;Dance;Individual Directors;Magic & Illusion;Reference;Theater;Arts & Photography;History & Criticism;Movies;Humor & Entertainment;Theory;Movies;Humor & Entertainment;Shows;Television;Humor & Entertainment;Movements & Periods;Ancient & Classical;Arthurian Romance;Beat Generation;Feminist;Gothic & Romantic;LGBT;Medieval;Modern;Modernism;Postmodernism;Renaissance;Shakespeare;Surrealism;Victorian;History & Criticism;Literature & Fiction;Ethics & Morality;Philosophy;Politics & Social ,"0823267105,9780823267101"
30240070,Marshall Plan Modernism: Italian Postwar Abstraction and the Beginnings of Autonomia,,Art History Publication Initiative,,Jaleh Mansoor,2016,,Duke University Press,,288,296,English,,,0,"0822362457,9780822362456",,,,,,,,,,,0,,,,,,,1,12381271,pdf,8d29b62348b04d0190c1940c47305f87,,,Marshall Plan Modernism. Italian Postwar Abstraction and the Beginnings of Autonomia.pdf,0,2000-01-01 01:00:00,2017-06-16 18:57:26,https://images-na.ssl-images-amazon.com/images/I/41lAAel5apL.jpg,Criticism;History & Criticism;Arts & Photography;History;History & Criticism;Arts & Photography,"0822362457,9780822362456"
30240071,Prelude to the Dust Bowl: Drought in the Nineteenth-Century Southern Plains,,,,Kevin Z. Sweeney,2016,,University of Oklahoma Press,,304,300,English,,,0,"0806153407,9780806153407",,,,,,,,,,,0,,,,,,,1,50796655,pdf,f363b0ecac12ebd2c47c2edb52cf12a2,,,Prelude to the Dust Bowl. Drought in the Nineteenth-Century Southern Plains.pdf,0,2000-01-01 01:00:00,2017-06-16 19:00:29,https://images-na.ssl-images-amazon.com/images/I/51PJrWbD7oL.jpg,Native American;Americas;History;State & Local;United States;Americas;History;Environmental Science;Earth Sciences;Science & Math;Natural Disasters;Earth Sciences;Science & Math;Weather;Environment;Science & Math,"0806153407,9780806153407"
30240072,Kearny’s Dragoons Out West: The Birth of the U.S. Cavalry,,,,"Will Gorenfeld, John Gorenfeld",2016,,University of Oklahoma Press,,480,481,English,,,0,"0806153946,9780806153940",,,,,,,,,,,0,,,,,,,1,47398070,pdf,4aacca8dfda40ff79fbe8107dc8c0fb2,,,Kearny__039;s Dragoons Out West. The Birth of the U.S. Cavalry.pdf,0,2000-01-01 01:00:00,2017-06-16 19:03:51,https://images-na.ssl-images-amazon.com/images/I/51YkfA-9mZL.jpg,United States;African Americans;Civil War;Colonial Period;Immigrants;Revolution & Founding;State & Local;Americas;History;United States;Civil War;Operation Desert Storm;Veterans;Vietnam War;Military;History,"0806153946,9780806153940"
30240073,Borderlands of Slavery: The Struggle over Captivity and Peonage in the American Southwest,,America in the Nineteenth Century,,William S. Kiser,2017,,University of Pennsylvania Press,,280,275,English,,,0,"0812249038,9780812249033",,,,,,,,,,,0,,,,,,,1,4386366,pdf,7fa6269347ed0a88c86f1e3fc129b4a2,,,Borderlands of Slavery. The Struggle over Captivity and Peonage in the American Southwest.pdf,0,2000-01-01 01:00:00,2017-06-16 19:04:39,https://images-na.ssl-images-amazon.com/images/I/51MJWVt48bL.jpg,Native American;Americas;History;State & Local;United States;Americas;History;Historical Study & Educational Resources;Archaeology;Essays;Historical Geography;Historical Maps;Historiography;Reference;Study & Teaching;History;Discrimination & Racism;Race Relations;Sociology;Politics & Social Sciences,"0812249038,9780812249033"
30240074,Театрал,,,,Греч Н.И.,1853,,Типография Н. Греча,,,162,Russian,,,,-,,,,,,,,,,,0,,,,,,0,1,37959134,pdf,25c2fd4d768b164089e605624a96fb6a,,,Греч Н.И.;Театрал;;;Типография Н. Греча;1853;-;;Russian,0,2000-01-01 01:00:00,2017-06-16 19:07:37,1573000/25c2fd4d768b164089e605624a96fb6a-g.jpg,,
30240075,Иллюстрированный практический путеводитель по Одессе,,,,Москвич Г.Г.,1904,,Типография Л. Нитче (Одесса),,,193,Russian,,,,-,,,,,,,,,,,0,,,,,,0,1,114294202,pdf,6056c19c1332a4c10e4a7a718155860f,,,Москвич Г.Г.;Иллюстрированный практический путеводитель по Одессе;;;Типография Л. Нитче (Одесса);1904;-;;Russian,0,2000-01-01 01:00:00,2017-06-16 19:07:37,1577000/6056c19c1332a4c10e4a7a718155860f-g.jpg,,
30240076,«Отчизну сердцем защитили»  Стихи поэтов Тейковского района,,,,,2011,,"ОАО «Издательство «Иваново»,",,,64,Russian,,,,-,,,,,,,,,,,0,,,,,,0,1,2010197,pdf,ca229279281b8a331bc80b0e6cfa53f2,,,";«Отчизну сердцем защитили»  Стихи поэтов Тейковского района;;;ОАО «Издательство «Иваново»,;2011;-;;Russian",0,2000-01-01 01:00:00,2017-06-16 19:07:37,1585000/ca229279281b8a331bc80b0e6cfa53f2-g.jpg,,
30240077,Recettes Angéliques. Le bœuf: Le goût d’être ensemble,,,,(Collective),2012,,INTERBEV,,0,32,French,,,0,-,,,,,,,,,,,0,,,,,,0,1,3164060,pdf,be017384eb788f84803d6cf2728a3a68,,,;Recettes Angliques. Le boeuf Le got d’tre ensemble;;;INTERBEV;2012;-;;French,0,2000-01-01 01:00:00,2017-06-16 19:07:37,1585000/be017384eb788f84803d6cf2728a3a68-g.jpg,,
30240078,A World Of Animals Vol. 2,,Painting- Animals,,Ana Bernabe,2002,,Viking folk Art,,,60,English,,,,-,,,,,,,,,,,0,,,,,,0,0,50405079,pdf,857f613ba692b86d043d09c24061c24a,,,Ana Bernabe;A World Of Animals Vol. 2;Painting- Animals;;Viking folk Art;2002;-;;English,0,2000-01-01 01:00:00,2017-06-16 19:07:37,1585000/857f613ba692b86d043d09c24061c24a-g.jpg,,
30240079,A World Of Animals Vol. 3,,Painting- Animals,,Ana Bernabe,2003,,Viking folk Art,,,65,English,,,,-,,,,,,,,,,,0,,,,,,0,0,46544505,pdf,d2dbe9b1e95bf109a85cf033d923f5a2,,,Ana Bernabe;A World Of Animals Vol. 3;Painting- Animals;;Viking folk Art;2003;-;;English,0,2000-01-01 01:00:00,2017-06-16 19:07:37,1585000/d2dbe9b1e95bf109a85cf033d923f5a2-g.jpg,,
30240080,20 Easy DIY Holiday Craft,,,,Collective,2015,,FloraCraft,,0,58,English,,,0,-,,,,,,,,,,,0,,,,,,0,1,19194778,pdf,b5d1f6e32d9acffad14ecfb28dac3ac6,,,"Collective;20 Easy DIY Holiday Craft;;;FloraCraft, Prime Publishing LLC;2015;-;;English",0,2000-01-01 01:00:00,2017-06-16 19:07:37,1585000/b5d1f6e32d9acffad14ecfb28dac3ac6-g.jpg,,
30240081,Описание 3-х линейной винтовки образца 1891 года,,,,,1891,,"Издание Офицерской стрелковой школы, Типография И,Н, Скороходова (СПб",,,16,Russian,,,,-,,,,,,,,,,,0,,,,,,0,1,20685620,pdf,3249fcdc9c40bf854fcfbf1ef55e4d9d,,,";Описание 3-х линейной винтовки образца 1891 года;;;Издание Офицерской стрелковой школы, Типография И,Н, Скороходова (СПб;1891;-;;Russian",0,2000-01-01 01:00:00,2017-06-16 19:07:37,1630000/3249fcdc9c40bf854fcfbf1ef55e4d9d-g.jpg,,
30240082,Третье отделение при Николае I,,,,Троцкий И.М.,1930,,Издательство Всесоюзного общества политкаторжан и ссыльно-поселенцев,,,74,Russian,,,,-,,,,,,,,,,,0,,,,,,0,1,39399144,pdf,e7c5d9cf33dd069059147f4c08996e2b,,,Троцкий И.М.;Третье отделение при Николае I;;;Издательство Всесоюзного общества политкаторжан и ссыльно-поселенцев;1930;-;;Russian,0,2000-01-01 01:00:00,2017-06-16 19:07:37,1630000/e7c5d9cf33dd069059147f4c08996e2b-g.jpg,,
30240083,Занимательные задачи и опыты,,,,Перельман Я.И.,1972,,Детская литература,,,472,Russian,,,,-,,,,,,,,,,,0,,,,,,0,1,167718439,pdf,0fc1642694a8224f1a8df67f677f4c26,,,Перельман Я.И.;Занимательные задачи и опыты;;;Детская литература;1972;-;;Russian,0,2000-01-01 01:00:00,2017-06-16 19:07:37,1630000/0fc1642694a8224f1a8df67f677f4c26-g.jpg,,
30240084,Сад и огород в доме,,,,Попов Е.Б.,1985,,Детская литература,,,120,Russian,,,,-,,,,,,,,,,,0,,,,,,0,1,48066991,pdf,fe06f74051bf5081ef51978cd47a993c,,,Попов Е.Б.;Сад и огород в доме;;;Детская литература;1985;-;;Russian,0,2000-01-01 01:00:00,2017-06-16 19:07:37,1631000/fe06f74051bf5081ef51978cd47a993c-g.jpg,,
30240085,Oceanografie. eseuri,,,,Mircea Eliade,1934,1st edition,Cultura Populara,București,304,304,Romanian,195,,0,-,,,,,,,,,,ocr by epistematic,0,,,,,,,1,17299949,pdf,f5e05a11cfc53acb1e4e292fa66c1bd2,,,Eliade Oceanografie 1934 ocr lipsa.pdf,0,2000-01-01 01:00:00,2017-06-16 19:07:37,1685000/f5e05a11cfc53acb1e4e292fa66c1bd2-g.jpg,,
30240086,Cum ne construim dușmanul: și alte scrieri ocazionale,,,,Umberto Eco,2007,3rd edition,Polirom,Iasi,352,352,Romanian,,,0,-,,,,,,,,,,"ocr by epistematic, scan sdr",300,,,,,,0,1,11499669,pdf,9d2e9c43400588086e983e18322889e4,,,Umberto Eco - Cum ne construim dușmanii ocr.pdf,0,2000-01-01 01:00:00,2017-06-16 19:07:37,1689000/9d2e9c43400588086e983e18322889e4-g.jpg,,
30240087,Para a crítica do direito,,1,,"Oswaldo Akamine Junior, Celso Naoto Kashiura Junior, Tarso de Melo",2015,,Outras Expressões / Dobra,São Paulo,818,818,Portuguese,313,,0,9788564421936,,,,,,,,,,,0,,,,,,,0,6088381,pdf,87b7e20896dade21f8c283f0bb7cc878,,,Para-a-crítica-do-direito.pdf,0,2000-01-01 01:00:00,2017-06-16 19:19:34,,,9788564421936
30240088,"Tempo e o Outro, O: Como a Antropologia Estabelece seu Objeto",,,,Johannes Fabian,2013,Cincias Humanas e Sociais,Vozes,,0,211,Portuguese Brazilian,,,0,"853264595X,9788532645951",,,,,,,,,,,0,,,,,,,1,13377140,pdf,2b09e20ecac3f096284f183b87f2cf40,,,Johannes Fabian - O Tempo e o Outro [OCR].pdf,0,2000-01-01 01:00:00,2017-06-16 19:58:19,https://images-na.ssl-images-amazon.com/images/I/41h84kY%2BoWL.jpg,"Arts & Photography;Biographies & Memoirs;Business & Money;Calendars;Comics & Graphic Novels;Computers & Technology;Cookbooks, Food & Wine;Crafts, Hobbies & Home;Education & Teaching;Engineering & Transportation;Gay & Lesbian;Health, Fitness & Dieting;History;Humor & Entertainment;Law;Literature & Fiction;Mystery, Thriller & Suspense;Parenting & Relationships;Politics & Social Sciences;Reference;Religion & Spirituality;Romance;Science & Math;Science Fiction & Fantasy;Self-Help;Sports & Outdoors;T","853264595X,9788532645951"
30240089,The Cambridge Companion to the String Quartet,,Cambridge Companions to Music,,Robin Stowell,2003,First,Cambridge University Press,,375,0,English,61,,0,9780521000420 / 0521000424,,,,,,,,,,,0,,,,,,,,3268429,epub,5d5c4ca82026750b8607c596b7a78297,,,The Cambridge Companion to the String Quartet (Cambridge Companions to Music).epub,0,2000-01-01 01:00:00,2017-06-16 20:00:13,,#String Quartet #The Cambridge Companion to String Quartet #Cambridge Companions to Music # Robin Stowell,9780521000420/0521000424
30240090,Revenue raising and legitimacy : tax collection and finance administration in the ottoman empire 1560-1660,,The ottoman empire and its heritage 6,,"Darling, Linda T.",1996,,Brill,Leiden,368,381,English,,,0,"9789004102897,9004102892",,,,,,,,,,,0,0,1,1,1,1,1,1,43361836,pdf,18fe2eab43088d08a58aed9d16aaec1b,,,Binder1.pdf,0,2000-01-01 01:00:00,2017-06-16 20:07:25,http://coverart.oclc.org/ImageWebSvc/oclc/+-+953823403_140.jpg,,"9789004102897,9004102892"
30240091,Театрал,,,,Греч Н.И.,1853,,Типография Н. Греча,,,162,Russian,,,,-,,,,,,,,,,,0,,,,,,0,1,37959134,pdf,25c2fd4d768b164089e605624a96fb6a,,,Греч Н.И.;Театрал;;;Типография Н. Греча;1853;-;;Russian,0,2000-01-01 01:00:00,2017-06-16 20:07:37,1573000/25c2fd4d768b164089e605624a96fb6a-g.jpg,,
30240092,Иллюстрированный практический путеводитель по Одессе,,,,Москвич Г.Г.,1904,,Типография Л. Нитче (Одесса),,,193,Russian,,,,-,,,,,,,,,,,0,,,,,,0,1,114294202,pdf,6056c19c1332a4c10e4a7a718155860f,,,Москвич Г.Г.;Иллюстрированный практический путеводитель по Одессе;;;Типография Л. Нитче (Одесса);1904;-;;Russian,0,2000-01-01 01:00:00,2017-06-16 20:07:37,1577000/6056c19c1332a4c10e4a7a718155860f-g.jpg,,
30240093,«Отчизну сердцем защитили»  Стихи поэтов Тейковского района,,,,,2011,,"ОАО «Издательство «Иваново»,",,,64,Russian,,,,-,,,,,,,,,,,0,,,,,,0,1,2010197,pdf,ca229279281b8a331bc80b0e6cfa53f2,,,";«Отчизну сердцем защитили»  Стихи поэтов Тейковского района;;;ОАО «Издательство «Иваново»,;2011;-;;Russian",0,2000-01-01 01:00:00,2017-06-16 20:07:37,1585000/ca229279281b8a331bc80b0e6cfa53f2-g.jpg,,
30240094,Recettes Angéliques. Le bœuf: Le goût d’être ensemble,,,,(Collective),2012,,INTERBEV,,0,32,French,,,0,-,,,,,,,,,,,0,,,,,,0,1,3164060,pdf,be017384eb788f84803d6cf2728a3a68,,,;Recettes Angliques. Le boeuf Le got d’tre ensemble;;;INTERBEV;2012;-;;French,0,2000-01-01 01:00:00,2017-06-16 20:07:37,1585000/be017384eb788f84803d6cf2728a3a68-g.jpg,,
30240095,A World Of Animals Vol. 2,,Painting- Animals,,Ana Bernabe,2002,,Viking folk Art,,,60,English,,,,-,,,,,,,,,,,0,,,,,,0,0,50405079,pdf,857f613ba692b86d043d09c24061c24a,,,Ana Bernabe;A World Of Animals Vol. 2;Painting- Animals;;Viking folk Art;2002;-;;English,0,2000-01-01 01:00:00,2017-06-16 20:07:37,1585000/857f613ba692b86d043d09c24061c24a-g.jpg,,
30240096,A World Of Animals Vol. 3,,Painting- Animals,,Ana Bernabe,2003,,Viking folk Art,,,65,English,,,,-,,,,,,,,,,,0,,,,,,0,0,46544505,pdf,d2dbe9b1e95bf109a85cf033d923f5a2,,,Ana Bernabe;A World Of Animals Vol. 3;Painting- Animals;;Viking folk Art;2003;-;;English,0,2000-01-01 01:00:00,2017-06-16 20:07:37,1585000/d2dbe9b1e95bf109a85cf033d923f5a2-g.jpg,,
30240097,20 Easy DIY Holiday Craft,,,,Collective,2015,,FloraCraft,,0,58,English,,,0,-,,,,,,,,,,,0,,,,,,0,1,19194778,pdf,b5d1f6e32d9acffad14ecfb28dac3ac6,,,"Collective;20 Easy DIY Holiday Craft;;;FloraCraft, Prime Publishing LLC;2015;-;;English",0,2000-01-01 01:00:00,2017-06-16 20:07:37,1585000/b5d1f6e32d9acffad14ecfb28dac3ac6-g.jpg,,
30240098,Описание 3-х линейной винтовки образца 1891 года,,,,,1891,,"Издание Офицерской стрелковой школы, Типография И,Н, Скороходова (СПб",,,16,Russian,,,,-,,,,,,,,,,,0,,,,,,0,1,20685620,pdf,3249fcdc9c40bf854fcfbf1ef55e4d9d,,,";Описание 3-х линейной винтовки образца 1891 года;;;Издание Офицерской стрелковой школы, Типография И,Н, Скороходова (СПб;1891;-;;Russian",0,2000-01-01 01:00:00,2017-06-16 20:07:37,1630000/3249fcdc9c40bf854fcfbf1ef55e4d9d-g.jpg,,
30240099,Третье отделение при Николае I,,,,Троцкий И.М.,1930,,Издательство Всесоюзного общества политкаторжан и ссыльно-поселенцев,,,74,Russian,,,,-,,,,,,,,,,,0,,,,,,0,1,39399144,pdf,e7c5d9cf33dd069059147f4c08996e2b,,,Троцкий И.М.;Третье отделение при Николае I;;;Издательство Всесоюзного общества политкаторжан и ссыльно-поселенцев;1930;-;;Russian,0,2000-01-01 01:00:00,2017-06-16 20:07:37,1630000/e7c5d9cf33dd069059147f4c08996e2b-g.jpg,,
30240100,Занимательные задачи и опыты,,,,Перельман Я.И.,1972,,Детская литература,,,472,Russian,,,,-,,,,,,,,,,,0,,,,,,0,1,167718439,pdf,0fc1642694a8224f1a8df67f677f4c26,,,Перельман Я.И.;Занимательные задачи и опыты;;;Детская литература;1972;-;;Russian,0,2000-01-01 01:00:00,2017-06-16 20:07:37,1630000/0fc1642694a8224f1a8df67f677f4c26-g.jpg,,
30240101,Сад и огород в доме,,,,Попов Е.Б.,1985,,Детская литература,,,120,Russian,,,,-,,,,,,,,,,,0,,,,,,0,1,48066991,pdf,fe06f74051bf5081ef51978cd47a993c,,,Попов Е.Б.;Сад и огород в доме;;;Детская литература;1985;-;;Russian,0,2000-01-01 01:00:00,2017-06-16 20:07:37,1631000/fe06f74051bf5081ef51978cd47a993c-g.jpg,,
30240102,Oceanografie. eseuri,,,,Mircea Eliade,1934,1st edition,Cultura Populara,București,304,304,Romanian,195,,0,-,,,,,,,,,,ocr by epistematic,0,,,,,,,1,17299949,pdf,f5e05a11cfc53acb1e4e292fa66c1bd2,,,Eliade Oceanografie 1934 ocr lipsa.pdf,0,2000-01-01 01:00:00,2017-06-16 20:07:37,1685000/f5e05a11cfc53acb1e4e292fa66c1bd2-g.jpg,,
30240103,Cum ne construim dușmanul: și alte scrieri ocazionale,,,,Umberto Eco,2007,3rd edition,Polirom,Iasi,352,352,Romanian,,,0,-,,,,,,,,,,"ocr by epistematic, scan sdr",300,,,,,,0,1,11499669,pdf,9d2e9c43400588086e983e18322889e4,,,Umberto Eco - Cum ne construim dușmanii ocr.pdf,0,2000-01-01 01:00:00,2017-06-16 20:07:37,1689000/9d2e9c43400588086e983e18322889e4-g.jpg,,
30240104,The Cambridge Companion to the Piano,,Cambridge Companions to Music,,David Rowland (Editor),1998,First,Cambridge University Press,,240,0,English,61,,0,9780521479868 / 052147986X,,,,,,,,,,,0,,,,,,,,3013232,epub,6fe49c51b5cb2523e7f1643f039a6a54,,,The Cambridge Companion to the Piano (Cambridge Companions to Music).epub,0,2000-01-01 01:00:00,2017-06-16 20:09:02,,#Piano #The Cambridge Companion to the Piano #Cambridge Companions to Music #David Rowland,9780521479868/052147986X
30240105,The Cambridge Companion to the Orchestra,,Cambridge Companions to Music,,Colin Lawson (Editor),2003,First,Cambridge University Press,,335,0,English,61,,0,"0521001323,9780521001328",,,,,,,,,,,0,,,,,,,,3371735,epub,dd57b663363a2770cd29912e50cf0aef,,,The Cambridge Companion to the Orchestra (Cambridge Companions to Music).epub,0,2000-01-01 01:00:00,2017-06-16 20:19:44,https://images-na.ssl-images-amazon.com/images/I/614mZGUREvL.jpg,History & Criticism;Music;Arts & Photography;Classical;Chamber Music;Orchestral Songbooks;Musical Genres;Music;Arts & Photography;Reference;Music;Arts & Photography;Music;Encyclopedias & Subject Guides;Reference,"0521001323,9780521001328"
30240106,Exemplary women of early China : the Lienü zhuan of Liu Xiang,,Translations from the Asian classics,,"Kinney, Anne Behnke; Liu, Xiang",2014,,Columbia Univ. Press,New York,323 S.,384,English,,,0,"9780231163088,0231163088,9780231163095,0231163096,9780231536080,0231536089",,,,,,,,,,,0,,,,,,,1,2653865,pdf,8996f59cbdc58a652b57540dd06940ec,,,Translations from the Asian Classics  Exemplary Women of Early C.pdf,0,2000-01-01 01:00:00,2017-06-16 20:25:34,http://coverart.oclc.org/ImageWebSvc/oclc/+-+289538643_140.jpg,"Liu, Xiang, -- ca 77?-6? v Chr -- Lienüzhuan;Englisch;Übersetzung","9780231163088,0231163088,9780231163095,0231163096,9780231536080,0231536089"
30240107,Exemplary women of early China : the Lienü zhuan of Liu Xiang,,Translations from the Asian classics,,"Kinney, Anne Behnke; Liu, Xiang",2014,,Columbia Univ. Press,New York,323 S.,384,English,,,0,"9780231163088,0231163088,9780231163095,0231163096,9780231536080,0231536089",,,,,,,,,,,0,,,,,,,1,2653865,pdf,8996f59cbdc58a652b57540dd06940ec,,,Translations from the Asian Classics  Exemplary Women of Early C.pdf,0,2000-01-01 01:00:00,2017-06-16 20:36:02,1693000/8996f59cbdc58a652b57540dd06940ec-d.2017-06-16 23-36-02.jpg,"Liu, Xiang, -- ca 77?-6? v Chr -- Lienüzhuan;Englisch;Übersetzung","9780231163088,0231163088,9780231163095,0231163096,9780231536080,0231536089"
30240108,Exemplary Women of Early China: The Lienü zhuan of Liu Xiang,,Translations from the Asian Classics,,"Xiang Liu, Anne Behnke Kinney",2014,,Columbia University Press,New York,384,384,English,,,0,"0231163088,9780231163088",,,,,,,,,,,0,,,,,,,1,2653865,pdf,8996f59cbdc58a652b57540dd06940ec,,,Translations from the Asian Classics  Exemplary Women of Early C.pdf,0,2000-01-01 01:00:00,2017-06-16 20:36:12,https://images-na.ssl-images-amazon.com/images/I/51vyxSe9NnL.jpg,China;Asia;Historical;Biographies & Memoirs;Reference & Collections;Biographies & Memoirs;Women;Specific Groups;Biographies & Memoirs;Biographies & Memoirs;Gay;Lesbian;Transgender;Gay & Lesbian;Philosophy;Nonfiction;Gay & Lesbian;China;Asia;History;Women in History;World;History;Ethics & Morality;Philosophy;Politics & Social Sciences;Customs & Traditions;Social Sciences;Politics & Social Sciences;Women’s Studies;Abortion & Birth Control;Feminist Theory;History;Motherhood;Women Writers;Politics,"0231163088,9780231163088"
30240109,The semantics of Chinese classifiers and linguistic relativity,,Routledge studies in Chinese linguistics,,"Jiang, Song",2017,,Routledge/Taylor & Francis Group,,0,230,English,,,0,"9781138291331,1138291331",,,,,,,,,,,0,,,1,1,0,1,1,1767592,pdf,3f2d52e6c1fbf1108a47b6a7f9ecea06,,,9781315265483.pdf,0,2000-01-01 01:00:00,2017-06-16 20:37:17,,Chinese language -- Semantics;Chinese language -- Classifiers;Chinese language -- Syntax;Classifiers (Linguistics),"9781138291331,1138291331"
30240110,The semantics of Chinese classifiers and linguistic relativity,,Routledge studies in Chinese linguistics,,"Jiang, Song",2017,,Routledge/Taylor & Francis Group,,0,230,English,,,0,"9781138291331,1138291331",,,,,,,,,,,0,,,1,1,0,1,1,1767592,pdf,3f2d52e6c1fbf1108a47b6a7f9ecea06,,,9781315265483.pdf,0,2000-01-01 01:00:00,2017-06-16 20:40:15,1693000/3f2d52e6c1fbf1108a47b6a7f9ecea06-g.jpg,Chinese language -- Semantics;Chinese language -- Classifiers;Chinese language -- Syntax;Classifiers (Linguistics),"9781138291331,1138291331"
30240111,Театрал,,,,Греч Н.И.,1853,,Типография Н. Греча,,,162,Russian,,,,-,,,,,,,,,,,0,,,,,,0,1,37959134,pdf,25c2fd4d768b164089e605624a96fb6a,,,Греч Н.И.;Театрал;;;Типография Н. Греча;1853;-;;Russian,0,2000-01-01 01:00:00,2017-06-16 21:07:39,1573000/25c2fd4d768b164089e605624a96fb6a-g.jpg,,
30240112,Иллюстрированный практический путеводитель по Одессе,,,,Москвич Г.Г.,1904,,Типография Л. Нитче (Одесса),,,193,Russian,,,,-,,,,,,,,,,,0,,,,,,0,1,114294202,pdf,6056c19c1332a4c10e4a7a718155860f,,,Москвич Г.Г.;Иллюстрированный практический путеводитель по Одессе;;;Типография Л. Нитче (Одесса);1904;-;;Russian,0,2000-01-01 01:00:00,2017-06-16 21:07:39,1577000/6056c19c1332a4c10e4a7a718155860f-g.jpg,,
30240113,«Отчизну сердцем защитили»  Стихи поэтов Тейковского района,,,,,2011,,"ОАО «Издательство «Иваново»,",,,64,Russian,,,,-,,,,,,,,,,,0,,,,,,0,1,2010197,pdf,ca229279281b8a331bc80b0e6cfa53f2,,,";«Отчизну сердцем защитили»  Стихи поэтов Тейковского района;;;ОАО «Издательство «Иваново»,;2011;-;;Russian",0,2000-01-01 01:00:00,2017-06-16 21:07:39,1585000/ca229279281b8a331bc80b0e6cfa53f2-g.jpg,,
30240114,Recettes Angéliques. Le bœuf: Le goût d’être ensemble,,,,(Collective),2012,,INTERBEV,,0,32,French,,,0,-,,,,,,,,,,,0,,,,,,0,1,3164060,pdf,be017384eb788f84803d6cf2728a3a68,,,;Recettes Angliques. Le boeuf Le got d’tre ensemble;;;INTERBEV;2012;-;;French,0,2000-01-01 01:00:00,2017-06-16 21:07:39,1585000/be017384eb788f84803d6cf2728a3a68-g.jpg,,
30240115,A World Of Animals Vol. 2,,Painting- Animals,,Ana Bernabe,2002,,Viking folk Art,,,60,English,,,,-,,,,,,,,,,,0,,,,,,0,0,50405079,pdf,857f613ba692b86d043d09c24061c24a,,,Ana Bernabe;A World Of Animals Vol. 2;Painting- Animals;;Viking folk Art;2002;-;;English,0,2000-01-01 01:00:00,2017-06-16 21:07:39,1585000/857f613ba692b86d043d09c24061c24a-g.jpg,,
30240116,A World Of Animals Vol. 3,,Painting- Animals,,Ana Bernabe,2003,,Viking folk Art,,,65,English,,,,-,,,,,,,,,,,0,,,,,,0,0,46544505,pdf,d2dbe9b1e95bf109a85cf033d923f5a2,,,Ana Bernabe;A World Of Animals Vol. 3;Painting- Animals;;Viking folk Art;2003;-;;English,0,2000-01-01 01:00:00,2017-06-16 21:07:39,1585000/d2dbe9b1e95bf109a85cf033d923f5a2-g.jpg,,
30240117,20 Easy DIY Holiday Craft,,,,Collective,2015,,FloraCraft,,0,58,English,,,0,-,,,,,,,,,,,0,,,,,,0,1,19194778,pdf,b5d1f6e32d9acffad14ecfb28dac3ac6,,,"Collective;20 Easy DIY Holiday Craft;;;FloraCraft, Prime Publishing LLC;2015;-;;English",0,2000-01-01 01:00:00,2017-06-16 21:07:39,1585000/b5d1f6e32d9acffad14ecfb28dac3ac6-g.jpg,,
30240118,Описание 3-х линейной винтовки образца 1891 года,,,,,1891,,"Издание Офицерской стрелковой школы, Типография И,Н, Скороходова (СПб",,,16,Russian,,,,-,,,,,,,,,,,0,,,,,,0,1,20685620,pdf,3249fcdc9c40bf854fcfbf1ef55e4d9d,,,";Описание 3-х линейной винтовки образца 1891 года;;;Издание Офицерской стрелковой школы, Типография И,Н, Скороходова (СПб;1891;-;;Russian",0,2000-01-01 01:00:00,2017-06-16 21:07:39,1630000/3249fcdc9c40bf854fcfbf1ef55e4d9d-g.jpg,,
30240119,Третье отделение при Николае I,,,,Троцкий И.М.,1930,,Издательство Всесоюзного общества политкаторжан и ссыльно-поселенцев,,,74,Russian,,,,-,,,,,,,,,,,0,,,,,,0,1,39399144,pdf,e7c5d9cf33dd069059147f4c08996e2b,,,Троцкий И.М.;Третье отделение при Николае I;;;Издательство Всесоюзного общества политкаторжан и ссыльно-поселенцев;1930;-;;Russian,0,2000-01-01 01:00:00,2017-06-16 21:07:39,1630000/e7c5d9cf33dd069059147f4c08996e2b-g.jpg,,
30240120,Занимательные задачи и опыты,,,,Перельман Я.И.,1972,,Детская литература,,,472,Russian,,,,-,,,,,,,,,,,0,,,,,,0,1,167718439,pdf,0fc1642694a8224f1a8df67f677f4c26,,,Перельман Я.И.;Занимательные задачи и опыты;;;Детская литература;1972;-;;Russian,0,2000-01-01 01:00:00,2017-06-16 21:07:39,1630000/0fc1642694a8224f1a8df67f677f4c26-g.jpg,,
30240121,Сад и огород в доме,,,,Попов Е.Б.,1985,,Детская литература,,,120,Russian,,,,-,,,,,,,,,,,0,,,,,,0,1,48066991,pdf,fe06f74051bf5081ef51978cd47a993c,,,Попов Е.Б.;Сад и огород в доме;;;Детская литература;1985;-;;Russian,0,2000-01-01 01:00:00,2017-06-16 21:07:39,1631000/fe06f74051bf5081ef51978cd47a993c-g.jpg,,
30240122,Oceanografie. eseuri,,,,Mircea Eliade,1934,1st edition,Cultura Populara,București,304,304,Romanian,195,,0,-,,,,,,,,,,ocr by epistematic,0,,,,,,,1,17299949,pdf,f5e05a11cfc53acb1e4e292fa66c1bd2,,,Eliade Oceanografie 1934 ocr lipsa.pdf,0,2000-01-01 01:00:00,2017-06-16 21:07:39,1685000/f5e05a11cfc53acb1e4e292fa66c1bd2-g.jpg,,
30240123,Cum ne construim dușmanul: și alte scrieri ocazionale,,,,Umberto Eco,2007,3rd edition,Polirom,Iasi,352,352,Romanian,,,0,-,,,,,,,,,,"ocr by epistematic, scan sdr",300,,,,,,0,1,11499669,pdf,9d2e9c43400588086e983e18322889e4,,,Umberto Eco - Cum ne construim dușmanii ocr.pdf,0,2000-01-01 01:00:00,2017-06-16 21:07:39,1689000/9d2e9c43400588086e983e18322889e4-g.jpg,,
30240124,Química: a ciência central,,,,"Theodore L. Brown, H. Eugene LeMay Jr., Bruce E. Bursten, Catherine Murphy, Patrick Woodward, Matthew W. Stoltzfus",2017,13ª,Pearson Education do Brasil,São Paulo,0,0,Portuguese,296,,0,978-85-430-0565-2,,,,,,,,,,,0,,,,,,,0,218816729,pdf,d16234405485d1e673ed285599daf4f8,,,9788543005652.pdf,0,2000-01-01 01:00:00,2017-06-16 21:28:02,http://i.imgur.com/IfcDpSa.jpg,,9788543005652
30240125,Golpe de efecto en el Este. Kursk julio de 1943,18,La Segunda Guerra Mundial Osprey 18,,Mark Healy,2008,1,Osprey RBA,Barcelona,97,97,Spanish,67,,0,978-84-473-5568-6,,,,,,,,,,,300,1,,,,1,,0,26259630,pdf,1ab4edaba85d61a3d57fee6d85b36f7f,,,Osprey RBA WW2 18 Golpe de efecto en el Este Kursk julio de 1943 M Healy Castellano 2008.pdf,0,2000-01-01 01:00:00,2017-06-16 21:29:04,,,9788447355686
30240126,The Cambridge Companion to the Concerto,,Cambridge Companions to Music,,Simon P. Keefe,2005,,Cambridge University Press,,338,0,English,,,0,"052154257X,9780521542579",,,,,,,,,,,0,,,,,,,,1647356,epub,a84ce513754e0a9787e95431fc7a8e56,,,The Cambridge Companion to the Concerto (Cambridge Companions to Music).epub,0,2000-01-01 01:00:00,2017-06-16 21:32:26,https://images-na.ssl-images-amazon.com/images/I/51NSpmzcQ-L.jpg,"Reference;Music;Arts & Photography;Music;Performing Arts;Humanities;New, Used & Rental Textbooks;Specialty Boutique","052154257X,9780521542579"
30240127,Química: a ciência central,,,,"Theodore L. Brown, H. Eugene LeMay Jr., Bruce E. Bursten, Catherine Murphy, Patrick Woodward, Matthew W. Stoltzfus",2017,13ª,Pearson Education do Brasil,São Paulo,0,0,Portuguese,296,,0,978-85-430-0565-2,,,,,,,,,,,0,,,,,,,0,218816729,pdf,d16234405485d1e673ed285599daf4f8,,,9788543005652.pdf,0,2000-01-01 01:00:00,2017-06-16 21:38:45,1693000/d16234405485d1e673ed285599daf4f8-d.jpg,,9788543005652
30240128,"Accelerated Learning: How To Learn Any Skill Or Subject, Double Your Reading Speed And Develop Laser Sharpe Memory - INSTANTLY - OUT-THINK ANYONE",,N/A,,James Horton,2017,,,,0,0,English,196,,0,,,,,,,,,,,,0,,,,,,,,329318,azw3,c7a40490a3fa047597d5cbe49b876997,,,"Accelerated Learning_ How To Learn Any Skill Or Subject, Double Your Reading Speed And Develop Laser Sharpe Memory - INSTANTLY -  OUT-THINK ANYONE.azw3",0,2000-01-01 01:00:00,2017-06-16 21:40:34,https://images-na.ssl-images-amazon.com/images/I/519rJYhc4SL.jpg,,
30240129,Truenos en Montecassino. Cassino enero de 1944,20,La Segunda Guerra Mundial Osprey 20,,Ken Ford,2008,1,Osprey RBA,Barcelona,97,97,Spanish,67,,0,978-84-473-5570-9,,,,,,,,,,,300,1,,0,,1,,0,28395541,pdf,a1e4175cb75086d1aa005227bc850a56,,,Osprey RBA WW2 20 Truenos en Montecassino Cassino enero de 1944 Castellano 2008.pdf,0,2000-01-01 01:00:00,2017-06-16 21:41:14,,,9788447355709
30240130,Computational Social Psychology,,Frontiers of Social Psychology,,"Robin R. Vallacher, Stephen J. Read, Andrzej Nowak",2017,1,Routledge,,398,399,English,,,0,"1138951641,9781138951648",,,,,,,,,,,0,,,,,,,1,19337757,pdf,ee0790c00b711ae68732f834ff52b77b,,,social computational psychology 2017.pdf,0,2000-01-01 01:00:00,2017-06-16 21:45:40,https://images-na.ssl-images-amazon.com/images/I/31EsUm4z%2BqL.jpg,"Neural Networks;AI & Machine Learning;Computer Science;Computers & Technology;Research;Psychology & Counseling;Health, Fitness & Dieting;Social Psychology & Interactions;Psychology & Counseling;Health, Fitness & Dieting;Behavioral Sciences;Anthropology;Behavioral Psychology;Cognitive Psychology;Science & Math;Research;Psychology;Social Psychology & Interactions;Psychology;Sociology;Abuse;Class;Death;Marriage & Family;Medicine;Race Relations;Rural;Social Theory;Urban;Politics & Social Sciences;Co","1138951641,9781138951648"
30240131,The Cambridge Companion to the Guitar,,Cambridge Companions to Music,,Victor Anand Coelho,2003,,Cambridge University Press,,280,0,English,61,,0,"0521000408,9780521000406",,,,,,,,,,,0,,,,,,,,2230263,epub,a110c4b1b02333fe8e9a44b9996fd57d,,,The Cambridge Companion to the - Desconhecido.epub,0,2000-01-01 01:00:00,2017-06-16 21:52:56,https://images-na.ssl-images-amazon.com/images/I/51U3rr8RI4L.jpg,#Guitar; #Instruments; #Music; #Arts & Photography; #Music;#Performing Arts; #Humanities; #The Cambridge Companion to the Guitar #Cambridge Companions to Music #Victor Anand Coelho,"0521000408,9780521000406"
30240132,El Día D I: La playa de Omaha. Normandía junio de 1944,21,La Segunda Guerra Mundial Osprey 21,,Steven J. Zaloga,2008,1,Osprey RBA,Barcelona,97,97,Spanish,67,,0,978-84-473-5773-4,,,,,,,,,,,300,1,,0,,1,,0,27984807,pdf,ea21f4e8c6203f73aef9c37aa5952cea,,,Osprey RBA WW2 21 El Día D I la playa de Omaha Normandía junio de 1944 S Zaloga Castellano 2008.pdf,0,2000-01-01 01:00:00,2017-06-16 21:55:09,,,9788447357734
30240133,El Día D II: La Playa de Utah. Normandía junio de 1944,23,La Segunda Guerra Mundial Osprey 23,,Steven J. Zaloga,2008,1,Osprey RBA,Barcelona,97,97,Spanish,67,,0,978-84-473-5775-8,,,,,,,,,,,300,1,,0,,1,,0,28354062,pdf,d9995a4ab26cf28ee69c4333b4a03869,,,Osprey RBA WW2 23 El Día D II la Playa de Utah Normandía junio de 1944 S Zaloga Castellano 2008.pdf,0,2000-01-01 01:00:00,2017-06-16 22:06:28,,,9788447357758
30240134,Театрал,,,,Греч Н.И.,1853,,Типография Н. Греча,,,162,Russian,,,,-,,,,,,,,,,,0,,,,,,0,1,37959134,pdf,25c2fd4d768b164089e605624a96fb6a,,,Греч Н.И.;Театрал;;;Типография Н. Греча;1853;-;;Russian,0,2000-01-01 01:00:00,2017-06-16 22:07:36,1573000/25c2fd4d768b164089e605624a96fb6a-g.jpg,,
30240135,Иллюстрированный практический путеводитель по Одессе,,,,Москвич Г.Г.,1904,,Типография Л. Нитче (Одесса),,,193,Russian,,,,-,,,,,,,,,,,0,,,,,,0,1,114294202,pdf,6056c19c1332a4c10e4a7a718155860f,,,Москвич Г.Г.;Иллюстрированный практический путеводитель по Одессе;;;Типография Л. Нитче (Одесса);1904;-;;Russian,0,2000-01-01 01:00:00,2017-06-16 22:07:36,1577000/6056c19c1332a4c10e4a7a718155860f-g.jpg,,
30240136,«Отчизну сердцем защитили»  Стихи поэтов Тейковского района,,,,,2011,,"ОАО «Издательство «Иваново»,",,,64,Russian,,,,-,,,,,,,,,,,0,,,,,,0,1,2010197,pdf,ca229279281b8a331bc80b0e6cfa53f2,,,";«Отчизну сердцем защитили»  Стихи поэтов Тейковского района;;;ОАО «Издательство «Иваново»,;2011;-;;Russian",0,2000-01-01 01:00:00,2017-06-16 22:07:36,1585000/ca229279281b8a331bc80b0e6cfa53f2-g.jpg,,
30240137,Recettes Angéliques. Le bœuf: Le goût d’être ensemble,,,,(Collective),2012,,INTERBEV,,0,32,French,,,0,-,,,,,,,,,,,0,,,,,,0,1,3164060,pdf,be017384eb788f84803d6cf2728a3a68,,,;Recettes Angliques. Le boeuf Le got d’tre ensemble;;;INTERBEV;2012;-;;French,0,2000-01-01 01:00:00,2017-06-16 22:07:36,1585000/be017384eb788f84803d6cf2728a3a68-g.jpg,,
30240138,A World Of Animals Vol. 2,,Painting- Animals,,Ana Bernabe,2002,,Viking folk Art,,,60,English,,,,-,,,,,,,,,,,0,,,,,,0,0,50405079,pdf,857f613ba692b86d043d09c24061c24a,,,Ana Bernabe;A World Of Animals Vol. 2;Painting- Animals;;Viking folk Art;2002;-;;English,0,2000-01-01 01:00:00,2017-06-16 22:07:36,1585000/857f613ba692b86d043d09c24061c24a-g.jpg,,
30240139,A World Of Animals Vol. 3,,Painting- Animals,,Ana Bernabe,2003,,Viking folk Art,,,65,English,,,,-,,,,,,,,,,,0,,,,,,0,0,46544505,pdf,d2dbe9b1e95bf109a85cf033d923f5a2,,,Ana Bernabe;A World Of Animals Vol. 3;Painting- Animals;;Viking folk Art;2003;-;;English,0,2000-01-01 01:00:00,2017-06-16 22:07:36,1585000/d2dbe9b1e95bf109a85cf033d923f5a2-g.jpg,,
30240140,20 Easy DIY Holiday Craft,,,,Collective,2015,,FloraCraft,,0,58,English,,,0,-,,,,,,,,,,,0,,,,,,0,1,19194778,pdf,b5d1f6e32d9acffad14ecfb28dac3ac6,,,"Collective;20 Easy DIY Holiday Craft;;;FloraCraft, Prime Publishing LLC;2015;-;;English",0,2000-01-01 01:00:00,2017-06-16 22:07:36,1585000/b5d1f6e32d9acffad14ecfb28dac3ac6-g.jpg,,
30240141,Описание 3-х линейной винтовки образца 1891 года,,,,,1891,,"Издание Офицерской стрелковой школы, Типография И,Н, Скороходова (СПб",,,16,Russian,,,,-,,,,,,,,,,,0,,,,,,0,1,20685620,pdf,3249fcdc9c40bf854fcfbf1ef55e4d9d,,,";Описание 3-х линейной винтовки образца 1891 года;;;Издание Офицерской стрелковой школы, Типография И,Н, Скороходова (СПб;1891;-;;Russian",0,2000-01-01 01:00:00,2017-06-16 22:07:36,1630000/3249fcdc9c40bf854fcfbf1ef55e4d9d-g.jpg,,
30240142,Третье отделение при Николае I,,,,Троцкий И.М.,1930,,Издательство Всесоюзного общества политкаторжан и ссыльно-поселенцев,,,74,Russian,,,,-,,,,,,,,,,,0,,,,,,0,1,39399144,pdf,e7c5d9cf33dd069059147f4c08996e2b,,,Троцкий И.М.;Третье отделение при Николае I;;;Издательство Всесоюзного общества политкаторжан и ссыльно-поселенцев;1930;-;;Russian,0,2000-01-01 01:00:00,2017-06-16 22:07:36,1630000/e7c5d9cf33dd069059147f4c08996e2b-g.jpg,,
30240143,Занимательные задачи и опыты,,,,Перельман Я.И.,1972,,Детская литература,,,472,Russian,,,,-,,,,,,,,,,,0,,,,,,0,1,167718439,pdf,0fc1642694a8224f1a8df67f677f4c26,,,Перельман Я.И.;Занимательные задачи и опыты;;;Детская литература;1972;-;;Russian,0,2000-01-01 01:00:00,2017-06-16 22:07:36,1630000/0fc1642694a8224f1a8df67f677f4c26-g.jpg,,
30240144,Сад и огород в доме,,,,Попов Е.Б.,1985,,Детская литература,,,120,Russian,,,,-,,,,,,,,,,,0,,,,,,0,1,48066991,pdf,fe06f74051bf5081ef51978cd47a993c,,,Попов Е.Б.;Сад и огород в доме;;;Детская литература;1985;-;;Russian,0,2000-01-01 01:00:00,2017-06-16 22:07:36,1631000/fe06f74051bf5081ef51978cd47a993c-g.jpg,,
30240145,Oceanografie. eseuri,,,,Mircea Eliade,1934,1st edition,Cultura Populara,București,304,304,Romanian,195,,0,-,,,,,,,,,,ocr by epistematic,0,,,,,,,1,17299949,pdf,f5e05a11cfc53acb1e4e292fa66c1bd2,,,Eliade Oceanografie 1934 ocr lipsa.pdf,0,2000-01-01 01:00:00,2017-06-16 22:07:36,1685000/f5e05a11cfc53acb1e4e292fa66c1bd2-g.jpg,,
30240146,Cum ne construim dușmanul: și alte scrieri ocazionale,,,,Umberto Eco,2007,3rd edition,Polirom,Iasi,352,352,Romanian,,,0,-,,,,,,,,,,"ocr by epistematic, scan sdr",300,,,,,,0,1,11499669,pdf,9d2e9c43400588086e983e18322889e4,,,Umberto Eco - Cum ne construim dușmanii ocr.pdf,0,2000-01-01 01:00:00,2017-06-16 22:07:36,1689000/9d2e9c43400588086e983e18322889e4-g.jpg,,
30240147,"Kiedy kropla drąży skałę, czyli droga do mistrzostwa w komunikacji perswazyjnej",,,,Aleksander Binsztok,2013,Wydanie II,Helion,,373,373,Polish,,,0,978-83-246-7240-0,,,,,,,,,,,0,,,,,,,1,3474633,pdf,2937a86a4a3ea84fde807bffb2d4004b,,,"Kiedy kropla drąży skałę, czyli droga do mistrzostwa w komunikacji perswazyjnej. Wydanie II rozszerzone (2013) - Aleksander Binsztok.pdf",0,2000-01-01 01:00:00,2017-06-16 22:11:23,,,9788324672400
30240148,New Perspectives Microsoft Windows 10: Comprehensive,,,,Lisa Ruffolo,2016,1st,Cengage Learning,,588,588,English,85,,0,1305579380,,,,,,,,,,,0,,,,,,,1,29948471,pdf,e601a7a350277910de815c85c3dbbe3d,,,New Perspectives Microsoft Wind - Lisa Ruffolo.pdf,0,2000-01-01 01:00:00,2017-06-16 22:13:07,,,1305579380
30240149,Operación Market Garden. Arnhem septiembre de 1944,30,La Segunda Guerra Mundial Osprey 30,,Stephen Badsey,2008,1,Osprey RBA,Barcelona,97,97,Spanish,67,,0,978-84-473-5782-6,,,,,,,,,,,300,1,,0,,1,,0,26754007,pdf,2a372bf1431233afa4681539ef3220d4,,,Osprey RBA WW2 30 Operación Market Garden Arnhem septiembre de 1944 S Badsey Castellano 2008.pdf,0,2000-01-01 01:00:00,2017-06-16 22:15:37,,,9788447357826
30240150,Pascal. Ćwiczenia praktyczne.,,,,Andrzej Kierzkowski,2012,Wydanie III,Helion,,207,207,Polish,,,0,978-83-246-6637-9,,,,,,,,,,,0,,,,,,,1,1654469,pdf,412053fdf0b295fdd988ab5831f1a866,,,Pascal. Ćwiczenia praktyczne. Wydanie III (2012) - Andrzej Kierzkowski.pdf,0,2000-01-01 01:00:00,2017-06-16 22:22:42,,,9788324666379
30240151,En la línea Sigfrido. Alemania septiembre de 1944,31,La Segunda Guerra Mundial Osprey 31,,Steven J. Zaloga,2008,1,Osprey RBA,Barcelona,99,99,Spanish,67,,0,978-84-473-5947-9,,,,,,,,,,,300,1,,0,,1,,0,29508300,pdf,a2203c3a9483bed776ce236d6b6dcc49,,,Osprey RBA WW2 31 En la línea Sigfrido Alemania septiembre de 1944 S Zaloga Castellano 2008.pdf,0,2000-01-01 01:00:00,2017-06-16 22:23:58,,,9788447359479
30240152,Luxembourgish Language Grammar Learn Study Learning,,,,Memorizing Sites,"2017,",,,,97,97,English,314,,0,,,,,,,,,,,,300,1,0,0,0,0,0,0,746570,pdf,cefb2ac43f0000905b3bf85a9e90d33d,,,luxembourgish.pdf,0,2000-01-01 01:00:00,2017-06-16 22:29:57,,luxembourgish,
30240153,The Geopolitics of Deep Oceans,,,,John Hannigan,2015,1,Polity,,200,0,English,,,0,"0745680186,9780745680187",,,,,,,,,,,0,,,,,,1,,469033,epub,3ff04dd9e3417e4de4f52ebb96ba0ec1,,,The Geopolitics of Deep Oceans 978-0-7456-8018-7.epub,0,2000-01-01 01:00:00,2017-06-16 22:30:48,https://images-na.ssl-images-amazon.com/images/I/41yUA9B4IIL.jpg,"Foreign & International Law;Law;Environmental Policy;Public Affairs & Policy;Politics & Government;Politics & Social Sciences;Law;Business Law;Constitutional Law;Criminal Law;Legal Reference;Tax Law;New, Used & Rental Textbooks;Specialty Boutique;Public Policy;Political Science;Social Sciences;New, Used & Rental Textbooks;Specialty Boutique","0745680186,9780745680187"
30240154,State-Sponsored Inequality: The Banner System and Social Stratification in Northeast China,,,,Shuang Chen,2017,1,Stanford University Press,,368,0,English,,,0,"0804799032,9780804799034",,,,,,,,,,,0,,,,,,1,,9271498,epub,67430ae2e737ce6521928c39780bbcaa,,,State-Sponsored Inequality 9780804799034.epub,0,2000-01-01 01:00:00,2017-06-16 22:33:38,https://images-na.ssl-images-amazon.com/images/I/51w54HWFMPL.jpg,"China;Asia;History;Historical Study & Educational Resources;Archaeology;Essays;Historical Geography;Historical Maps;Historiography;Reference;Study & Teaching;History;Class;Sociology;Politics & Social Sciences;Asia;History;Humanities;New, Used & Rental Textbooks;Specialty Boutique;Social Sciences;Anthropology;Archaeology;Criminology;Gay & Lesbian Studies;Gender Studies;Geography;Military Sciences;Political Science;Psychology;Sociology;New, Used & Rental Textbooks;Specialty Boutique","0804799032,9780804799034"
30240155,State-Sponsored Inequality: The Banner System and Social Stratification in Northeast China,,,,Shuang Chen,2017,1,Stanford University Press,,368,363,English,,,0,"0804799032,9780804799034",,,,,,,,,,,0,,,,1,,1,1,2158090,pdf,4c888c46a32d6461e966590c58043172,,,State-Sponsored Inequality-9780804799034.pdf,0,2000-01-01 01:00:00,2017-06-16 22:34:50,https://images-na.ssl-images-amazon.com/images/I/51w54HWFMPL.jpg,"China;Asia;History;Historical Study & Educational Resources;Archaeology;Essays;Historical Geography;Historical Maps;Historiography;Reference;Study & Teaching;History;Class;Sociology;Politics & Social Sciences;Asia;History;Humanities;New, Used & Rental Textbooks;Specialty Boutique;Social Sciences;Anthropology;Archaeology;Criminology;Gay & Lesbian Studies;Gender Studies;Geography;Military Sciences;Political Science;Psychology;Sociology;New, Used & Rental Textbooks;Specialty Boutique","0804799032,9780804799034"
30240156,Central-Local Relations in Asian Constitutional Systems,,Constitutional Systems of the World: Thematic Studies,,"Andrew Harding, Mark Sidel",2015,,Hart Publishing,,192,0,English,,,0,"1849466408,9781849466400",,,,,,,,,,,0,,,,1,,1,,409411,epub,c5b055735d37e51d781892f7b5046ad8,,,Central-Local Relations in Asian Constitutional Systems 978-1-78225-560-4.epub,0,2000-01-01 01:00:00,2017-06-16 22:37:01,https://images-na.ssl-images-amazon.com/images/I/51uZlttrqvL.jpg,"General;Constitutional Law;Law;Constitutional Law;Law;New, Used & Rental Textbooks;Specialty Boutique","1849466408,9781849466400"
30240157,Książeczka minimalisty. Prosty przewodnik szczęśliwego człowieka,,,,Babauta Leo,2009,,Helion,,103,103,Polish,,,0,978-83-246-8261-4,,,,,,,,,,,0,,,,,,,1,1321287,pdf,dc4e0f3227119d646d245be9f6b8d67d,,,Książeczka minimalisty. Prosty przewodnik szczęśliwego człowieka (2009) - Babauta Leo.pdf,0,2000-01-01 01:00:00,2017-06-16 22:37:33,,,9788324682614
